p cnf 1781 5613
1 98 -201 0
-1 -98 -201 0
1 -98 201 0
-1 98 201 0
201 99 -202 0
-201 -99 -202 0
201 -99 202 0
-201 99 202 0
202 100 -203 0
-202 -100 -203 0
202 -100 203 0
-202 100 203 0
203 101 -204 0
-203 -101 -204 0
203 -101 204 0
-203 101 204 0
204 181 -205 0
-204 -181 -205 0
204 -181 205 0
-204 181 205 0
205 189 -206 0
-205 -189 -206 0
205 -189 206 0
-205 189 206 0
206 193 -207 0
-206 -193 -207 0
206 -193 207 0
-206 193 207 0
-207 0
1 2 -208 0
-1 -2 -208 0
1 -2 208 0
-1 2 208 0
208 99 -209 0
-208 -99 -209 0
208 -99 209 0
-208 99 209 0
209 100 -210 0
-209 -100 -210 0
209 -100 210 0
-209 100 210 0
210 102 -211 0
-210 -102 -211 0
210 -102 211 0
-210 102 211 0
211 182 -212 0
-211 -182 -212 0
211 -182 212 0
-211 182 212 0
212 190 -213 0
-212 -190 -213 0
212 -190 213 0
-212 190 213 0
213 194 -214 0
-213 -194 -214 0
213 -194 214 0
-213 194 214 0
-214 0
1 2 -215 0
-1 -2 -215 0
1 -2 215 0
-1 2 215 0
215 3 -216 0
-215 -3 -216 0
215 -3 216 0
-215 3 216 0
216 100 -217 0
-216 -100 -217 0
216 -100 217 0
-216 100 217 0
217 103 -218 0
-217 -103 -218 0
217 -103 218 0
-217 103 218 0
218 183 -219 0
-218 -183 -219 0
218 -183 219 0
-218 183 219 0
219 191 -220 0
-219 -191 -220 0
219 -191 220 0
-219 191 220 0
220 195 -221 0
-220 -195 -221 0
220 -195 221 0
-220 195 221 0
-221 0
1 2 -222 0
-1 -2 -222 0
1 -2 222 0
-1 2 222 0
222 3 -223 0
-222 -3 -223 0
222 -3 223 0
-222 3 223 0
223 4 -224 0
-223 -4 -224 0
223 -4 224 0
-223 4 224 0
224 104 -225 0
-224 -104 -225 0
224 -104 225 0
-224 104 225 0
225 184 -226 0
-225 -184 -226 0
225 -184 226 0
-225 184 226 0
226 192 -227 0
-226 -192 -227 0
226 -192 227 0
-226 192 227 0
227 196 -228 0
-227 -196 -228 0
227 -196 228 0
-227 196 228 0
-228 0
2 3 -229 0
-2 -3 -229 0
2 -3 229 0
-2 3 229 0
229 4 -230 0
-229 -4 -230 0
229 -4 230 0
-229 4 230 0
230 5 -231 0
-230 -5 -231 0
230 -5 231 0
-230 5 231 0
231 105 -232 0
-231 -105 -232 0
231 -105 232 0
-231 105 232 0
232 185 -233 0
-232 -185 -233 0
232 -185 233 0
-232 185 233 0
233 193 -234 0
-233 -193 -234 0
233 -193 234 0
-233 193 234 0
234 197 -235 0
-234 -197 -235 0
234 -197 235 0
-234 197 235 0
-235 0
3 4 -236 0
-3 -4 -236 0
3 -4 236 0
-3 4 236 0
236 5 -237 0
-236 -5 -237 0
236 -5 237 0
-236 5 237 0
237 6 -238 0
-237 -6 -238 0
237 -6 238 0
-237 6 238 0
238 106 -239 0
-238 -106 -239 0
238 -106 239 0
-238 106 239 0
239 186 -240 0
-239 -186 -240 0
239 -186 240 0
-239 186 240 0
240 194 -241 0
-240 -194 -241 0
240 -194 241 0
-240 194 241 0
241 198 -242 0
-241 -198 -242 0
241 -198 242 0
-241 198 242 0
-242 0
4 5 -243 0
-4 -5 -243 0
4 -5 243 0
-4 5 243 0
243 6 -244 0
-243 -6 -244 0
243 -6 244 0
-243 6 244 0
244 7 -245 0
-244 -7 -245 0
244 -7 245 0
-244 7 245 0
245 107 -246 0
-245 -107 -246 0
245 -107 246 0
-245 107 246 0
246 187 -247 0
-246 -187 -247 0
246 -187 247 0
-246 187 247 0
247 195 -248 0
-247 -195 -248 0
247 -195 248 0
-247 195 248 0
248 199 -249 0
-248 -199 -249 0
248 -199 249 0
-248 199 249 0
-249 0
5 6 -250 0
-5 -6 -250 0
5 -6 250 0
-5 6 250 0
250 7 -251 0
-250 -7 -251 0
250 -7 251 0
-250 7 251 0
251 8 -252 0
-251 -8 -252 0
251 -8 252 0
-251 8 252 0
252 108 -253 0
-252 -108 -253 0
252 -108 253 0
-252 108 253 0
253 188 -254 0
-253 -188 -254 0
253 -188 254 0
-253 188 254 0
254 196 -255 0
-254 -196 -255 0
254 -196 255 0
-254 196 255 0
255 200 -256 0
-255 -200 -256 0
255 -200 256 0
-255 200 256 0
-256 0
6 7 -257 0
-6 -7 -257 0
6 -7 257 0
-6 7 257 0
257 8 -258 0
-257 -8 -258 0
257 -8 258 0
-257 8 258 0
258 9 -259 0
-258 -9 -259 0
258 -9 259 0
-258 9 259 0
259 101 -260 0
-259 -101 -260 0
259 -101 260 0
-259 101 260 0
260 109 -261 0
-260 -109 -261 0
260 -109 261 0
-260 109 261 0
261 189 -262 0
-261 -189 -262 0
261 -189 262 0
-261 189 262 0
262 197 -263 0
-262 -197 -263 0
262 -197 263 0
-262 197 263 0
-263 0
7 8 -264 0
-7 -8 -264 0
7 -8 264 0
-7 8 264 0
264 9 -265 0
-264 -9 -265 0
264 -9 265 0
-264 9 265 0
265 10 -266 0
-265 -10 -266 0
265 -10 266 0
-265 10 266 0
266 102 -267 0
-266 -102 -267 0
266 -102 267 0
-266 102 267 0
267 110 -268 0
-267 -110 -268 0
267 -110 268 0
-267 110 268 0
268 190 -269 0
-268 -190 -269 0
268 -190 269 0
-268 190 269 0
269 198 -270 0
-269 -198 -270 0
269 -198 270 0
-269 198 270 0
-270 0
8 9 -271 0
-8 -9 -271 0
8 -9 271 0
-8 9 271 0
271 10 -272 0
-271 -10 -272 0
271 -10 272 0
-271 10 272 0
272 11 -273 0
-272 -11 -273 0
272 -11 273 0
-272 11 273 0
273 103 -274 0
-273 -103 -274 0
273 -103 274 0
-273 103 274 0
274 111 -275 0
-274 -111 -275 0
274 -111 275 0
-274 111 275 0
275 191 -276 0
-275 -191 -276 0
275 -191 276 0
-275 191 276 0
276 199 -277 0
-276 -199 -277 0
276 -199 277 0
-276 199 277 0
-277 0
9 10 -278 0
-9 -10 -278 0
9 -10 278 0
-9 10 278 0
278 11 -279 0
-278 -11 -279 0
278 -11 279 0
-278 11 279 0
279 12 -280 0
-279 -12 -280 0
279 -12 280 0
-279 12 280 0
280 104 -281 0
-280 -104 -281 0
280 -104 281 0
-280 104 281 0
281 112 -282 0
-281 -112 -282 0
281 -112 282 0
-281 112 282 0
282 192 -283 0
-282 -192 -283 0
282 -192 283 0
-282 192 283 0
283 200 -284 0
-283 -200 -284 0
283 -200 284 0
-283 200 284 0
-284 0
10 11 -285 0
-10 -11 -285 0
10 -11 285 0
-10 11 285 0
285 12 -286 0
-285 -12 -286 0
285 -12 286 0
-285 12 286 0
286 13 -287 0
-286 -13 -287 0
286 -13 287 0
-286 13 287 0
287 101 -288 0
-287 -101 -288 0
287 -101 288 0
-287 101 288 0
288 105 -289 0
-288 -105 -289 0
288 -105 289 0
-288 105 289 0
289 113 -290 0
-289 -113 -290 0
289 -113 290 0
-289 113 290 0
290 193 -291 0
-290 -193 -291 0
290 -193 291 0
-290 193 291 0
-291 0
11 12 -292 0
-11 -12 -292 0
11 -12 292 0
-11 12 292 0
292 13 -293 0
-292 -13 -293 0
292 -13 293 0
-292 13 293 0
293 14 -294 0
-293 -14 -294 0
293 -14 294 0
-293 14 294 0
294 102 -295 0
-294 -102 -295 0
294 -102 295 0
-294 102 295 0
295 106 -296 0
-295 -106 -296 0
295 -106 296 0
-295 106 296 0
296 114 -297 0
-296 -114 -297 0
296 -114 297 0
-296 114 297 0
297 194 -298 0
-297 -194 -298 0
297 -194 298 0
-297 194 298 0
-298 0
12 13 -299 0
-12 -13 -299 0
12 -13 299 0
-12 13 299 0
299 14 -300 0
-299 -14 -300 0
299 -14 300 0
-299 14 300 0
300 15 -301 0
-300 -15 -301 0
300 -15 301 0
-300 15 301 0
301 103 -302 0
-301 -103 -302 0
301 -103 302 0
-301 103 302 0
302 107 -303 0
-302 -107 -303 0
302 -107 303 0
-302 107 303 0
303 115 -304 0
-303 -115 -304 0
303 -115 304 0
-303 115 304 0
304 195 -305 0
-304 -195 -305 0
304 -195 305 0
-304 195 305 0
-305 0
13 14 -306 0
-13 -14 -306 0
13 -14 306 0
-13 14 306 0
306 15 -307 0
-306 -15 -307 0
306 -15 307 0
-306 15 307 0
307 16 -308 0
-307 -16 -308 0
307 -16 308 0
-307 16 308 0
308 104 -309 0
-308 -104 -309 0
308 -104 309 0
-308 104 309 0
309 108 -310 0
-309 -108 -310 0
309 -108 310 0
-309 108 310 0
310 116 -311 0
-310 -116 -311 0
310 -116 311 0
-310 116 311 0
311 196 -312 0
-311 -196 -312 0
311 -196 312 0
-311 196 312 0
-312 0
14 15 -313 0
-14 -15 -313 0
14 -15 313 0
-14 15 313 0
313 16 -314 0
-313 -16 -314 0
313 -16 314 0
-313 16 314 0
314 17 -315 0
-314 -17 -315 0
314 -17 315 0
-314 17 315 0
315 105 -316 0
-315 -105 -316 0
315 -105 316 0
-315 105 316 0
316 109 -317 0
-316 -109 -317 0
316 -109 317 0
-316 109 317 0
317 117 -318 0
-317 -117 -318 0
317 -117 318 0
-317 117 318 0
318 197 -319 0
-318 -197 -319 0
318 -197 319 0
-318 197 319 0
-319 0
15 16 -320 0
-15 -16 -320 0
15 -16 320 0
-15 16 320 0
320 17 -321 0
-320 -17 -321 0
320 -17 321 0
-320 17 321 0
321 18 -322 0
-321 -18 -322 0
321 -18 322 0
-321 18 322 0
322 106 -323 0
-322 -106 -323 0
322 -106 323 0
-322 106 323 0
323 110 -324 0
-323 -110 -324 0
323 -110 324 0
-323 110 324 0
324 118 -325 0
-324 -118 -325 0
324 -118 325 0
-324 118 325 0
325 198 -326 0
-325 -198 -326 0
325 -198 326 0
-325 198 326 0
-326 0
16 17 -327 0
-16 -17 -327 0
16 -17 327 0
-16 17 327 0
327 18 -328 0
-327 -18 -328 0
327 -18 328 0
-327 18 328 0
328 19 -329 0
-328 -19 -329 0
328 -19 329 0
-328 19 329 0
329 107 -330 0
-329 -107 -330 0
329 -107 330 0
-329 107 330 0
330 111 -331 0
-330 -111 -331 0
330 -111 331 0
-330 111 331 0
331 119 -332 0
-331 -119 -332 0
331 -119 332 0
-331 119 332 0
332 199 -333 0
-332 -199 -333 0
332 -199 333 0
-332 199 333 0
-333 0
17 18 -334 0
-17 -18 -334 0
17 -18 334 0
-17 18 334 0
334 19 -335 0
-334 -19 -335 0
334 -19 335 0
-334 19 335 0
335 20 -336 0
-335 -20 -336 0
335 -20 336 0
-335 20 336 0
336 108 -337 0
-336 -108 -337 0
336 -108 337 0
-336 108 337 0
337 112 -338 0
-337 -112 -338 0
337 -112 338 0
-337 112 338 0
338 120 -339 0
-338 -120 -339 0
338 -120 339 0
-338 120 339 0
339 200 -340 0
-339 -200 -340 0
339 -200 340 0
-339 200 340 0
-340 0
18 19 -341 0
-18 -19 -341 0
18 -19 341 0
-18 19 341 0
341 20 -342 0
-341 -20 -342 0
341 -20 342 0
-341 20 342 0
342 21 -343 0
-342 -21 -343 0
342 -21 343 0
-342 21 343 0
343 101 -344 0
-343 -101 -344 0
343 -101 344 0
-343 101 344 0
344 109 -345 0
-344 -109 -345 0
344 -109 345 0
-344 109 345 0
345 113 -346 0
-345 -113 -346 0
345 -113 346 0
-345 113 346 0
346 121 -347 0
-346 -121 -347 0
346 -121 347 0
-346 121 347 0
-347 0
19 20 -348 0
-19 -20 -348 0
19 -20 348 0
-19 20 348 0
348 21 -349 0
-348 -21 -349 0
348 -21 349 0
-348 21 349 0
349 22 -350 0
-349 -22 -350 0
349 -22 350 0
-349 22 350 0
350 102 -351 0
-350 -102 -351 0
350 -102 351 0
-350 102 351 0
351 110 -352 0
-351 -110 -352 0
351 -110 352 0
-351 110 352 0
352 114 -353 0
-352 -114 -353 0
352 -114 353 0
-352 114 353 0
353 122 -354 0
-353 -122 -354 0
353 -122 354 0
-353 122 354 0
-354 0
20 21 -355 0
-20 -21 -355 0
20 -21 355 0
-20 21 355 0
355 22 -356 0
-355 -22 -356 0
355 -22 356 0
-355 22 356 0
356 23 -357 0
-356 -23 -357 0
356 -23 357 0
-356 23 357 0
357 103 -358 0
-357 -103 -358 0
357 -103 358 0
-357 103 358 0
358 111 -359 0
-358 -111 -359 0
358 -111 359 0
-358 111 359 0
359 115 -360 0
-359 -115 -360 0
359 -115 360 0
-359 115 360 0
360 123 -361 0
-360 -123 -361 0
360 -123 361 0
-360 123 361 0
-361 0
21 22 -362 0
-21 -22 -362 0
21 -22 362 0
-21 22 362 0
362 23 -363 0
-362 -23 -363 0
362 -23 363 0
-362 23 363 0
363 24 -364 0
-363 -24 -364 0
363 -24 364 0
-363 24 364 0
364 104 -365 0
-364 -104 -365 0
364 -104 365 0
-364 104 365 0
365 112 -366 0
-365 -112 -366 0
365 -112 366 0
-365 112 366 0
366 116 -367 0
-366 -116 -367 0
366 -116 367 0
-366 116 367 0
367 124 -368 0
-367 -124 -368 0
367 -124 368 0
-367 124 368 0
-368 0
22 23 -369 0
-22 -23 -369 0
22 -23 369 0
-22 23 369 0
369 24 -370 0
-369 -24 -370 0
369 -24 370 0
-369 24 370 0
370 25 -371 0
-370 -25 -371 0
370 -25 371 0
-370 25 371 0
371 105 -372 0
-371 -105 -372 0
371 -105 372 0
-371 105 372 0
372 113 -373 0
-372 -113 -373 0
372 -113 373 0
-372 113 373 0
373 117 -374 0
-373 -117 -374 0
373 -117 374 0
-373 117 374 0
374 125 -375 0
-374 -125 -375 0
374 -125 375 0
-374 125 375 0
-375 0
23 24 -376 0
-23 -24 -376 0
23 -24 376 0
-23 24 376 0
376 25 -377 0
-376 -25 -377 0
376 -25 377 0
-376 25 377 0
377 26 -378 0
-377 -26 -378 0
377 -26 378 0
-377 26 378 0
378 106 -379 0
-378 -106 -379 0
378 -106 379 0
-378 106 379 0
379 114 -380 0
-379 -114 -380 0
379 -114 380 0
-379 114 380 0
380 118 -381 0
-380 -118 -381 0
380 -118 381 0
-380 118 381 0
381 126 -382 0
-381 -126 -382 0
381 -126 382 0
-381 126 382 0
-382 0
24 25 -383 0
-24 -25 -383 0
24 -25 383 0
-24 25 383 0
383 26 -384 0
-383 -26 -384 0
383 -26 384 0
-383 26 384 0
384 27 -385 0
-384 -27 -385 0
384 -27 385 0
-384 27 385 0
385 107 -386 0
-385 -107 -386 0
385 -107 386 0
-385 107 386 0
386 115 -387 0
-386 -115 -387 0
386 -115 387 0
-386 115 387 0
387 119 -388 0
-387 -119 -388 0
387 -119 388 0
-387 119 388 0
388 127 -389 0
-388 -127 -389 0
388 -127 389 0
-388 127 389 0
-389 0
25 26 -390 0
-25 -26 -390 0
25 -26 390 0
-25 26 390 0
390 27 -391 0
-390 -27 -391 0
390 -27 391 0
-390 27 391 0
391 28 -392 0
-391 -28 -392 0
391 -28 392 0
-391 28 392 0
392 108 -393 0
-392 -108 -393 0
392 -108 393 0
-392 108 393 0
393 116 -394 0
-393 -116 -394 0
393 -116 394 0
-393 116 394 0
394 120 -395 0
-394 -120 -395 0
394 -120 395 0
-394 120 395 0
395 128 -396 0
-395 -128 -396 0
395 -128 396 0
-395 128 396 0
-396 0
26 27 -397 0
-26 -27 -397 0
26 -27 397 0
-26 27 397 0
397 28 -398 0
-397 -28 -398 0
397 -28 398 0
-397 28 398 0
398 29 -399 0
-398 -29 -399 0
398 -29 399 0
-398 29 399 0
399 109 -400 0
-399 -109 -400 0
399 -109 400 0
-399 109 400 0
400 117 -401 0
-400 -117 -401 0
400 -117 401 0
-400 117 401 0
401 121 -402 0
-401 -121 -402 0
401 -121 402 0
-401 121 402 0
402 129 -403 0
-402 -129 -403 0
402 -129 403 0
-402 129 403 0
-403 0
27 28 -404 0
-27 -28 -404 0
27 -28 404 0
-27 28 404 0
404 29 -405 0
-404 -29 -405 0
404 -29 405 0
-404 29 405 0
405 30 -406 0
-405 -30 -406 0
405 -30 406 0
-405 30 406 0
406 110 -407 0
-406 -110 -407 0
406 -110 407 0
-406 110 407 0
407 118 -408 0
-407 -118 -408 0
407 -118 408 0
-407 118 408 0
408 122 -409 0
-408 -122 -409 0
408 -122 409 0
-408 122 409 0
409 130 -410 0
-409 -130 -410 0
409 -130 410 0
-409 130 410 0
-410 0
28 29 -411 0
-28 -29 -411 0
28 -29 411 0
-28 29 411 0
411 30 -412 0
-411 -30 -412 0
411 -30 412 0
-411 30 412 0
412 31 -413 0
-412 -31 -413 0
412 -31 413 0
-412 31 413 0
413 111 -414 0
-413 -111 -414 0
413 -111 414 0
-413 111 414 0
414 119 -415 0
-414 -119 -415 0
414 -119 415 0
-414 119 415 0
415 123 -416 0
-415 -123 -416 0
415 -123 416 0
-415 123 416 0
416 131 -417 0
-416 -131 -417 0
416 -131 417 0
-416 131 417 0
-417 0
29 30 -418 0
-29 -30 -418 0
29 -30 418 0
-29 30 418 0
418 31 -419 0
-418 -31 -419 0
418 -31 419 0
-418 31 419 0
419 32 -420 0
-419 -32 -420 0
419 -32 420 0
-419 32 420 0
420 112 -421 0
-420 -112 -421 0
420 -112 421 0
-420 112 421 0
421 120 -422 0
-421 -120 -422 0
421 -120 422 0
-421 120 422 0
422 124 -423 0
-422 -124 -423 0
422 -124 423 0
-422 124 423 0
423 132 -424 0
-423 -132 -424 0
423 -132 424 0
-423 132 424 0
-424 0
30 31 -425 0
-30 -31 -425 0
30 -31 425 0
-30 31 425 0
425 32 -426 0
-425 -32 -426 0
425 -32 426 0
-425 32 426 0
426 33 -427 0
-426 -33 -427 0
426 -33 427 0
-426 33 427 0
427 113 -428 0
-427 -113 -428 0
427 -113 428 0
-427 113 428 0
428 121 -429 0
-428 -121 -429 0
428 -121 429 0
-428 121 429 0
429 125 -430 0
-429 -125 -430 0
429 -125 430 0
-429 125 430 0
430 133 -431 0
-430 -133 -431 0
430 -133 431 0
-430 133 431 0
-431 0
31 32 -432 0
-31 -32 -432 0
31 -32 432 0
-31 32 432 0
432 33 -433 0
-432 -33 -433 0
432 -33 433 0
-432 33 433 0
433 34 -434 0
-433 -34 -434 0
433 -34 434 0
-433 34 434 0
434 114 -435 0
-434 -114 -435 0
434 -114 435 0
-434 114 435 0
435 122 -436 0
-435 -122 -436 0
435 -122 436 0
-435 122 436 0
436 126 -437 0
-436 -126 -437 0
436 -126 437 0
-436 126 437 0
437 134 -438 0
-437 -134 -438 0
437 -134 438 0
-437 134 438 0
-438 0
32 33 -439 0
-32 -33 -439 0
32 -33 439 0
-32 33 439 0
439 34 -440 0
-439 -34 -440 0
439 -34 440 0
-439 34 440 0
440 35 -441 0
-440 -35 -441 0
440 -35 441 0
-440 35 441 0
441 115 -442 0
-441 -115 -442 0
441 -115 442 0
-441 115 442 0
442 123 -443 0
-442 -123 -443 0
442 -123 443 0
-442 123 443 0
443 127 -444 0
-443 -127 -444 0
443 -127 444 0
-443 127 444 0
444 135 -445 0
-444 -135 -445 0
444 -135 445 0
-444 135 445 0
-445 0
33 34 -446 0
-33 -34 -446 0
33 -34 446 0
-33 34 446 0
446 35 -447 0
-446 -35 -447 0
446 -35 447 0
-446 35 447 0
447 36 -448 0
-447 -36 -448 0
447 -36 448 0
-447 36 448 0
448 116 -449 0
-448 -116 -449 0
448 -116 449 0
-448 116 449 0
449 124 -450 0
-449 -124 -450 0
449 -124 450 0
-449 124 450 0
450 128 -451 0
-450 -128 -451 0
450 -128 451 0
-450 128 451 0
451 136 -452 0
-451 -136 -452 0
451 -136 452 0
-451 136 452 0
-452 0
34 35 -453 0
-34 -35 -453 0
34 -35 453 0
-34 35 453 0
453 36 -454 0
-453 -36 -454 0
453 -36 454 0
-453 36 454 0
454 37 -455 0
-454 -37 -455 0
454 -37 455 0
-454 37 455 0
455 117 -456 0
-455 -117 -456 0
455 -117 456 0
-455 117 456 0
456 125 -457 0
-456 -125 -457 0
456 -125 457 0
-456 125 457 0
457 129 -458 0
-457 -129 -458 0
457 -129 458 0
-457 129 458 0
458 137 -459 0
-458 -137 -459 0
458 -137 459 0
-458 137 459 0
-459 0
35 36 -460 0
-35 -36 -460 0
35 -36 460 0
-35 36 460 0
460 37 -461 0
-460 -37 -461 0
460 -37 461 0
-460 37 461 0
461 38 -462 0
-461 -38 -462 0
461 -38 462 0
-461 38 462 0
462 118 -463 0
-462 -118 -463 0
462 -118 463 0
-462 118 463 0
463 126 -464 0
-463 -126 -464 0
463 -126 464 0
-463 126 464 0
464 130 -465 0
-464 -130 -465 0
464 -130 465 0
-464 130 465 0
465 138 -466 0
-465 -138 -466 0
465 -138 466 0
-465 138 466 0
-466 0
36 37 -467 0
-36 -37 -467 0
36 -37 467 0
-36 37 467 0
467 38 -468 0
-467 -38 -468 0
467 -38 468 0
-467 38 468 0
468 39 -469 0
-468 -39 -469 0
468 -39 469 0
-468 39 469 0
469 119 -470 0
-469 -119 -470 0
469 -119 470 0
-469 119 470 0
470 127 -471 0
-470 -127 -471 0
470 -127 471 0
-470 127 471 0
471 131 -472 0
-471 -131 -472 0
471 -131 472 0
-471 131 472 0
472 139 -473 0
-472 -139 -473 0
472 -139 473 0
-472 139 473 0
-473 0
37 38 -474 0
-37 -38 -474 0
37 -38 474 0
-37 38 474 0
474 39 -475 0
-474 -39 -475 0
474 -39 475 0
-474 39 475 0
475 40 -476 0
-475 -40 -476 0
475 -40 476 0
-475 40 476 0
476 120 -477 0
-476 -120 -477 0
476 -120 477 0
-476 120 477 0
477 128 -478 0
-477 -128 -478 0
477 -128 478 0
-477 128 478 0
478 132 -479 0
-478 -132 -479 0
478 -132 479 0
-478 132 479 0
479 140 -480 0
-479 -140 -480 0
479 -140 480 0
-479 140 480 0
-480 0
38 39 -481 0
-38 -39 -481 0
38 -39 481 0
-38 39 481 0
481 40 -482 0
-481 -40 -482 0
481 -40 482 0
-481 40 482 0
482 41 -483 0
-482 -41 -483 0
482 -41 483 0
-482 41 483 0
483 121 -484 0
-483 -121 -484 0
483 -121 484 0
-483 121 484 0
484 129 -485 0
-484 -129 -485 0
484 -129 485 0
-484 129 485 0
485 133 -486 0
-485 -133 -486 0
485 -133 486 0
-485 133 486 0
486 141 -487 0
-486 -141 -487 0
486 -141 487 0
-486 141 487 0
-487 0
39 40 -488 0
-39 -40 -488 0
39 -40 488 0
-39 40 488 0
488 41 -489 0
-488 -41 -489 0
488 -41 489 0
-488 41 489 0
489 42 -490 0
-489 -42 -490 0
489 -42 490 0
-489 42 490 0
490 122 -491 0
-490 -122 -491 0
490 -122 491 0
-490 122 491 0
491 130 -492 0
-491 -130 -492 0
491 -130 492 0
-491 130 492 0
492 134 -493 0
-492 -134 -493 0
492 -134 493 0
-492 134 493 0
493 142 -494 0
-493 -142 -494 0
493 -142 494 0
-493 142 494 0
-494 0
40 41 -495 0
-40 -41 -495 0
40 -41 495 0
-40 41 495 0
495 42 -496 0
-495 -42 -496 0
495 -42 496 0
-495 42 496 0
496 43 -497 0
-496 -43 -497 0
496 -43 497 0
-496 43 497 0
497 123 -498 0
-497 -123 -498 0
497 -123 498 0
-497 123 498 0
498 131 -499 0
-498 -131 -499 0
498 -131 499 0
-498 131 499 0
499 135 -500 0
-499 -135 -500 0
499 -135 500 0
-499 135 500 0
500 143 -501 0
-500 -143 -501 0
500 -143 501 0
-500 143 501 0
-501 0
41 42 -502 0
-41 -42 -502 0
41 -42 502 0
-41 42 502 0
502 43 -503 0
-502 -43 -503 0
502 -43 503 0
-502 43 503 0
503 44 -504 0
-503 -44 -504 0
503 -44 504 0
-503 44 504 0
504 124 -505 0
-504 -124 -505 0
504 -124 505 0
-504 124 505 0
505 132 -506 0
-505 -132 -506 0
505 -132 506 0
-505 132 506 0
506 136 -507 0
-506 -136 -507 0
506 -136 507 0
-506 136 507 0
507 144 -508 0
-507 -144 -508 0
507 -144 508 0
-507 144 508 0
-508 0
42 43 -509 0
-42 -43 -509 0
42 -43 509 0
-42 43 509 0
509 44 -510 0
-509 -44 -510 0
509 -44 510 0
-509 44 510 0
510 45 -511 0
-510 -45 -511 0
510 -45 511 0
-510 45 511 0
511 125 -512 0
-511 -125 -512 0
511 -125 512 0
-511 125 512 0
512 133 -513 0
-512 -133 -513 0
512 -133 513 0
-512 133 513 0
513 137 -514 0
-513 -137 -514 0
513 -137 514 0
-513 137 514 0
514 145 -515 0
-514 -145 -515 0
514 -145 515 0
-514 145 515 0
-515 0
43 44 -516 0
-43 -44 -516 0
43 -44 516 0
-43 44 516 0
516 45 -517 0
-516 -45 -517 0
516 -45 517 0
-516 45 517 0
517 46 -518 0
-517 -46 -518 0
517 -46 518 0
-517 46 518 0
518 126 -519 0
-518 -126 -519 0
518 -126 519 0
-518 126 519 0
519 134 -520 0
-519 -134 -520 0
519 -134 520 0
-519 134 520 0
520 138 -521 0
-520 -138 -521 0
520 -138 521 0
-520 138 521 0
521 146 -522 0
-521 -146 -522 0
521 -146 522 0
-521 146 522 0
-522 0
44 45 -523 0
-44 -45 -523 0
44 -45 523 0
-44 45 523 0
523 46 -524 0
-523 -46 -524 0
523 -46 524 0
-523 46 524 0
524 47 -525 0
-524 -47 -525 0
524 -47 525 0
-524 47 525 0
525 127 -526 0
-525 -127 -526 0
525 -127 526 0
-525 127 526 0
526 135 -527 0
-526 -135 -527 0
526 -135 527 0
-526 135 527 0
527 139 -528 0
-527 -139 -528 0
527 -139 528 0
-527 139 528 0
528 147 -529 0
-528 -147 -529 0
528 -147 529 0
-528 147 529 0
-529 0
45 46 -530 0
-45 -46 -530 0
45 -46 530 0
-45 46 530 0
530 47 -531 0
-530 -47 -531 0
530 -47 531 0
-530 47 531 0
531 48 -532 0
-531 -48 -532 0
531 -48 532 0
-531 48 532 0
532 128 -533 0
-532 -128 -533 0
532 -128 533 0
-532 128 533 0
533 136 -534 0
-533 -136 -534 0
533 -136 534 0
-533 136 534 0
534 140 -535 0
-534 -140 -535 0
534 -140 535 0
-534 140 535 0
535 148 -536 0
-535 -148 -536 0
535 -148 536 0
-535 148 536 0
-536 0
46 47 -537 0
-46 -47 -537 0
46 -47 537 0
-46 47 537 0
537 48 -538 0
-537 -48 -538 0
537 -48 538 0
-537 48 538 0
538 49 -539 0
-538 -49 -539 0
538 -49 539 0
-538 49 539 0
539 129 -540 0
-539 -129 -540 0
539 -129 540 0
-539 129 540 0
540 137 -541 0
-540 -137 -541 0
540 -137 541 0
-540 137 541 0
541 141 -542 0
-541 -141 -542 0
541 -141 542 0
-541 141 542 0
542 149 -543 0
-542 -149 -543 0
542 -149 543 0
-542 149 543 0
-543 0
47 48 -544 0
-47 -48 -544 0
47 -48 544 0
-47 48 544 0
544 49 -545 0
-544 -49 -545 0
544 -49 545 0
-544 49 545 0
545 50 -546 0
-545 -50 -546 0
545 -50 546 0
-545 50 546 0
546 130 -547 0
-546 -130 -547 0
546 -130 547 0
-546 130 547 0
547 138 -548 0
-547 -138 -548 0
547 -138 548 0
-547 138 548 0
548 142 -549 0
-548 -142 -549 0
548 -142 549 0
-548 142 549 0
549 150 -550 0
-549 -150 -550 0
549 -150 550 0
-549 150 550 0
-550 0
48 49 -551 0
-48 -49 -551 0
48 -49 551 0
-48 49 551 0
551 50 -552 0
-551 -50 -552 0
551 -50 552 0
-551 50 552 0
552 51 -553 0
-552 -51 -553 0
552 -51 553 0
-552 51 553 0
553 131 -554 0
-553 -131 -554 0
553 -131 554 0
-553 131 554 0
554 139 -555 0
-554 -139 -555 0
554 -139 555 0
-554 139 555 0
555 143 -556 0
-555 -143 -556 0
555 -143 556 0
-555 143 556 0
556 151 -557 0
-556 -151 -557 0
556 -151 557 0
-556 151 557 0
-557 0
49 50 -558 0
-49 -50 -558 0
49 -50 558 0
-49 50 558 0
558 51 -559 0
-558 -51 -559 0
558 -51 559 0
-558 51 559 0
559 52 -560 0
-559 -52 -560 0
559 -52 560 0
-559 52 560 0
560 132 -561 0
-560 -132 -561 0
560 -132 561 0
-560 132 561 0
561 140 -562 0
-561 -140 -562 0
561 -140 562 0
-561 140 562 0
562 144 -563 0
-562 -144 -563 0
562 -144 563 0
-562 144 563 0
563 152 -564 0
-563 -152 -564 0
563 -152 564 0
-563 152 564 0
-564 0
50 51 -565 0
-50 -51 -565 0
50 -51 565 0
-50 51 565 0
565 52 -566 0
-565 -52 -566 0
565 -52 566 0
-565 52 566 0
566 53 -567 0
-566 -53 -567 0
566 -53 567 0
-566 53 567 0
567 133 -568 0
-567 -133 -568 0
567 -133 568 0
-567 133 568 0
568 141 -569 0
-568 -141 -569 0
568 -141 569 0
-568 141 569 0
569 145 -570 0
-569 -145 -570 0
569 -145 570 0
-569 145 570 0
570 153 -571 0
-570 -153 -571 0
570 -153 571 0
-570 153 571 0
-571 0
51 52 -572 0
-51 -52 -572 0
51 -52 572 0
-51 52 572 0
572 53 -573 0
-572 -53 -573 0
572 -53 573 0
-572 53 573 0
573 54 -574 0
-573 -54 -574 0
573 -54 574 0
-573 54 574 0
574 134 -575 0
-574 -134 -575 0
574 -134 575 0
-574 134 575 0
575 142 -576 0
-575 -142 -576 0
575 -142 576 0
-575 142 576 0
576 146 -577 0
-576 -146 -577 0
576 -146 577 0
-576 146 577 0
577 154 -578 0
-577 -154 -578 0
577 -154 578 0
-577 154 578 0
-578 0
52 53 -579 0
-52 -53 -579 0
52 -53 579 0
-52 53 579 0
579 54 -580 0
-579 -54 -580 0
579 -54 580 0
-579 54 580 0
580 55 -581 0
-580 -55 -581 0
580 -55 581 0
-580 55 581 0
581 135 -582 0
-581 -135 -582 0
581 -135 582 0
-581 135 582 0
582 143 -583 0
-582 -143 -583 0
582 -143 583 0
-582 143 583 0
583 147 -584 0
-583 -147 -584 0
583 -147 584 0
-583 147 584 0
584 155 -585 0
-584 -155 -585 0
584 -155 585 0
-584 155 585 0
-585 0
53 54 -586 0
-53 -54 -586 0
53 -54 586 0
-53 54 586 0
586 55 -587 0
-586 -55 -587 0
586 -55 587 0
-586 55 587 0
587 56 -588 0
-587 -56 -588 0
587 -56 588 0
-587 56 588 0
588 136 -589 0
-588 -136 -589 0
588 -136 589 0
-588 136 589 0
589 144 -590 0
-589 -144 -590 0
589 -144 590 0
-589 144 590 0
590 148 -591 0
-590 -148 -591 0
590 -148 591 0
-590 148 591 0
591 156 -592 0
-591 -156 -592 0
591 -156 592 0
-591 156 592 0
-592 0
54 55 -593 0
-54 -55 -593 0
54 -55 593 0
-54 55 593 0
593 56 -594 0
-593 -56 -594 0
593 -56 594 0
-593 56 594 0
594 57 -595 0
-594 -57 -595 0
594 -57 595 0
-594 57 595 0
595 137 -596 0
-595 -137 -596 0
595 -137 596 0
-595 137 596 0
596 145 -597 0
-596 -145 -597 0
596 -145 597 0
-596 145 597 0
597 149 -598 0
-597 -149 -598 0
597 -149 598 0
-597 149 598 0
598 157 -599 0
-598 -157 -599 0
598 -157 599 0
-598 157 599 0
-599 0
55 56 -600 0
-55 -56 -600 0
55 -56 600 0
-55 56 600 0
600 57 -601 0
-600 -57 -601 0
600 -57 601 0
-600 57 601 0
601 58 -602 0
-601 -58 -602 0
601 -58 602 0
-601 58 602 0
602 138 -603 0
-602 -138 -603 0
602 -138 603 0
-602 138 603 0
603 146 -604 0
-603 -146 -604 0
603 -146 604 0
-603 146 604 0
604 150 -605 0
-604 -150 -605 0
604 -150 605 0
-604 150 605 0
605 158 -606 0
-605 -158 -606 0
605 -158 606 0
-605 158 606 0
-606 0
56 57 -607 0
-56 -57 -607 0
56 -57 607 0
-56 57 607 0
607 58 -608 0
-607 -58 -608 0
607 -58 608 0
-607 58 608 0
608 59 -609 0
-608 -59 -609 0
608 -59 609 0
-608 59 609 0
609 139 -610 0
-609 -139 -610 0
609 -139 610 0
-609 139 610 0
610 147 -611 0
-610 -147 -611 0
610 -147 611 0
-610 147 611 0
611 151 -612 0
-611 -151 -612 0
611 -151 612 0
-611 151 612 0
612 159 -613 0
-612 -159 -613 0
612 -159 613 0
-612 159 613 0
-613 0
57 58 -614 0
-57 -58 -614 0
57 -58 614 0
-57 58 614 0
614 59 -615 0
-614 -59 -615 0
614 -59 615 0
-614 59 615 0
615 60 -616 0
-615 -60 -616 0
615 -60 616 0
-615 60 616 0
616 140 -617 0
-616 -140 -617 0
616 -140 617 0
-616 140 617 0
617 148 -618 0
-617 -148 -618 0
617 -148 618 0
-617 148 618 0
618 152 -619 0
-618 -152 -619 0
618 -152 619 0
-618 152 619 0
619 160 -620 0
-619 -160 -620 0
619 -160 620 0
-619 160 620 0
-620 0
58 59 -621 0
-58 -59 -621 0
58 -59 621 0
-58 59 621 0
621 60 -622 0
-621 -60 -622 0
621 -60 622 0
-621 60 622 0
622 61 -623 0
-622 -61 -623 0
622 -61 623 0
-622 61 623 0
623 141 -624 0
-623 -141 -624 0
623 -141 624 0
-623 141 624 0
624 149 -625 0
-624 -149 -625 0
624 -149 625 0
-624 149 625 0
625 153 -626 0
-625 -153 -626 0
625 -153 626 0
-625 153 626 0
626 161 -627 0
-626 -161 -627 0
626 -161 627 0
-626 161 627 0
-627 0
59 60 -628 0
-59 -60 -628 0
59 -60 628 0
-59 60 628 0
628 61 -629 0
-628 -61 -629 0
628 -61 629 0
-628 61 629 0
629 62 -630 0
-629 -62 -630 0
629 -62 630 0
-629 62 630 0
630 142 -631 0
-630 -142 -631 0
630 -142 631 0
-630 142 631 0
631 150 -632 0
-631 -150 -632 0
631 -150 632 0
-631 150 632 0
632 154 -633 0
-632 -154 -633 0
632 -154 633 0
-632 154 633 0
633 162 -634 0
-633 -162 -634 0
633 -162 634 0
-633 162 634 0
-634 0
60 61 -635 0
-60 -61 -635 0
60 -61 635 0
-60 61 635 0
635 62 -636 0
-635 -62 -636 0
635 -62 636 0
-635 62 636 0
636 63 -637 0
-636 -63 -637 0
636 -63 637 0
-636 63 637 0
637 143 -638 0
-637 -143 -638 0
637 -143 638 0
-637 143 638 0
638 151 -639 0
-638 -151 -639 0
638 -151 639 0
-638 151 639 0
639 155 -640 0
-639 -155 -640 0
639 -155 640 0
-639 155 640 0
640 163 -641 0
-640 -163 -641 0
640 -163 641 0
-640 163 641 0
-641 0
61 62 -642 0
-61 -62 -642 0
61 -62 642 0
-61 62 642 0
642 63 -643 0
-642 -63 -643 0
642 -63 643 0
-642 63 643 0
643 64 -644 0
-643 -64 -644 0
643 -64 644 0
-643 64 644 0
644 144 -645 0
-644 -144 -645 0
644 -144 645 0
-644 144 645 0
645 152 -646 0
-645 -152 -646 0
645 -152 646 0
-645 152 646 0
646 156 -647 0
-646 -156 -647 0
646 -156 647 0
-646 156 647 0
647 164 -648 0
-647 -164 -648 0
647 -164 648 0
-647 164 648 0
-648 0
62 63 -649 0
-62 -63 -649 0
62 -63 649 0
-62 63 649 0
649 64 -650 0
-649 -64 -650 0
649 -64 650 0
-649 64 650 0
650 65 -651 0
-650 -65 -651 0
650 -65 651 0
-650 65 651 0
651 145 -652 0
-651 -145 -652 0
651 -145 652 0
-651 145 652 0
652 153 -653 0
-652 -153 -653 0
652 -153 653 0
-652 153 653 0
653 157 -654 0
-653 -157 -654 0
653 -157 654 0
-653 157 654 0
654 165 -655 0
-654 -165 -655 0
654 -165 655 0
-654 165 655 0
-655 0
63 64 -656 0
-63 -64 -656 0
63 -64 656 0
-63 64 656 0
656 65 -657 0
-656 -65 -657 0
656 -65 657 0
-656 65 657 0
657 66 -658 0
-657 -66 -658 0
657 -66 658 0
-657 66 658 0
658 146 -659 0
-658 -146 -659 0
658 -146 659 0
-658 146 659 0
659 154 -660 0
-659 -154 -660 0
659 -154 660 0
-659 154 660 0
660 158 -661 0
-660 -158 -661 0
660 -158 661 0
-660 158 661 0
661 166 -662 0
-661 -166 -662 0
661 -166 662 0
-661 166 662 0
-662 0
64 65 -663 0
-64 -65 -663 0
64 -65 663 0
-64 65 663 0
663 66 -664 0
-663 -66 -664 0
663 -66 664 0
-663 66 664 0
664 67 -665 0
-664 -67 -665 0
664 -67 665 0
-664 67 665 0
665 147 -666 0
-665 -147 -666 0
665 -147 666 0
-665 147 666 0
666 155 -667 0
-666 -155 -667 0
666 -155 667 0
-666 155 667 0
667 159 -668 0
-667 -159 -668 0
667 -159 668 0
-667 159 668 0
668 167 -669 0
-668 -167 -669 0
668 -167 669 0
-668 167 669 0
-669 0
65 66 -670 0
-65 -66 -670 0
65 -66 670 0
-65 66 670 0
670 67 -671 0
-670 -67 -671 0
670 -67 671 0
-670 67 671 0
671 68 -672 0
-671 -68 -672 0
671 -68 672 0
-671 68 672 0
672 148 -673 0
-672 -148 -673 0
672 -148 673 0
-672 148 673 0
673 156 -674 0
-673 -156 -674 0
673 -156 674 0
-673 156 674 0
674 160 -675 0
-674 -160 -675 0
674 -160 675 0
-674 160 675 0
675 168 -676 0
-675 -168 -676 0
675 -168 676 0
-675 168 676 0
-676 0
66 67 -677 0
-66 -67 -677 0
66 -67 677 0
-66 67 677 0
677 68 -678 0
-677 -68 -678 0
677 -68 678 0
-677 68 678 0
678 69 -679 0
-678 -69 -679 0
678 -69 679 0
-678 69 679 0
679 149 -680 0
-679 -149 -680 0
679 -149 680 0
-679 149 680 0
680 157 -681 0
-680 -157 -681 0
680 -157 681 0
-680 157 681 0
681 161 -682 0
-681 -161 -682 0
681 -161 682 0
-681 161 682 0
682 169 -683 0
-682 -169 -683 0
682 -169 683 0
-682 169 683 0
-683 0
67 68 -684 0
-67 -68 -684 0
67 -68 684 0
-67 68 684 0
684 69 -685 0
-684 -69 -685 0
684 -69 685 0
-684 69 685 0
685 70 -686 0
-685 -70 -686 0
685 -70 686 0
-685 70 686 0
686 150 -687 0
-686 -150 -687 0
686 -150 687 0
-686 150 687 0
687 158 -688 0
-687 -158 -688 0
687 -158 688 0
-687 158 688 0
688 162 -689 0
-688 -162 -689 0
688 -162 689 0
-688 162 689 0
689 170 -690 0
-689 -170 -690 0
689 -170 690 0
-689 170 690 0
-690 0
68 69 -691 0
-68 -69 -691 0
68 -69 691 0
-68 69 691 0
691 70 -692 0
-691 -70 -692 0
691 -70 692 0
-691 70 692 0
692 71 -693 0
-692 -71 -693 0
692 -71 693 0
-692 71 693 0
693 151 -694 0
-693 -151 -694 0
693 -151 694 0
-693 151 694 0
694 159 -695 0
-694 -159 -695 0
694 -159 695 0
-694 159 695 0
695 163 -696 0
-695 -163 -696 0
695 -163 696 0
-695 163 696 0
696 171 -697 0
-696 -171 -697 0
696 -171 697 0
-696 171 697 0
-697 0
69 70 -698 0
-69 -70 -698 0
69 -70 698 0
-69 70 698 0
698 71 -699 0
-698 -71 -699 0
698 -71 699 0
-698 71 699 0
699 72 -700 0
-699 -72 -700 0
699 -72 700 0
-699 72 700 0
700 152 -701 0
-700 -152 -701 0
700 -152 701 0
-700 152 701 0
701 160 -702 0
-701 -160 -702 0
701 -160 702 0
-701 160 702 0
702 164 -703 0
-702 -164 -703 0
702 -164 703 0
-702 164 703 0
703 172 -704 0
-703 -172 -704 0
703 -172 704 0
-703 172 704 0
-704 0
70 71 -705 0
-70 -71 -705 0
70 -71 705 0
-70 71 705 0
705 72 -706 0
-705 -72 -706 0
705 -72 706 0
-705 72 706 0
706 73 -707 0
-706 -73 -707 0
706 -73 707 0
-706 73 707 0
707 153 -708 0
-707 -153 -708 0
707 -153 708 0
-707 153 708 0
708 161 -709 0
-708 -161 -709 0
708 -161 709 0
-708 161 709 0
709 165 -710 0
-709 -165 -710 0
709 -165 710 0
-709 165 710 0
710 173 -711 0
-710 -173 -711 0
710 -173 711 0
-710 173 711 0
-711 0
71 72 -712 0
-71 -72 -712 0
71 -72 712 0
-71 72 712 0
712 73 -713 0
-712 -73 -713 0
712 -73 713 0
-712 73 713 0
713 74 -714 0
-713 -74 -714 0
713 -74 714 0
-713 74 714 0
714 154 -715 0
-714 -154 -715 0
714 -154 715 0
-714 154 715 0
715 162 -716 0
-715 -162 -716 0
715 -162 716 0
-715 162 716 0
716 166 -717 0
-716 -166 -717 0
716 -166 717 0
-716 166 717 0
717 174 -718 0
-717 -174 -718 0
717 -174 718 0
-717 174 718 0
-718 0
72 73 -719 0
-72 -73 -719 0
72 -73 719 0
-72 73 719 0
719 74 -720 0
-719 -74 -720 0
719 -74 720 0
-719 74 720 0
720 75 -721 0
-720 -75 -721 0
720 -75 721 0
-720 75 721 0
721 155 -722 0
-721 -155 -722 0
721 -155 722 0
-721 155 722 0
722 163 -723 0
-722 -163 -723 0
722 -163 723 0
-722 163 723 0
723 167 -724 0
-723 -167 -724 0
723 -167 724 0
-723 167 724 0
724 175 -725 0
-724 -175 -725 0
724 -175 725 0
-724 175 725 0
-725 0
73 74 -726 0
-73 -74 -726 0
73 -74 726 0
-73 74 726 0
726 75 -727 0
-726 -75 -727 0
726 -75 727 0
-726 75 727 0
727 76 -728 0
-727 -76 -728 0
727 -76 728 0
-727 76 728 0
728 156 -729 0
-728 -156 -729 0
728 -156 729 0
-728 156 729 0
729 164 -730 0
-729 -164 -730 0
729 -164 730 0
-729 164 730 0
730 168 -731 0
-730 -168 -731 0
730 -168 731 0
-730 168 731 0
731 176 -732 0
-731 -176 -732 0
731 -176 732 0
-731 176 732 0
-732 0
74 75 -733 0
-74 -75 -733 0
74 -75 733 0
-74 75 733 0
733 76 -734 0
-733 -76 -734 0
733 -76 734 0
-733 76 734 0
734 77 -735 0
-734 -77 -735 0
734 -77 735 0
-734 77 735 0
735 157 -736 0
-735 -157 -736 0
735 -157 736 0
-735 157 736 0
736 165 -737 0
-736 -165 -737 0
736 -165 737 0
-736 165 737 0
737 169 -738 0
-737 -169 -738 0
737 -169 738 0
-737 169 738 0
738 177 -739 0
-738 -177 -739 0
738 -177 739 0
-738 177 739 0
-739 0
75 76 -740 0
-75 -76 -740 0
75 -76 740 0
-75 76 740 0
740 77 -741 0
-740 -77 -741 0
740 -77 741 0
-740 77 741 0
741 78 -742 0
-741 -78 -742 0
741 -78 742 0
-741 78 742 0
742 158 -743 0
-742 -158 -743 0
742 -158 743 0
-742 158 743 0
743 166 -744 0
-743 -166 -744 0
743 -166 744 0
-743 166 744 0
744 170 -745 0
-744 -170 -745 0
744 -170 745 0
-744 170 745 0
745 178 -746 0
-745 -178 -746 0
745 -178 746 0
-745 178 746 0
-746 0
76 77 -747 0
-76 -77 -747 0
76 -77 747 0
-76 77 747 0
747 78 -748 0
-747 -78 -748 0
747 -78 748 0
-747 78 748 0
748 79 -749 0
-748 -79 -749 0
748 -79 749 0
-748 79 749 0
749 159 -750 0
-749 -159 -750 0
749 -159 750 0
-749 159 750 0
750 167 -751 0
-750 -167 -751 0
750 -167 751 0
-750 167 751 0
751 171 -752 0
-751 -171 -752 0
751 -171 752 0
-751 171 752 0
752 179 -753 0
-752 -179 -753 0
752 -179 753 0
-752 179 753 0
-753 0
77 78 -754 0
-77 -78 -754 0
77 -78 754 0
-77 78 754 0
754 79 -755 0
-754 -79 -755 0
754 -79 755 0
-754 79 755 0
755 80 -756 0
-755 -80 -756 0
755 -80 756 0
-755 80 756 0
756 160 -757 0
-756 -160 -757 0
756 -160 757 0
-756 160 757 0
757 168 -758 0
-757 -168 -758 0
757 -168 758 0
-757 168 758 0
758 172 -759 0
-758 -172 -759 0
758 -172 759 0
-758 172 759 0
759 180 -760 0
-759 -180 -760 0
759 -180 760 0
-759 180 760 0
-760 0
78 79 -761 0
-78 -79 -761 0
78 -79 761 0
-78 79 761 0
761 80 -762 0
-761 -80 -762 0
761 -80 762 0
-761 80 762 0
762 81 -763 0
-762 -81 -763 0
762 -81 763 0
-762 81 763 0
763 161 -764 0
-763 -161 -764 0
763 -161 764 0
-763 161 764 0
764 169 -765 0
-764 -169 -765 0
764 -169 765 0
-764 169 765 0
765 173 -766 0
-765 -173 -766 0
765 -173 766 0
-765 173 766 0
766 181 -767 0
-766 -181 -767 0
766 -181 767 0
-766 181 767 0
-767 0
79 80 -768 0
-79 -80 -768 0
79 -80 768 0
-79 80 768 0
768 81 -769 0
-768 -81 -769 0
768 -81 769 0
-768 81 769 0
769 82 -770 0
-769 -82 -770 0
769 -82 770 0
-769 82 770 0
770 162 -771 0
-770 -162 -771 0
770 -162 771 0
-770 162 771 0
771 170 -772 0
-771 -170 -772 0
771 -170 772 0
-771 170 772 0
772 174 -773 0
-772 -174 -773 0
772 -174 773 0
-772 174 773 0
773 182 -774 0
-773 -182 -774 0
773 -182 774 0
-773 182 774 0
-774 0
80 81 -775 0
-80 -81 -775 0
80 -81 775 0
-80 81 775 0
775 82 -776 0
-775 -82 -776 0
775 -82 776 0
-775 82 776 0
776 83 -777 0
-776 -83 -777 0
776 -83 777 0
-776 83 777 0
777 163 -778 0
-777 -163 -778 0
777 -163 778 0
-777 163 778 0
778 171 -779 0
-778 -171 -779 0
778 -171 779 0
-778 171 779 0
779 175 -780 0
-779 -175 -780 0
779 -175 780 0
-779 175 780 0
780 183 -781 0
-780 -183 -781 0
780 -183 781 0
-780 183 781 0
-781 0
81 82 -782 0
-81 -82 -782 0
81 -82 782 0
-81 82 782 0
782 83 -783 0
-782 -83 -783 0
782 -83 783 0
-782 83 783 0
783 84 -784 0
-783 -84 -784 0
783 -84 784 0
-783 84 784 0
784 164 -785 0
-784 -164 -785 0
784 -164 785 0
-784 164 785 0
785 172 -786 0
-785 -172 -786 0
785 -172 786 0
-785 172 786 0
786 176 -787 0
-786 -176 -787 0
786 -176 787 0
-786 176 787 0
787 184 -788 0
-787 -184 -788 0
787 -184 788 0
-787 184 788 0
-788 0
82 83 -789 0
-82 -83 -789 0
82 -83 789 0
-82 83 789 0
789 84 -790 0
-789 -84 -790 0
789 -84 790 0
-789 84 790 0
790 85 -791 0
-790 -85 -791 0
790 -85 791 0
-790 85 791 0
791 165 -792 0
-791 -165 -792 0
791 -165 792 0
-791 165 792 0
792 173 -793 0
-792 -173 -793 0
792 -173 793 0
-792 173 793 0
793 177 -794 0
-793 -177 -794 0
793 -177 794 0
-793 177 794 0
794 185 -795 0
-794 -185 -795 0
794 -185 795 0
-794 185 795 0
-795 0
83 84 -796 0
-83 -84 -796 0
83 -84 796 0
-83 84 796 0
796 85 -797 0
-796 -85 -797 0
796 -85 797 0
-796 85 797 0
797 86 -798 0
-797 -86 -798 0
797 -86 798 0
-797 86 798 0
798 166 -799 0
-798 -166 -799 0
798 -166 799 0
-798 166 799 0
799 174 -800 0
-799 -174 -800 0
799 -174 800 0
-799 174 800 0
800 178 -801 0
-800 -178 -801 0
800 -178 801 0
-800 178 801 0
801 186 -802 0
-801 -186 -802 0
801 -186 802 0
-801 186 802 0
-802 0
84 85 -803 0
-84 -85 -803 0
84 -85 803 0
-84 85 803 0
803 86 -804 0
-803 -86 -804 0
803 -86 804 0
-803 86 804 0
804 87 -805 0
-804 -87 -805 0
804 -87 805 0
-804 87 805 0
805 167 -806 0
-805 -167 -806 0
805 -167 806 0
-805 167 806 0
806 175 -807 0
-806 -175 -807 0
806 -175 807 0
-806 175 807 0
807 179 -808 0
-807 -179 -808 0
807 -179 808 0
-807 179 808 0
808 187 -809 0
-808 -187 -809 0
808 -187 809 0
-808 187 809 0
-809 0
85 86 -810 0
-85 -86 -810 0
85 -86 810 0
-85 86 810 0
810 87 -811 0
-810 -87 -811 0
810 -87 811 0
-810 87 811 0
811 88 -812 0
-811 -88 -812 0
811 -88 812 0
-811 88 812 0
812 168 -813 0
-812 -168 -813 0
812 -168 813 0
-812 168 813 0
813 176 -814 0
-813 -176 -814 0
813 -176 814 0
-813 176 814 0
814 180 -815 0
-814 -180 -815 0
814 -180 815 0
-814 180 815 0
815 188 -816 0
-815 -188 -816 0
815 -188 816 0
-815 188 816 0
-816 0
86 87 -817 0
-86 -87 -817 0
86 -87 817 0
-86 87 817 0
817 88 -818 0
-817 -88 -818 0
817 -88 818 0
-817 88 818 0
818 89 -819 0
-818 -89 -819 0
818 -89 819 0
-818 89 819 0
819 169 -820 0
-819 -169 -820 0
819 -169 820 0
-819 169 820 0
820 177 -821 0
-820 -177 -821 0
820 -177 821 0
-820 177 821 0
821 181 -822 0
-821 -181 -822 0
821 -181 822 0
-821 181 822 0
822 189 -823 0
-822 -189 -823 0
822 -189 823 0
-822 189 823 0
-823 0
87 88 -824 0
-87 -88 -824 0
87 -88 824 0
-87 88 824 0
824 89 -825 0
-824 -89 -825 0
824 -89 825 0
-824 89 825 0
825 90 -826 0
-825 -90 -826 0
825 -90 826 0
-825 90 826 0
826 170 -827 0
-826 -170 -827 0
826 -170 827 0
-826 170 827 0
827 178 -828 0
-827 -178 -828 0
827 -178 828 0
-827 178 828 0
828 182 -829 0
-828 -182 -829 0
828 -182 829 0
-828 182 829 0
829 190 -830 0
-829 -190 -830 0
829 -190 830 0
-829 190 830 0
-830 0
88 89 -831 0
-88 -89 -831 0
88 -89 831 0
-88 89 831 0
831 90 -832 0
-831 -90 -832 0
831 -90 832 0
-831 90 832 0
832 91 -833 0
-832 -91 -833 0
832 -91 833 0
-832 91 833 0
833 171 -834 0
-833 -171 -834 0
833 -171 834 0
-833 171 834 0
834 179 -835 0
-834 -179 -835 0
834 -179 835 0
-834 179 835 0
835 183 -836 0
-835 -183 -836 0
835 -183 836 0
-835 183 836 0
836 191 -837 0
-836 -191 -837 0
836 -191 837 0
-836 191 837 0
-837 0
89 90 -838 0
-89 -90 -838 0
89 -90 838 0
-89 90 838 0
838 91 -839 0
-838 -91 -839 0
838 -91 839 0
-838 91 839 0
839 92 -840 0
-839 -92 -840 0
839 -92 840 0
-839 92 840 0
840 172 -841 0
-840 -172 -841 0
840 -172 841 0
-840 172 841 0
841 180 -842 0
-841 -180 -842 0
841 -180 842 0
-841 180 842 0
842 184 -843 0
-842 -184 -843 0
842 -184 843 0
-842 184 843 0
843 192 -844 0
-843 -192 -844 0
843 -192 844 0
-843 192 844 0
-844 0
90 91 -845 0
-90 -91 -845 0
90 -91 845 0
-90 91 845 0
845 92 -846 0
-845 -92 -846 0
845 -92 846 0
-845 92 846 0
846 93 -847 0
-846 -93 -847 0
846 -93 847 0
-846 93 847 0
847 173 -848 0
-847 -173 -848 0
847 -173 848 0
-847 173 848 0
848 181 -849 0
-848 -181 -849 0
848 -181 849 0
-848 181 849 0
849 185 -850 0
-849 -185 -850 0
849 -185 850 0
-849 185 850 0
850 193 -851 0
-850 -193 -851 0
850 -193 851 0
-850 193 851 0
-851 0
91 92 -852 0
-91 -92 -852 0
91 -92 852 0
-91 92 852 0
852 93 -853 0
-852 -93 -853 0
852 -93 853 0
-852 93 853 0
853 94 -854 0
-853 -94 -854 0
853 -94 854 0
-853 94 854 0
854 174 -855 0
-854 -174 -855 0
854 -174 855 0
-854 174 855 0
855 182 -856 0
-855 -182 -856 0
855 -182 856 0
-855 182 856 0
856 186 -857 0
-856 -186 -857 0
856 -186 857 0
-856 186 857 0
857 194 -858 0
-857 -194 -858 0
857 -194 858 0
-857 194 858 0
-858 0
92 93 -859 0
-92 -93 -859 0
92 -93 859 0
-92 93 859 0
859 94 -860 0
-859 -94 -860 0
859 -94 860 0
-859 94 860 0
860 95 -861 0
-860 -95 -861 0
860 -95 861 0
-860 95 861 0
861 175 -862 0
-861 -175 -862 0
861 -175 862 0
-861 175 862 0
862 183 -863 0
-862 -183 -863 0
862 -183 863 0
-862 183 863 0
863 187 -864 0
-863 -187 -864 0
863 -187 864 0
-863 187 864 0
864 195 -865 0
-864 -195 -865 0
864 -195 865 0
-864 195 865 0
-865 0
93 94 -866 0
-93 -94 -866 0
93 -94 866 0
-93 94 866 0
866 95 -867 0
-866 -95 -867 0
866 -95 867 0
-866 95 867 0
867 96 -868 0
-867 -96 -868 0
867 -96 868 0
-867 96 868 0
868 176 -869 0
-868 -176 -869 0
868 -176 869 0
-868 176 869 0
869 184 -870 0
-869 -184 -870 0
869 -184 870 0
-869 184 870 0
870 188 -871 0
-870 -188 -871 0
870 -188 871 0
-870 188 871 0
871 196 -872 0
-871 -196 -872 0
871 -196 872 0
-871 196 872 0
-872 0
94 95 -873 0
-94 -95 -873 0
94 -95 873 0
-94 95 873 0
873 96 -874 0
-873 -96 -874 0
873 -96 874 0
-873 96 874 0
874 97 -875 0
-874 -97 -875 0
874 -97 875 0
-874 97 875 0
875 177 -876 0
-875 -177 -876 0
875 -177 876 0
-875 177 876 0
876 185 -877 0
-876 -185 -877 0
876 -185 877 0
-876 185 877 0
877 189 -878 0
-877 -189 -878 0
877 -189 878 0
-877 189 878 0
878 197 -879 0
-878 -197 -879 0
878 -197 879 0
-878 197 879 0
-879 0
95 96 -880 0
-95 -96 -880 0
95 -96 880 0
-95 96 880 0
880 97 -881 0
-880 -97 -881 0
880 -97 881 0
-880 97 881 0
881 98 -882 0
-881 -98 -882 0
881 -98 882 0
-881 98 882 0
882 178 -883 0
-882 -178 -883 0
882 -178 883 0
-882 178 883 0
883 186 -884 0
-883 -186 -884 0
883 -186 884 0
-883 186 884 0
884 190 -885 0
-884 -190 -885 0
884 -190 885 0
-884 190 885 0
885 198 -886 0
-885 -198 -886 0
885 -198 886 0
-885 198 886 0
-886 0
96 97 -887 0
-96 -97 -887 0
96 -97 887 0
-96 97 887 0
887 98 -888 0
-887 -98 -888 0
887 -98 888 0
-887 98 888 0
888 99 -889 0
-888 -99 -889 0
888 -99 889 0
-888 99 889 0
889 179 -890 0
-889 -179 -890 0
889 -179 890 0
-889 179 890 0
890 187 -891 0
-890 -187 -891 0
890 -187 891 0
-890 187 891 0
891 191 -892 0
-891 -191 -892 0
891 -191 892 0
-891 191 892 0
892 199 -893 0
-892 -199 -893 0
892 -199 893 0
-892 199 893 0
-893 0
97 98 -894 0
-97 -98 -894 0
97 -98 894 0
-97 98 894 0
894 99 -895 0
-894 -99 -895 0
894 -99 895 0
-894 99 895 0
895 100 -896 0
-895 -100 -896 0
895 -100 896 0
-895 100 896 0
896 180 -897 0
-896 -180 -897 0
896 -180 897 0
-896 180 897 0
897 188 -898 0
-897 -188 -898 0
897 -188 898 0
-897 188 898 0
898 192 -899 0
-898 -192 -899 0
898 -192 899 0
-898 192 899 0
899 200 -900 0
-899 -200 -900 0
899 -200 900 0
-899 200 900 0
-900 0
1 104 -901 0
-1 -104 -901 0
1 -104 901 0
-1 104 901 0
901 105 -902 0
-901 -105 -902 0
901 -105 902 0
-901 105 902 0
902 108 -903 0
-902 -108 -903 0
902 -108 903 0
-902 108 903 0
903 109 -904 0
-903 -109 -904 0
903 -109 904 0
-903 109 904 0
904 112 -905 0
-904 -112 -905 0
904 -112 905 0
-904 112 905 0
905 113 -906 0
-905 -113 -906 0
905 -113 906 0
-905 113 906 0
906 116 -907 0
-906 -116 -907 0
906 -116 907 0
-906 116 907 0
907 117 -908 0
-907 -117 -908 0
907 -117 908 0
-907 117 908 0
908 120 -909 0
-908 -120 -909 0
908 -120 909 0
-908 120 909 0
909 121 -910 0
-909 -121 -910 0
909 -121 910 0
-909 121 910 0
910 124 -911 0
-910 -124 -911 0
910 -124 911 0
-910 124 911 0
911 125 -912 0
-911 -125 -912 0
911 -125 912 0
-911 125 912 0
912 128 -913 0
-912 -128 -913 0
912 -128 913 0
-912 128 913 0
913 129 -914 0
-913 -129 -914 0
913 -129 914 0
-913 129 914 0
914 132 -915 0
-914 -132 -915 0
914 -132 915 0
-914 132 915 0
915 133 -916 0
-915 -133 -916 0
915 -133 916 0
-915 133 916 0
916 136 -917 0
-916 -136 -917 0
916 -136 917 0
-916 136 917 0
917 137 -918 0
-917 -137 -918 0
917 -137 918 0
-917 137 918 0
918 140 -919 0
-918 -140 -919 0
918 -140 919 0
-918 140 919 0
919 141 -920 0
-919 -141 -920 0
919 -141 920 0
-919 141 920 0
920 144 -921 0
-920 -144 -921 0
920 -144 921 0
-920 144 921 0
921 145 -922 0
-921 -145 -922 0
921 -145 922 0
-921 145 922 0
922 148 -923 0
-922 -148 -923 0
922 -148 923 0
-922 148 923 0
923 149 -924 0
-923 -149 -924 0
923 -149 924 0
-923 149 924 0
924 152 -925 0
-924 -152 -925 0
924 -152 925 0
-924 152 925 0
925 153 -926 0
-925 -153 -926 0
925 -153 926 0
-925 153 926 0
926 156 -927 0
-926 -156 -927 0
926 -156 927 0
-926 156 927 0
927 157 -928 0
-927 -157 -928 0
927 -157 928 0
-927 157 928 0
928 160 -929 0
-928 -160 -929 0
928 -160 929 0
-928 160 929 0
929 161 -930 0
-929 -161 -930 0
929 -161 930 0
-929 161 930 0
930 164 -931 0
-930 -164 -931 0
930 -164 931 0
-930 164 931 0
931 165 -932 0
-931 -165 -932 0
931 -165 932 0
-931 165 932 0
932 168 -933 0
-932 -168 -933 0
932 -168 933 0
-932 168 933 0
933 169 -934 0
-933 -169 -934 0
933 -169 934 0
-933 169 934 0
934 172 -935 0
-934 -172 -935 0
934 -172 935 0
-934 172 935 0
935 173 -936 0
-935 -173 -936 0
935 -173 936 0
-935 173 936 0
936 176 -937 0
-936 -176 -937 0
936 -176 937 0
-936 176 937 0
937 177 -938 0
-937 -177 -938 0
937 -177 938 0
-937 177 938 0
938 180 -939 0
-938 -180 -939 0
938 -180 939 0
-938 180 939 0
939 181 -940 0
-939 -181 -940 0
939 -181 940 0
-939 181 940 0
940 192 -941 0
-940 -192 -941 0
940 -192 941 0
-940 192 941 0
941 193 -942 0
-941 -193 -942 0
941 -193 942 0
-941 193 942 0
2 105 -943 0
-2 -105 -943 0
2 -105 943 0
-2 105 943 0
943 106 -944 0
-943 -106 -944 0
943 -106 944 0
-943 106 944 0
944 109 -945 0
-944 -109 -945 0
944 -109 945 0
-944 109 945 0
945 110 -946 0
-945 -110 -946 0
945 -110 946 0
-945 110 946 0
946 113 -947 0
-946 -113 -947 0
946 -113 947 0
-946 113 947 0
947 114 -948 0
-947 -114 -948 0
947 -114 948 0
-947 114 948 0
948 117 -949 0
-948 -117 -949 0
948 -117 949 0
-948 117 949 0
949 118 -950 0
-949 -118 -950 0
949 -118 950 0
-949 118 950 0
950 121 -951 0
-950 -121 -951 0
950 -121 951 0
-950 121 951 0
951 122 -952 0
-951 -122 -952 0
951 -122 952 0
-951 122 952 0
952 125 -953 0
-952 -125 -953 0
952 -125 953 0
-952 125 953 0
953 126 -954 0
-953 -126 -954 0
953 -126 954 0
-953 126 954 0
954 129 -955 0
-954 -129 -955 0
954 -129 955 0
-954 129 955 0
955 130 -956 0
-955 -130 -956 0
955 -130 956 0
-955 130 956 0
956 133 -957 0
-956 -133 -957 0
956 -133 957 0
-956 133 957 0
957 134 -958 0
-957 -134 -958 0
957 -134 958 0
-957 134 958 0
958 137 -959 0
-958 -137 -959 0
958 -137 959 0
-958 137 959 0
959 138 -960 0
-959 -138 -960 0
959 -138 960 0
-959 138 960 0
960 141 -961 0
-960 -141 -961 0
960 -141 961 0
-960 141 961 0
961 142 -962 0
-961 -142 -962 0
961 -142 962 0
-961 142 962 0
962 145 -963 0
-962 -145 -963 0
962 -145 963 0
-962 145 963 0
963 146 -964 0
-963 -146 -964 0
963 -146 964 0
-963 146 964 0
964 149 -965 0
-964 -149 -965 0
964 -149 965 0
-964 149 965 0
965 150 -966 0
-965 -150 -966 0
965 -150 966 0
-965 150 966 0
966 153 -967 0
-966 -153 -967 0
966 -153 967 0
-966 153 967 0
967 154 -968 0
-967 -154 -968 0
967 -154 968 0
-967 154 968 0
968 157 -969 0
-968 -157 -969 0
968 -157 969 0
-968 157 969 0
969 158 -970 0
-969 -158 -970 0
969 -158 970 0
-969 158 970 0
970 161 -971 0
-970 -161 -971 0
970 -161 971 0
-970 161 971 0
971 162 -972 0
-971 -162 -972 0
971 -162 972 0
-971 162 972 0
972 165 -973 0
-972 -165 -973 0
972 -165 973 0
-972 165 973 0
973 166 -974 0
-973 -166 -974 0
973 -166 974 0
-973 166 974 0
974 169 -975 0
-974 -169 -975 0
974 -169 975 0
-974 169 975 0
975 170 -976 0
-975 -170 -976 0
975 -170 976 0
-975 170 976 0
976 173 -977 0
-976 -173 -977 0
976 -173 977 0
-976 173 977 0
977 174 -978 0
-977 -174 -978 0
977 -174 978 0
-977 174 978 0
978 177 -979 0
-978 -177 -979 0
978 -177 979 0
-978 177 979 0
979 178 -980 0
-979 -178 -980 0
979 -178 980 0
-979 178 980 0
980 181 -981 0
-980 -181 -981 0
980 -181 981 0
-980 181 981 0
981 182 -982 0
-981 -182 -982 0
981 -182 982 0
-981 182 982 0
982 193 -983 0
-982 -193 -983 0
982 -193 983 0
-982 193 983 0
983 194 -984 0
-983 -194 -984 0
983 -194 984 0
-983 194 984 0
3 106 -985 0
-3 -106 -985 0
3 -106 985 0
-3 106 985 0
985 107 -986 0
-985 -107 -986 0
985 -107 986 0
-985 107 986 0
986 110 -987 0
-986 -110 -987 0
986 -110 987 0
-986 110 987 0
987 111 -988 0
-987 -111 -988 0
987 -111 988 0
-987 111 988 0
988 114 -989 0
-988 -114 -989 0
988 -114 989 0
-988 114 989 0
989 115 -990 0
-989 -115 -990 0
989 -115 990 0
-989 115 990 0
990 118 -991 0
-990 -118 -991 0
990 -118 991 0
-990 118 991 0
991 119 -992 0
-991 -119 -992 0
991 -119 992 0
-991 119 992 0
992 122 -993 0
-992 -122 -993 0
992 -122 993 0
-992 122 993 0
993 123 -994 0
-993 -123 -994 0
993 -123 994 0
-993 123 994 0
994 126 -995 0
-994 -126 -995 0
994 -126 995 0
-994 126 995 0
995 127 -996 0
-995 -127 -996 0
995 -127 996 0
-995 127 996 0
996 130 -997 0
-996 -130 -997 0
996 -130 997 0
-996 130 997 0
997 131 -998 0
-997 -131 -998 0
997 -131 998 0
-997 131 998 0
998 134 -999 0
-998 -134 -999 0
998 -134 999 0
-998 134 999 0
999 135 -1000 0
-999 -135 -1000 0
999 -135 1000 0
-999 135 1000 0
1000 138 -1001 0
-1000 -138 -1001 0
1000 -138 1001 0
-1000 138 1001 0
1001 139 -1002 0
-1001 -139 -1002 0
1001 -139 1002 0
-1001 139 1002 0
1002 142 -1003 0
-1002 -142 -1003 0
1002 -142 1003 0
-1002 142 1003 0
1003 143 -1004 0
-1003 -143 -1004 0
1003 -143 1004 0
-1003 143 1004 0
1004 146 -1005 0
-1004 -146 -1005 0
1004 -146 1005 0
-1004 146 1005 0
1005 147 -1006 0
-1005 -147 -1006 0
1005 -147 1006 0
-1005 147 1006 0
1006 150 -1007 0
-1006 -150 -1007 0
1006 -150 1007 0
-1006 150 1007 0
1007 151 -1008 0
-1007 -151 -1008 0
1007 -151 1008 0
-1007 151 1008 0
1008 154 -1009 0
-1008 -154 -1009 0
1008 -154 1009 0
-1008 154 1009 0
1009 155 -1010 0
-1009 -155 -1010 0
1009 -155 1010 0
-1009 155 1010 0
1010 158 -1011 0
-1010 -158 -1011 0
1010 -158 1011 0
-1010 158 1011 0
1011 159 -1012 0
-1011 -159 -1012 0
1011 -159 1012 0
-1011 159 1012 0
1012 162 -1013 0
-1012 -162 -1013 0
1012 -162 1013 0
-1012 162 1013 0
1013 163 -1014 0
-1013 -163 -1014 0
1013 -163 1014 0
-1013 163 1014 0
1014 166 -1015 0
-1014 -166 -1015 0
1014 -166 1015 0
-1014 166 1015 0
1015 167 -1016 0
-1015 -167 -1016 0
1015 -167 1016 0
-1015 167 1016 0
1016 170 -1017 0
-1016 -170 -1017 0
1016 -170 1017 0
-1016 170 1017 0
1017 171 -1018 0
-1017 -171 -1018 0
1017 -171 1018 0
-1017 171 1018 0
1018 174 -1019 0
-1018 -174 -1019 0
1018 -174 1019 0
-1018 174 1019 0
1019 175 -1020 0
-1019 -175 -1020 0
1019 -175 1020 0
-1019 175 1020 0
1020 178 -1021 0
-1020 -178 -1021 0
1020 -178 1021 0
-1020 178 1021 0
1021 179 -1022 0
-1021 -179 -1022 0
1021 -179 1022 0
-1021 179 1022 0
1022 182 -1023 0
-1022 -182 -1023 0
1022 -182 1023 0
-1022 182 1023 0
1023 183 -1024 0
-1023 -183 -1024 0
1023 -183 1024 0
-1023 183 1024 0
1024 194 -1025 0
-1024 -194 -1025 0
1024 -194 1025 0
-1024 194 1025 0
1025 195 -1026 0
-1025 -195 -1026 0
1025 -195 1026 0
-1025 195 1026 0
9 104 -1027 0
-9 -104 -1027 0
9 -104 1027 0
-9 104 1027 0
1027 105 -1028 0
-1027 -105 -1028 0
1027 -105 1028 0
-1027 105 1028 0
1028 108 -1029 0
-1028 -108 -1029 0
1028 -108 1029 0
-1028 108 1029 0
1029 109 -1030 0
-1029 -109 -1030 0
1029 -109 1030 0
-1029 109 1030 0
1030 192 -1031 0
-1030 -192 -1031 0
1030 -192 1031 0
-1030 192 1031 0
1031 193 -1032 0
-1031 -193 -1032 0
1031 -193 1032 0
-1031 193 1032 0
1032 196 -1033 0
-1032 -196 -1033 0
1032 -196 1033 0
-1032 196 1033 0
1033 197 -1034 0
-1033 -197 -1034 0
1033 -197 1034 0
-1033 197 1034 0
10 105 -1035 0
-10 -105 -1035 0
10 -105 1035 0
-10 105 1035 0
1035 106 -1036 0
-1035 -106 -1036 0
1035 -106 1036 0
-1035 106 1036 0
1036 109 -1037 0
-1036 -109 -1037 0
1036 -109 1037 0
-1036 109 1037 0
1037 110 -1038 0
-1037 -110 -1038 0
1037 -110 1038 0
-1037 110 1038 0
1038 193 -1039 0
-1038 -193 -1039 0
1038 -193 1039 0
-1038 193 1039 0
1039 194 -1040 0
-1039 -194 -1040 0
1039 -194 1040 0
-1039 194 1040 0
1040 197 -1041 0
-1040 -197 -1041 0
1040 -197 1041 0
-1040 197 1041 0
1041 198 -1042 0
-1041 -198 -1042 0
1041 -198 1042 0
-1041 198 1042 0
11 106 -1043 0
-11 -106 -1043 0
11 -106 1043 0
-11 106 1043 0
1043 107 -1044 0
-1043 -107 -1044 0
1043 -107 1044 0
-1043 107 1044 0
1044 110 -1045 0
-1044 -110 -1045 0
1044 -110 1045 0
-1044 110 1045 0
1045 111 -1046 0
-1045 -111 -1046 0
1045 -111 1046 0
-1045 111 1046 0
1046 194 -1047 0
-1046 -194 -1047 0
1046 -194 1047 0
-1046 194 1047 0
1047 195 -1048 0
-1047 -195 -1048 0
1047 -195 1048 0
-1047 195 1048 0
1048 198 -1049 0
-1048 -198 -1049 0
1048 -198 1049 0
-1048 198 1049 0
1049 199 -1050 0
-1049 -199 -1050 0
1049 -199 1050 0
-1049 199 1050 0
942 984 1026 1034 1042 1050 0
1 0
-1062 1054 1063 0
-1058 1054 1063 0
-1058 -1062 1063 0
-1063 1051 0
-1059 1051 0
-1063 -1059 1052 0
-1060 1052 0
-1063 -1060 1053 0
-1061 1053 0
-1063 -1061 0
-1055 1051 0
-1063 -1055 1052 0
-1056 1052 0
-1063 -1056 1053 0
-1057 1053 0
-1063 -1057 0
-1055 -1059 1052 0
-1063 -1055 -1059 1053 0
-1055 -1060 1053 0
-1063 -1055 -1060 0
-1055 -1061 0
-1063 -1055 -1061 0
-1056 -1059 1053 0
-1063 -1056 -1059 0
-1056 -1060 0
-1063 -1056 -1060 0
-1056 -1061 0
-1063 -1056 -1061 0
-1057 -1059 0
-1063 -1057 -1059 0
-1057 -1060 0
-1063 -1057 -1060 0
-1057 -1061 0
-1063 -1057 -1061 0
-1071 1062 1072 0
-1067 1062 1072 0
-1067 -1071 1072 0
-1072 1059 0
-1068 1059 0
-1072 -1068 1060 0
-1069 1060 0
-1072 -1069 1061 0
-1070 1061 0
-1072 -1070 0
-1064 1059 0
-1072 -1064 1060 0
-1065 1060 0
-1072 -1065 1061 0
-1066 1061 0
-1072 -1066 0
-1064 -1068 1060 0
-1072 -1064 -1068 1061 0
-1064 -1069 1061 0
-1072 -1064 -1069 0
-1064 -1070 0
-1072 -1064 -1070 0
-1065 -1068 1061 0
-1072 -1065 -1068 0
-1065 -1069 0
-1072 -1065 -1069 0
-1065 -1070 0
-1072 -1065 -1070 0
-1066 -1068 0
-1072 -1066 -1068 0
-1066 -1069 0
-1072 -1066 -1069 0
-1066 -1070 0
-1072 -1066 -1070 0
-1080 1071 1081 0
-1076 1071 1081 0
-1076 -1080 1081 0
-1081 1068 0
-1077 1068 0
-1081 -1077 1069 0
-1078 1069 0
-1081 -1078 1070 0
-1079 1070 0
-1081 -1079 0
-1073 1068 0
-1081 -1073 1069 0
-1074 1069 0
-1081 -1074 1070 0
-1075 1070 0
-1081 -1075 0
-1073 -1077 1069 0
-1081 -1073 -1077 1070 0
-1073 -1078 1070 0
-1081 -1073 -1078 0
-1073 -1079 0
-1081 -1073 -1079 0
-1074 -1077 1070 0
-1081 -1074 -1077 0
-1074 -1078 0
-1081 -1074 -1078 0
-1074 -1079 0
-1081 -1074 -1079 0
-1075 -1077 0
-1081 -1075 -1077 0
-1075 -1078 0
-1081 -1075 -1078 0
-1075 -1079 0
-1081 -1075 -1079 0
-1089 1080 1090 0
-1085 1080 1090 0
-1085 -1089 1090 0
-1090 1077 0
-1086 1077 0
-1090 -1086 1078 0
-1087 1078 0
-1090 -1087 1079 0
-1088 1079 0
-1090 -1088 0
-1082 1077 0
-1090 -1082 1078 0
-1083 1078 0
-1090 -1083 1079 0
-1084 1079 0
-1090 -1084 0
-1082 -1086 1078 0
-1090 -1082 -1086 1079 0
-1082 -1087 1079 0
-1090 -1082 -1087 0
-1082 -1088 0
-1090 -1082 -1088 0
-1083 -1086 1079 0
-1090 -1083 -1086 0
-1083 -1087 0
-1090 -1083 -1087 0
-1083 -1088 0
-1090 -1083 -1088 0
-1084 -1086 0
-1090 -1084 -1086 0
-1084 -1087 0
-1090 -1084 -1087 0
-1084 -1088 0
-1090 -1084 -1088 0
-1098 1089 1099 0
-1094 1089 1099 0
-1094 -1098 1099 0
-1099 1086 0
-1095 1086 0
-1099 -1095 1087 0
-1096 1087 0
-1099 -1096 1088 0
-1097 1088 0
-1099 -1097 0
-1091 1086 0
-1099 -1091 1087 0
-1092 1087 0
-1099 -1092 1088 0
-1093 1088 0
-1099 -1093 0
-1091 -1095 1087 0
-1099 -1091 -1095 1088 0
-1091 -1096 1088 0
-1099 -1091 -1096 0
-1091 -1097 0
-1099 -1091 -1097 0
-1092 -1095 1088 0
-1099 -1092 -1095 0
-1092 -1096 0
-1099 -1092 -1096 0
-1092 -1097 0
-1099 -1092 -1097 0
-1093 -1095 0
-1099 -1093 -1095 0
-1093 -1096 0
-1099 -1093 -1096 0
-1093 -1097 0
-1099 -1093 -1097 0
-1103 1098 1104 0
-1101 1098 1104 0
-1101 -1103 1104 0
-1104 1095 0
-1102 1095 0
-1104 -1102 1096 0
-1100 1095 0
-1104 -1100 1096 0
-1100 -1102 1096 0
-1104 -1100 -1102 1097 0
-200 1103 1107 0
-1106 1103 1107 0
-1106 -200 1107 0
-1107 1102 0
-1105 1102 0
-1107 -1105 0
-199 1106 1108 0
-198 1106 1108 0
-198 -199 1108 0
-1108 1105 0
-197 1101 1111 0
-1110 1101 1111 0
-1110 -197 1111 0
-1111 1100 0
-1109 1100 0
-1111 -1109 0
-196 1110 1112 0
-195 1110 1112 0
-195 -196 1112 0
-1112 1109 0
-1116 1094 1117 0
-1114 1094 1117 0
-1114 -1116 1117 0
-1117 1091 0
-1115 1091 0
-1117 -1115 1092 0
-1113 1091 0
-1117 -1113 1092 0
-1113 -1115 1092 0
-1117 -1113 -1115 1093 0
-194 1116 1120 0
-1119 1116 1120 0
-1119 -194 1120 0
-1120 1115 0
-1118 1115 0
-1120 -1118 0
-193 1119 1121 0
-192 1119 1121 0
-192 -193 1121 0
-1121 1118 0
-191 1114 1124 0
-1123 1114 1124 0
-1123 -191 1124 0
-1124 1113 0
-1122 1113 0
-1124 -1122 0
-190 1123 1125 0
-189 1123 1125 0
-189 -190 1125 0
-1125 1122 0
-1133 1085 1134 0
-1129 1085 1134 0
-1129 -1133 1134 0
-1134 1082 0
-1130 1082 0
-1134 -1130 1083 0
-1131 1083 0
-1134 -1131 1084 0
-1132 1084 0
-1134 -1132 0
-1126 1082 0
-1134 -1126 1083 0
-1127 1083 0
-1134 -1127 1084 0
-1128 1084 0
-1134 -1128 0
-1126 -1130 1083 0
-1134 -1126 -1130 1084 0
-1126 -1131 1084 0
-1134 -1126 -1131 0
-1126 -1132 0
-1134 -1126 -1132 0
-1127 -1130 1084 0
-1134 -1127 -1130 0
-1127 -1131 0
-1134 -1127 -1131 0
-1127 -1132 0
-1134 -1127 -1132 0
-1128 -1130 0
-1134 -1128 -1130 0
-1128 -1131 0
-1134 -1128 -1131 0
-1128 -1132 0
-1134 -1128 -1132 0
-1138 1133 1139 0
-1136 1133 1139 0
-1136 -1138 1139 0
-1139 1130 0
-1137 1130 0
-1139 -1137 1131 0
-1135 1130 0
-1139 -1135 1131 0
-1135 -1137 1131 0
-1139 -1135 -1137 1132 0
-188 1138 1142 0
-1141 1138 1142 0
-1141 -188 1142 0
-1142 1137 0
-1140 1137 0
-1142 -1140 0
-187 1141 1143 0
-186 1141 1143 0
-186 -187 1143 0
-1143 1140 0
-185 1136 1146 0
-1145 1136 1146 0
-1145 -185 1146 0
-1146 1135 0
-1144 1135 0
-1146 -1144 0
-184 1145 1147 0
-183 1145 1147 0
-183 -184 1147 0
-1147 1144 0
-1152 1129 1153 0
-1150 1129 1153 0
-1150 -1152 1153 0
-1153 1126 0
-1151 1126 0
-1153 -1151 1127 0
-1148 1126 0
-1153 -1148 1127 0
-1149 1127 0
-1153 -1149 1128 0
-1148 -1151 1127 0
-1153 -1148 -1151 1128 0
-1149 -1151 1128 0
-1153 -1149 -1151 0
-182 1152 1156 0
-1155 1152 1156 0
-1155 -182 1156 0
-1156 1151 0
-1154 1151 0
-1156 -1154 0
-181 1155 1157 0
-180 1155 1157 0
-180 -181 1157 0
-1157 1154 0
-1161 1150 1162 0
-1159 1150 1162 0
-1159 -1161 1162 0
-1162 1148 0
-1160 1148 0
-1162 -1160 1149 0
-1158 1148 0
-1162 -1158 1149 0
-1158 -1160 1149 0
-1162 -1158 -1160 0
-179 1161 1163 0
-178 1161 1163 0
-178 -179 1163 0
-1163 1160 0
-177 1159 1164 0
-176 1159 1164 0
-176 -177 1164 0
-1164 1158 0
-1172 1076 1173 0
-1168 1076 1173 0
-1168 -1172 1173 0
-1173 1073 0
-1169 1073 0
-1173 -1169 1074 0
-1170 1074 0
-1173 -1170 1075 0
-1171 1075 0
-1173 -1171 0
-1165 1073 0
-1173 -1165 1074 0
-1166 1074 0
-1173 -1166 1075 0
-1167 1075 0
-1173 -1167 0
-1165 -1169 1074 0
-1173 -1165 -1169 1075 0
-1165 -1170 1075 0
-1173 -1165 -1170 0
-1165 -1171 0
-1173 -1165 -1171 0
-1166 -1169 1075 0
-1173 -1166 -1169 0
-1166 -1170 0
-1173 -1166 -1170 0
-1166 -1171 0
-1173 -1166 -1171 0
-1167 -1169 0
-1173 -1167 -1169 0
-1167 -1170 0
-1173 -1167 -1170 0
-1167 -1171 0
-1173 -1167 -1171 0
-1181 1172 1182 0
-1177 1172 1182 0
-1177 -1181 1182 0
-1182 1169 0
-1178 1169 0
-1182 -1178 1170 0
-1179 1170 0
-1182 -1179 1171 0
-1180 1171 0
-1182 -1180 0
-1174 1169 0
-1182 -1174 1170 0
-1175 1170 0
-1182 -1175 1171 0
-1176 1171 0
-1182 -1176 0
-1174 -1178 1170 0
-1182 -1174 -1178 1171 0
-1174 -1179 1171 0
-1182 -1174 -1179 0
-1174 -1180 0
-1182 -1174 -1180 0
-1175 -1178 1171 0
-1182 -1175 -1178 0
-1175 -1179 0
-1182 -1175 -1179 0
-1175 -1180 0
-1182 -1175 -1180 0
-1176 -1178 0
-1182 -1176 -1178 0
-1176 -1179 0
-1182 -1176 -1179 0
-1176 -1180 0
-1182 -1176 -1180 0
-1186 1181 1187 0
-1184 1181 1187 0
-1184 -1186 1187 0
-1187 1178 0
-1185 1178 0
-1187 -1185 1179 0
-1183 1178 0
-1187 -1183 1179 0
-1183 -1185 1179 0
-1187 -1183 -1185 1180 0
-175 1186 1190 0
-1189 1186 1190 0
-1189 -175 1190 0
-1190 1185 0
-1188 1185 0
-1190 -1188 0
-174 1189 1191 0
-173 1189 1191 0
-173 -174 1191 0
-1191 1188 0
-172 1184 1194 0
-1193 1184 1194 0
-1193 -172 1194 0
-1194 1183 0
-1192 1183 0
-1194 -1192 0
-171 1193 1195 0
-170 1193 1195 0
-170 -171 1195 0
-1195 1192 0
-1199 1177 1200 0
-1197 1177 1200 0
-1197 -1199 1200 0
-1200 1174 0
-1198 1174 0
-1200 -1198 1175 0
-1196 1174 0
-1200 -1196 1175 0
-1196 -1198 1175 0
-1200 -1196 -1198 1176 0
-169 1199 1203 0
-1202 1199 1203 0
-1202 -169 1203 0
-1203 1198 0
-1201 1198 0
-1203 -1201 0
-168 1202 1204 0
-167 1202 1204 0
-167 -168 1204 0
-1204 1201 0
-166 1197 1207 0
-1206 1197 1207 0
-1206 -166 1207 0
-1207 1196 0
-1205 1196 0
-1207 -1205 0
-165 1206 1208 0
-164 1206 1208 0
-164 -165 1208 0
-1208 1205 0
-1216 1168 1217 0
-1212 1168 1217 0
-1212 -1216 1217 0
-1217 1165 0
-1213 1165 0
-1217 -1213 1166 0
-1214 1166 0
-1217 -1214 1167 0
-1215 1167 0
-1217 -1215 0
-1209 1165 0
-1217 -1209 1166 0
-1210 1166 0
-1217 -1210 1167 0
-1211 1167 0
-1217 -1211 0
-1209 -1213 1166 0
-1217 -1209 -1213 1167 0
-1209 -1214 1167 0
-1217 -1209 -1214 0
-1209 -1215 0
-1217 -1209 -1215 0
-1210 -1213 1167 0
-1217 -1210 -1213 0
-1210 -1214 0
-1217 -1210 -1214 0
-1210 -1215 0
-1217 -1210 -1215 0
-1211 -1213 0
-1217 -1211 -1213 0
-1211 -1214 0
-1217 -1211 -1214 0
-1211 -1215 0
-1217 -1211 -1215 0
-1221 1216 1222 0
-1219 1216 1222 0
-1219 -1221 1222 0
-1222 1213 0
-1220 1213 0
-1222 -1220 1214 0
-1218 1213 0
-1222 -1218 1214 0
-1218 -1220 1214 0
-1222 -1218 -1220 1215 0
-163 1221 1225 0
-1224 1221 1225 0
-1224 -163 1225 0
-1225 1220 0
-1223 1220 0
-1225 -1223 0
-162 1224 1226 0
-161 1224 1226 0
-161 -162 1226 0
-1226 1223 0
-160 1219 1229 0
-1228 1219 1229 0
-1228 -160 1229 0
-1229 1218 0
-1227 1218 0
-1229 -1227 0
-159 1228 1230 0
-158 1228 1230 0
-158 -159 1230 0
-1230 1227 0
-1235 1212 1236 0
-1233 1212 1236 0
-1233 -1235 1236 0
-1236 1209 0
-1234 1209 0
-1236 -1234 1210 0
-1231 1209 0
-1236 -1231 1210 0
-1232 1210 0
-1236 -1232 1211 0
-1231 -1234 1210 0
-1236 -1231 -1234 1211 0
-1232 -1234 1211 0
-1236 -1232 -1234 0
-157 1235 1239 0
-1238 1235 1239 0
-1238 -157 1239 0
-1239 1234 0
-1237 1234 0
-1239 -1237 0
-156 1238 1240 0
-155 1238 1240 0
-155 -156 1240 0
-1240 1237 0
-1244 1233 1245 0
-1242 1233 1245 0
-1242 -1244 1245 0
-1245 1231 0
-1243 1231 0
-1245 -1243 1232 0
-1241 1231 0
-1245 -1241 1232 0
-1241 -1243 1232 0
-1245 -1241 -1243 0
-154 1244 1246 0
-153 1244 1246 0
-153 -154 1246 0
-1246 1243 0
-152 1242 1247 0
-151 1242 1247 0
-151 -152 1247 0
-1247 1241 0
-1255 1067 1256 0
-1251 1067 1256 0
-1251 -1255 1256 0
-1256 1064 0
-1252 1064 0
-1256 -1252 1065 0
-1253 1065 0
-1256 -1253 1066 0
-1254 1066 0
-1256 -1254 0
-1248 1064 0
-1256 -1248 1065 0
-1249 1065 0
-1256 -1249 1066 0
-1250 1066 0
-1256 -1250 0
-1248 -1252 1065 0
-1256 -1248 -1252 1066 0
-1248 -1253 1066 0
-1256 -1248 -1253 0
-1248 -1254 0
-1256 -1248 -1254 0
-1249 -1252 1066 0
-1256 -1249 -1252 0
-1249 -1253 0
-1256 -1249 -1253 0
-1249 -1254 0
-1256 -1249 -1254 0
-1250 -1252 0
-1256 -1250 -1252 0
-1250 -1253 0
-1256 -1250 -1253 0
-1250 -1254 0
-1256 -1250 -1254 0
-1264 1255 1265 0
-1260 1255 1265 0
-1260 -1264 1265 0
-1265 1252 0
-1261 1252 0
-1265 -1261 1253 0
-1262 1253 0
-1265 -1262 1254 0
-1263 1254 0
-1265 -1263 0
-1257 1252 0
-1265 -1257 1253 0
-1258 1253 0
-1265 -1258 1254 0
-1259 1254 0
-1265 -1259 0
-1257 -1261 1253 0
-1265 -1257 -1261 1254 0
-1257 -1262 1254 0
-1265 -1257 -1262 0
-1257 -1263 0
-1265 -1257 -1263 0
-1258 -1261 1254 0
-1265 -1258 -1261 0
-1258 -1262 0
-1265 -1258 -1262 0
-1258 -1263 0
-1265 -1258 -1263 0
-1259 -1261 0
-1265 -1259 -1261 0
-1259 -1262 0
-1265 -1259 -1262 0
-1259 -1263 0
-1265 -1259 -1263 0
-1273 1264 1274 0
-1269 1264 1274 0
-1269 -1273 1274 0
-1274 1261 0
-1270 1261 0
-1274 -1270 1262 0
-1271 1262 0
-1274 -1271 1263 0
-1272 1263 0
-1274 -1272 0
-1266 1261 0
-1274 -1266 1262 0
-1267 1262 0
-1274 -1267 1263 0
-1268 1263 0
-1274 -1268 0
-1266 -1270 1262 0
-1274 -1266 -1270 1263 0
-1266 -1271 1263 0
-1274 -1266 -1271 0
-1266 -1272 0
-1274 -1266 -1272 0
-1267 -1270 1263 0
-1274 -1267 -1270 0
-1267 -1271 0
-1274 -1267 -1271 0
-1267 -1272 0
-1274 -1267 -1272 0
-1268 -1270 0
-1274 -1268 -1270 0
-1268 -1271 0
-1274 -1268 -1271 0
-1268 -1272 0
-1274 -1268 -1272 0
-1278 1273 1279 0
-1276 1273 1279 0
-1276 -1278 1279 0
-1279 1270 0
-1277 1270 0
-1279 -1277 1271 0
-1275 1270 0
-1279 -1275 1271 0
-1275 -1277 1271 0
-1279 -1275 -1277 1272 0
-150 1278 1282 0
-1281 1278 1282 0
-1281 -150 1282 0
-1282 1277 0
-1280 1277 0
-1282 -1280 0
-149 1281 1283 0
-148 1281 1283 0
-148 -149 1283 0
-1283 1280 0
-147 1276 1286 0
-1285 1276 1286 0
-1285 -147 1286 0
-1286 1275 0
-1284 1275 0
-1286 -1284 0
-146 1285 1287 0
-145 1285 1287 0
-145 -146 1287 0
-1287 1284 0
-1291 1269 1292 0
-1289 1269 1292 0
-1289 -1291 1292 0
-1292 1266 0
-1290 1266 0
-1292 -1290 1267 0
-1288 1266 0
-1292 -1288 1267 0
-1288 -1290 1267 0
-1292 -1288 -1290 1268 0
-144 1291 1295 0
-1294 1291 1295 0
-1294 -144 1295 0
-1295 1290 0
-1293 1290 0
-1295 -1293 0
-143 1294 1296 0
-142 1294 1296 0
-142 -143 1296 0
-1296 1293 0
-141 1289 1299 0
-1298 1289 1299 0
-1298 -141 1299 0
-1299 1288 0
-1297 1288 0
-1299 -1297 0
-140 1298 1300 0
-139 1298 1300 0
-139 -140 1300 0
-1300 1297 0
-1308 1260 1309 0
-1304 1260 1309 0
-1304 -1308 1309 0
-1309 1257 0
-1305 1257 0
-1309 -1305 1258 0
-1306 1258 0
-1309 -1306 1259 0
-1307 1259 0
-1309 -1307 0
-1301 1257 0
-1309 -1301 1258 0
-1302 1258 0
-1309 -1302 1259 0
-1303 1259 0
-1309 -1303 0
-1301 -1305 1258 0
-1309 -1301 -1305 1259 0
-1301 -1306 1259 0
-1309 -1301 -1306 0
-1301 -1307 0
-1309 -1301 -1307 0
-1302 -1305 1259 0
-1309 -1302 -1305 0
-1302 -1306 0
-1309 -1302 -1306 0
-1302 -1307 0
-1309 -1302 -1307 0
-1303 -1305 0
-1309 -1303 -1305 0
-1303 -1306 0
-1309 -1303 -1306 0
-1303 -1307 0
-1309 -1303 -1307 0
-1313 1308 1314 0
-1311 1308 1314 0
-1311 -1313 1314 0
-1314 1305 0
-1312 1305 0
-1314 -1312 1306 0
-1310 1305 0
-1314 -1310 1306 0
-1310 -1312 1306 0
-1314 -1310 -1312 1307 0
-138 1313 1317 0
-1316 1313 1317 0
-1316 -138 1317 0
-1317 1312 0
-1315 1312 0
-1317 -1315 0
-137 1316 1318 0
-136 1316 1318 0
-136 -137 1318 0
-1318 1315 0
-135 1311 1321 0
-1320 1311 1321 0
-1320 -135 1321 0
-1321 1310 0
-1319 1310 0
-1321 -1319 0
-134 1320 1322 0
-133 1320 1322 0
-133 -134 1322 0
-1322 1319 0
-1327 1304 1328 0
-1325 1304 1328 0
-1325 -1327 1328 0
-1328 1301 0
-1326 1301 0
-1328 -1326 1302 0
-1323 1301 0
-1328 -1323 1302 0
-1324 1302 0
-1328 -1324 1303 0
-1323 -1326 1302 0
-1328 -1323 -1326 1303 0
-1324 -1326 1303 0
-1328 -1324 -1326 0
-132 1327 1331 0
-1330 1327 1331 0
-1330 -132 1331 0
-1331 1326 0
-1329 1326 0
-1331 -1329 0
-131 1330 1332 0
-130 1330 1332 0
-130 -131 1332 0
-1332 1329 0
-1336 1325 1337 0
-1334 1325 1337 0
-1334 -1336 1337 0
-1337 1323 0
-1335 1323 0
-1337 -1335 1324 0
-1333 1323 0
-1337 -1333 1324 0
-1333 -1335 1324 0
-1337 -1333 -1335 0
-129 1336 1338 0
-128 1336 1338 0
-128 -129 1338 0
-1338 1335 0
-127 1334 1339 0
-126 1334 1339 0
-126 -127 1339 0
-1339 1333 0
-1347 1251 1348 0
-1343 1251 1348 0
-1343 -1347 1348 0
-1348 1248 0
-1344 1248 0
-1348 -1344 1249 0
-1345 1249 0
-1348 -1345 1250 0
-1346 1250 0
-1348 -1346 0
-1340 1248 0
-1348 -1340 1249 0
-1341 1249 0
-1348 -1341 1250 0
-1342 1250 0
-1348 -1342 0
-1340 -1344 1249 0
-1348 -1340 -1344 1250 0
-1340 -1345 1250 0
-1348 -1340 -1345 0
-1340 -1346 0
-1348 -1340 -1346 0
-1341 -1344 1250 0
-1348 -1341 -1344 0
-1341 -1345 0
-1348 -1341 -1345 0
-1341 -1346 0
-1348 -1341 -1346 0
-1342 -1344 0
-1348 -1342 -1344 0
-1342 -1345 0
-1348 -1342 -1345 0
-1342 -1346 0
-1348 -1342 -1346 0
-1356 1347 1357 0
-1352 1347 1357 0
-1352 -1356 1357 0
-1357 1344 0
-1353 1344 0
-1357 -1353 1345 0
-1354 1345 0
-1357 -1354 1346 0
-1355 1346 0
-1357 -1355 0
-1349 1344 0
-1357 -1349 1345 0
-1350 1345 0
-1357 -1350 1346 0
-1351 1346 0
-1357 -1351 0
-1349 -1353 1345 0
-1357 -1349 -1353 1346 0
-1349 -1354 1346 0
-1357 -1349 -1354 0
-1349 -1355 0
-1357 -1349 -1355 0
-1350 -1353 1346 0
-1357 -1350 -1353 0
-1350 -1354 0
-1357 -1350 -1354 0
-1350 -1355 0
-1357 -1350 -1355 0
-1351 -1353 0
-1357 -1351 -1353 0
-1351 -1354 0
-1357 -1351 -1354 0
-1351 -1355 0
-1357 -1351 -1355 0
-1361 1356 1362 0
-1359 1356 1362 0
-1359 -1361 1362 0
-1362 1353 0
-1360 1353 0
-1362 -1360 1354 0
-1358 1353 0
-1362 -1358 1354 0
-1358 -1360 1354 0
-1362 -1358 -1360 1355 0
-125 1361 1365 0
-1364 1361 1365 0
-1364 -125 1365 0
-1365 1360 0
-1363 1360 0
-1365 -1363 0
-124 1364 1366 0
-123 1364 1366 0
-123 -124 1366 0
-1366 1363 0
-122 1359 1369 0
-1368 1359 1369 0
-1368 -122 1369 0
-1369 1358 0
-1367 1358 0
-1369 -1367 0
-121 1368 1370 0
-120 1368 1370 0
-120 -121 1370 0
-1370 1367 0
-1374 1352 1375 0
-1372 1352 1375 0
-1372 -1374 1375 0
-1375 1349 0
-1373 1349 0
-1375 -1373 1350 0
-1371 1349 0
-1375 -1371 1350 0
-1371 -1373 1350 0
-1375 -1371 -1373 1351 0
-119 1374 1378 0
-1377 1374 1378 0
-1377 -119 1378 0
-1378 1373 0
-1376 1373 0
-1378 -1376 0
-118 1377 1379 0
-117 1377 1379 0
-117 -118 1379 0
-1379 1376 0
-116 1372 1382 0
-1381 1372 1382 0
-1381 -116 1382 0
-1382 1371 0
-1380 1371 0
-1382 -1380 0
-115 1381 1383 0
-114 1381 1383 0
-114 -115 1383 0
-1383 1380 0
-1391 1343 1392 0
-1387 1343 1392 0
-1387 -1391 1392 0
-1392 1340 0
-1388 1340 0
-1392 -1388 1341 0
-1389 1341 0
-1392 -1389 1342 0
-1390 1342 0
-1392 -1390 0
-1384 1340 0
-1392 -1384 1341 0
-1385 1341 0
-1392 -1385 1342 0
-1386 1342 0
-1392 -1386 0
-1384 -1388 1341 0
-1392 -1384 -1388 1342 0
-1384 -1389 1342 0
-1392 -1384 -1389 0
-1384 -1390 0
-1392 -1384 -1390 0
-1385 -1388 1342 0
-1392 -1385 -1388 0
-1385 -1389 0
-1392 -1385 -1389 0
-1385 -1390 0
-1392 -1385 -1390 0
-1386 -1388 0
-1392 -1386 -1388 0
-1386 -1389 0
-1392 -1386 -1389 0
-1386 -1390 0
-1392 -1386 -1390 0
-1396 1391 1397 0
-1394 1391 1397 0
-1394 -1396 1397 0
-1397 1388 0
-1395 1388 0
-1397 -1395 1389 0
-1393 1388 0
-1397 -1393 1389 0
-1393 -1395 1389 0
-1397 -1393 -1395 1390 0
-113 1396 1400 0
-1399 1396 1400 0
-1399 -113 1400 0
-1400 1395 0
-1398 1395 0
-1400 -1398 0
-112 1399 1401 0
-111 1399 1401 0
-111 -112 1401 0
-1401 1398 0
-110 1394 1404 0
-1403 1394 1404 0
-1403 -110 1404 0
-1404 1393 0
-1402 1393 0
-1404 -1402 0
-109 1403 1405 0
-108 1403 1405 0
-108 -109 1405 0
-1405 1402 0
-1410 1387 1411 0
-1408 1387 1411 0
-1408 -1410 1411 0
-1411 1384 0
-1409 1384 0
-1411 -1409 1385 0
-1406 1384 0
-1411 -1406 1385 0
-1407 1385 0
-1411 -1407 1386 0
-1406 -1409 1385 0
-1411 -1406 -1409 1386 0
-1407 -1409 1386 0
-1411 -1407 -1409 0
-107 1410 1414 0
-1413 1410 1414 0
-1413 -107 1414 0
-1414 1409 0
-1412 1409 0
-1414 -1412 0
-106 1413 1415 0
-105 1413 1415 0
-105 -106 1415 0
-1415 1412 0
-1419 1408 1420 0
-1417 1408 1420 0
-1417 -1419 1420 0
-1420 1406 0
-1418 1406 0
-1420 -1418 1407 0
-1416 1406 0
-1420 -1416 1407 0
-1416 -1418 1407 0
-1420 -1416 -1418 0
-104 1419 1421 0
-103 1419 1421 0
-103 -104 1421 0
-1421 1418 0
-102 1417 1422 0
-101 1417 1422 0
-101 -102 1422 0
-1422 1416 0
-1430 1058 1431 0
-1426 1058 1431 0
-1426 -1430 1431 0
-1431 1055 0
-1427 1055 0
-1431 -1427 1056 0
-1428 1056 0
-1431 -1428 1057 0
-1429 1057 0
-1431 -1429 0
-1423 1055 0
-1431 -1423 1056 0
-1424 1056 0
-1431 -1424 1057 0
-1425 1057 0
-1431 -1425 0
-1423 -1427 1056 0
-1431 -1423 -1427 1057 0
-1423 -1428 1057 0
-1431 -1423 -1428 0
-1423 -1429 0
-1431 -1423 -1429 0
-1424 -1427 1057 0
-1431 -1424 -1427 0
-1424 -1428 0
-1431 -1424 -1428 0
-1424 -1429 0
-1431 -1424 -1429 0
-1425 -1427 0
-1431 -1425 -1427 0
-1425 -1428 0
-1431 -1425 -1428 0
-1425 -1429 0
-1431 -1425 -1429 0
-1439 1430 1440 0
-1435 1430 1440 0
-1435 -1439 1440 0
-1440 1427 0
-1436 1427 0
-1440 -1436 1428 0
-1437 1428 0
-1440 -1437 1429 0
-1438 1429 0
-1440 -1438 0
-1432 1427 0
-1440 -1432 1428 0
-1433 1428 0
-1440 -1433 1429 0
-1434 1429 0
-1440 -1434 0
-1432 -1436 1428 0
-1440 -1432 -1436 1429 0
-1432 -1437 1429 0
-1440 -1432 -1437 0
-1432 -1438 0
-1440 -1432 -1438 0
-1433 -1436 1429 0
-1440 -1433 -1436 0
-1433 -1437 0
-1440 -1433 -1437 0
-1433 -1438 0
-1440 -1433 -1438 0
-1434 -1436 0
-1440 -1434 -1436 0
-1434 -1437 0
-1440 -1434 -1437 0
-1434 -1438 0
-1440 -1434 -1438 0
-1448 1439 1449 0
-1444 1439 1449 0
-1444 -1448 1449 0
-1449 1436 0
-1445 1436 0
-1449 -1445 1437 0
-1446 1437 0
-1449 -1446 1438 0
-1447 1438 0
-1449 -1447 0
-1441 1436 0
-1449 -1441 1437 0
-1442 1437 0
-1449 -1442 1438 0
-1443 1438 0
-1449 -1443 0
-1441 -1445 1437 0
-1449 -1441 -1445 1438 0
-1441 -1446 1438 0
-1449 -1441 -1446 0
-1441 -1447 0
-1449 -1441 -1447 0
-1442 -1445 1438 0
-1449 -1442 -1445 0
-1442 -1446 0
-1449 -1442 -1446 0
-1442 -1447 0
-1449 -1442 -1447 0
-1443 -1445 0
-1449 -1443 -1445 0
-1443 -1446 0
-1449 -1443 -1446 0
-1443 -1447 0
-1449 -1443 -1447 0
-1457 1448 1458 0
-1453 1448 1458 0
-1453 -1457 1458 0
-1458 1445 0
-1454 1445 0
-1458 -1454 1446 0
-1455 1446 0
-1458 -1455 1447 0
-1456 1447 0
-1458 -1456 0
-1450 1445 0
-1458 -1450 1446 0
-1451 1446 0
-1458 -1451 1447 0
-1452 1447 0
-1458 -1452 0
-1450 -1454 1446 0
-1458 -1450 -1454 1447 0
-1450 -1455 1447 0
-1458 -1450 -1455 0
-1450 -1456 0
-1458 -1450 -1456 0
-1451 -1454 1447 0
-1458 -1451 -1454 0
-1451 -1455 0
-1458 -1451 -1455 0
-1451 -1456 0
-1458 -1451 -1456 0
-1452 -1454 0
-1458 -1452 -1454 0
-1452 -1455 0
-1458 -1452 -1455 0
-1452 -1456 0
-1458 -1452 -1456 0
-1462 1457 1463 0
-1460 1457 1463 0
-1460 -1462 1463 0
-1463 1454 0
-1461 1454 0
-1463 -1461 1455 0
-1459 1454 0
-1463 -1459 1455 0
-1459 -1461 1455 0
-1463 -1459 -1461 1456 0
-100 1462 1466 0
-1465 1462 1466 0
-1465 -100 1466 0
-1466 1461 0
-1464 1461 0
-1466 -1464 0
-99 1465 1467 0
-98 1465 1467 0
-98 -99 1467 0
-1467 1464 0
-97 1460 1470 0
-1469 1460 1470 0
-1469 -97 1470 0
-1470 1459 0
-1468 1459 0
-1470 -1468 0
-96 1469 1471 0
-95 1469 1471 0
-95 -96 1471 0
-1471 1468 0
-1475 1453 1476 0
-1473 1453 1476 0
-1473 -1475 1476 0
-1476 1450 0
-1474 1450 0
-1476 -1474 1451 0
-1472 1450 0
-1476 -1472 1451 0
-1472 -1474 1451 0
-1476 -1472 -1474 1452 0
-94 1475 1479 0
-1478 1475 1479 0
-1478 -94 1479 0
-1479 1474 0
-1477 1474 0
-1479 -1477 0
-93 1478 1480 0
-92 1478 1480 0
-92 -93 1480 0
-1480 1477 0
-91 1473 1483 0
-1482 1473 1483 0
-1482 -91 1483 0
-1483 1472 0
-1481 1472 0
-1483 -1481 0
-90 1482 1484 0
-89 1482 1484 0
-89 -90 1484 0
-1484 1481 0
-1492 1444 1493 0
-1488 1444 1493 0
-1488 -1492 1493 0
-1493 1441 0
-1489 1441 0
-1493 -1489 1442 0
-1490 1442 0
-1493 -1490 1443 0
-1491 1443 0
-1493 -1491 0
-1485 1441 0
-1493 -1485 1442 0
-1486 1442 0
-1493 -1486 1443 0
-1487 1443 0
-1493 -1487 0
-1485 -1489 1442 0
-1493 -1485 -1489 1443 0
-1485 -1490 1443 0
-1493 -1485 -1490 0
-1485 -1491 0
-1493 -1485 -1491 0
-1486 -1489 1443 0
-1493 -1486 -1489 0
-1486 -1490 0
-1493 -1486 -1490 0
-1486 -1491 0
-1493 -1486 -1491 0
-1487 -1489 0
-1493 -1487 -1489 0
-1487 -1490 0
-1493 -1487 -1490 0
-1487 -1491 0
-1493 -1487 -1491 0
-1497 1492 1498 0
-1495 1492 1498 0
-1495 -1497 1498 0
-1498 1489 0
-1496 1489 0
-1498 -1496 1490 0
-1494 1489 0
-1498 -1494 1490 0
-1494 -1496 1490 0
-1498 -1494 -1496 1491 0
-88 1497 1501 0
-1500 1497 1501 0
-1500 -88 1501 0
-1501 1496 0
-1499 1496 0
-1501 -1499 0
-87 1500 1502 0
-86 1500 1502 0
-86 -87 1502 0
-1502 1499 0
-85 1495 1505 0
-1504 1495 1505 0
-1504 -85 1505 0
-1505 1494 0
-1503 1494 0
-1505 -1503 0
-84 1504 1506 0
-83 1504 1506 0
-83 -84 1506 0
-1506 1503 0
-1511 1488 1512 0
-1509 1488 1512 0
-1509 -1511 1512 0
-1512 1485 0
-1510 1485 0
-1512 -1510 1486 0
-1507 1485 0
-1512 -1507 1486 0
-1508 1486 0
-1512 -1508 1487 0
-1507 -1510 1486 0
-1512 -1507 -1510 1487 0
-1508 -1510 1487 0
-1512 -1508 -1510 0
-82 1511 1515 0
-1514 1511 1515 0
-1514 -82 1515 0
-1515 1510 0
-1513 1510 0
-1515 -1513 0
-81 1514 1516 0
-80 1514 1516 0
-80 -81 1516 0
-1516 1513 0
-1520 1509 1521 0
-1518 1509 1521 0
-1518 -1520 1521 0
-1521 1507 0
-1519 1507 0
-1521 -1519 1508 0
-1517 1507 0
-1521 -1517 1508 0
-1517 -1519 1508 0
-1521 -1517 -1519 0
-79 1520 1522 0
-78 1520 1522 0
-78 -79 1522 0
-1522 1519 0
-77 1518 1523 0
-76 1518 1523 0
-76 -77 1523 0
-1523 1517 0
-1531 1435 1532 0
-1527 1435 1532 0
-1527 -1531 1532 0
-1532 1432 0
-1528 1432 0
-1532 -1528 1433 0
-1529 1433 0
-1532 -1529 1434 0
-1530 1434 0
-1532 -1530 0
-1524 1432 0
-1532 -1524 1433 0
-1525 1433 0
-1532 -1525 1434 0
-1526 1434 0
-1532 -1526 0
-1524 -1528 1433 0
-1532 -1524 -1528 1434 0
-1524 -1529 1434 0
-1532 -1524 -1529 0
-1524 -1530 0
-1532 -1524 -1530 0
-1525 -1528 1434 0
-1532 -1525 -1528 0
-1525 -1529 0
-1532 -1525 -1529 0
-1525 -1530 0
-1532 -1525 -1530 0
-1526 -1528 0
-1532 -1526 -1528 0
-1526 -1529 0
-1532 -1526 -1529 0
-1526 -1530 0
-1532 -1526 -1530 0
-1540 1531 1541 0
-1536 1531 1541 0
-1536 -1540 1541 0
-1541 1528 0
-1537 1528 0
-1541 -1537 1529 0
-1538 1529 0
-1541 -1538 1530 0
-1539 1530 0
-1541 -1539 0
-1533 1528 0
-1541 -1533 1529 0
-1534 1529 0
-1541 -1534 1530 0
-1535 1530 0
-1541 -1535 0
-1533 -1537 1529 0
-1541 -1533 -1537 1530 0
-1533 -1538 1530 0
-1541 -1533 -1538 0
-1533 -1539 0
-1541 -1533 -1539 0
-1534 -1537 1530 0
-1541 -1534 -1537 0
-1534 -1538 0
-1541 -1534 -1538 0
-1534 -1539 0
-1541 -1534 -1539 0
-1535 -1537 0
-1541 -1535 -1537 0
-1535 -1538 0
-1541 -1535 -1538 0
-1535 -1539 0
-1541 -1535 -1539 0
-1545 1540 1546 0
-1543 1540 1546 0
-1543 -1545 1546 0
-1546 1537 0
-1544 1537 0
-1546 -1544 1538 0
-1542 1537 0
-1546 -1542 1538 0
-1542 -1544 1538 0
-1546 -1542 -1544 1539 0
-75 1545 1549 0
-1548 1545 1549 0
-1548 -75 1549 0
-1549 1544 0
-1547 1544 0
-1549 -1547 0
-74 1548 1550 0
-73 1548 1550 0
-73 -74 1550 0
-1550 1547 0
-72 1543 1553 0
-1552 1543 1553 0
-1552 -72 1553 0
-1553 1542 0
-1551 1542 0
-1553 -1551 0
-71 1552 1554 0
-70 1552 1554 0
-70 -71 1554 0
-1554 1551 0
-1558 1536 1559 0
-1556 1536 1559 0
-1556 -1558 1559 0
-1559 1533 0
-1557 1533 0
-1559 -1557 1534 0
-1555 1533 0
-1559 -1555 1534 0
-1555 -1557 1534 0
-1559 -1555 -1557 1535 0
-69 1558 1562 0
-1561 1558 1562 0
-1561 -69 1562 0
-1562 1557 0
-1560 1557 0
-1562 -1560 0
-68 1561 1563 0
-67 1561 1563 0
-67 -68 1563 0
-1563 1560 0
-66 1556 1566 0
-1565 1556 1566 0
-1565 -66 1566 0
-1566 1555 0
-1564 1555 0
-1566 -1564 0
-65 1565 1567 0
-64 1565 1567 0
-64 -65 1567 0
-1567 1564 0
-1575 1527 1576 0
-1571 1527 1576 0
-1571 -1575 1576 0
-1576 1524 0
-1572 1524 0
-1576 -1572 1525 0
-1573 1525 0
-1576 -1573 1526 0
-1574 1526 0
-1576 -1574 0
-1568 1524 0
-1576 -1568 1525 0
-1569 1525 0
-1576 -1569 1526 0
-1570 1526 0
-1576 -1570 0
-1568 -1572 1525 0
-1576 -1568 -1572 1526 0
-1568 -1573 1526 0
-1576 -1568 -1573 0
-1568 -1574 0
-1576 -1568 -1574 0
-1569 -1572 1526 0
-1576 -1569 -1572 0
-1569 -1573 0
-1576 -1569 -1573 0
-1569 -1574 0
-1576 -1569 -1574 0
-1570 -1572 0
-1576 -1570 -1572 0
-1570 -1573 0
-1576 -1570 -1573 0
-1570 -1574 0
-1576 -1570 -1574 0
-1580 1575 1581 0
-1578 1575 1581 0
-1578 -1580 1581 0
-1581 1572 0
-1579 1572 0
-1581 -1579 1573 0
-1577 1572 0
-1581 -1577 1573 0
-1577 -1579 1573 0
-1581 -1577 -1579 1574 0
-63 1580 1584 0
-1583 1580 1584 0
-1583 -63 1584 0
-1584 1579 0
-1582 1579 0
-1584 -1582 0
-62 1583 1585 0
-61 1583 1585 0
-61 -62 1585 0
-1585 1582 0
-60 1578 1588 0
-1587 1578 1588 0
-1587 -60 1588 0
-1588 1577 0
-1586 1577 0
-1588 -1586 0
-59 1587 1589 0
-58 1587 1589 0
-58 -59 1589 0
-1589 1586 0
-1594 1571 1595 0
-1592 1571 1595 0
-1592 -1594 1595 0
-1595 1568 0
-1593 1568 0
-1595 -1593 1569 0
-1590 1568 0
-1595 -1590 1569 0
-1591 1569 0
-1595 -1591 1570 0
-1590 -1593 1569 0
-1595 -1590 -1593 1570 0
-1591 -1593 1570 0
-1595 -1591 -1593 0
-57 1594 1598 0
-1597 1594 1598 0
-1597 -57 1598 0
-1598 1593 0
-1596 1593 0
-1598 -1596 0
-56 1597 1599 0
-55 1597 1599 0
-55 -56 1599 0
-1599 1596 0
-1603 1592 1604 0
-1601 1592 1604 0
-1601 -1603 1604 0
-1604 1590 0
-1602 1590 0
-1604 -1602 1591 0
-1600 1590 0
-1604 -1600 1591 0
-1600 -1602 1591 0
-1604 -1600 -1602 0
-54 1603 1605 0
-53 1603 1605 0
-53 -54 1605 0
-1605 1602 0
-52 1601 1606 0
-51 1601 1606 0
-51 -52 1606 0
-1606 1600 0
-1614 1426 1615 0
-1610 1426 1615 0
-1610 -1614 1615 0
-1615 1423 0
-1611 1423 0
-1615 -1611 1424 0
-1612 1424 0
-1615 -1612 1425 0
-1613 1425 0
-1615 -1613 0
-1607 1423 0
-1615 -1607 1424 0
-1608 1424 0
-1615 -1608 1425 0
-1609 1425 0
-1615 -1609 0
-1607 -1611 1424 0
-1615 -1607 -1611 1425 0
-1607 -1612 1425 0
-1615 -1607 -1612 0
-1607 -1613 0
-1615 -1607 -1613 0
-1608 -1611 1425 0
-1615 -1608 -1611 0
-1608 -1612 0
-1615 -1608 -1612 0
-1608 -1613 0
-1615 -1608 -1613 0
-1609 -1611 0
-1615 -1609 -1611 0
-1609 -1612 0
-1615 -1609 -1612 0
-1609 -1613 0
-1615 -1609 -1613 0
-1623 1614 1624 0
-1619 1614 1624 0
-1619 -1623 1624 0
-1624 1611 0
-1620 1611 0
-1624 -1620 1612 0
-1621 1612 0
-1624 -1621 1613 0
-1622 1613 0
-1624 -1622 0
-1616 1611 0
-1624 -1616 1612 0
-1617 1612 0
-1624 -1617 1613 0
-1618 1613 0
-1624 -1618 0
-1616 -1620 1612 0
-1624 -1616 -1620 1613 0
-1616 -1621 1613 0
-1624 -1616 -1621 0
-1616 -1622 0
-1624 -1616 -1622 0
-1617 -1620 1613 0
-1624 -1617 -1620 0
-1617 -1621 0
-1624 -1617 -1621 0
-1617 -1622 0
-1624 -1617 -1622 0
-1618 -1620 0
-1624 -1618 -1620 0
-1618 -1621 0
-1624 -1618 -1621 0
-1618 -1622 0
-1624 -1618 -1622 0
-1632 1623 1633 0
-1628 1623 1633 0
-1628 -1632 1633 0
-1633 1620 0
-1629 1620 0
-1633 -1629 1621 0
-1630 1621 0
-1633 -1630 1622 0
-1631 1622 0
-1633 -1631 0
-1625 1620 0
-1633 -1625 1621 0
-1626 1621 0
-1633 -1626 1622 0
-1627 1622 0
-1633 -1627 0
-1625 -1629 1621 0
-1633 -1625 -1629 1622 0
-1625 -1630 1622 0
-1633 -1625 -1630 0
-1625 -1631 0
-1633 -1625 -1631 0
-1626 -1629 1622 0
-1633 -1626 -1629 0
-1626 -1630 0
-1633 -1626 -1630 0
-1626 -1631 0
-1633 -1626 -1631 0
-1627 -1629 0
-1633 -1627 -1629 0
-1627 -1630 0
-1633 -1627 -1630 0
-1627 -1631 0
-1633 -1627 -1631 0
-1637 1632 1638 0
-1635 1632 1638 0
-1635 -1637 1638 0
-1638 1629 0
-1636 1629 0
-1638 -1636 1630 0
-1634 1629 0
-1638 -1634 1630 0
-1634 -1636 1630 0
-1638 -1634 -1636 1631 0
-50 1637 1641 0
-1640 1637 1641 0
-1640 -50 1641 0
-1641 1636 0
-1639 1636 0
-1641 -1639 0
-49 1640 1642 0
-48 1640 1642 0
-48 -49 1642 0
-1642 1639 0
-47 1635 1645 0
-1644 1635 1645 0
-1644 -47 1645 0
-1645 1634 0
-1643 1634 0
-1645 -1643 0
-46 1644 1646 0
-45 1644 1646 0
-45 -46 1646 0
-1646 1643 0
-1650 1628 1651 0
-1648 1628 1651 0
-1648 -1650 1651 0
-1651 1625 0
-1649 1625 0
-1651 -1649 1626 0
-1647 1625 0
-1651 -1647 1626 0
-1647 -1649 1626 0
-1651 -1647 -1649 1627 0
-44 1650 1654 0
-1653 1650 1654 0
-1653 -44 1654 0
-1654 1649 0
-1652 1649 0
-1654 -1652 0
-43 1653 1655 0
-42 1653 1655 0
-42 -43 1655 0
-1655 1652 0
-41 1648 1658 0
-1657 1648 1658 0
-1657 -41 1658 0
-1658 1647 0
-1656 1647 0
-1658 -1656 0
-40 1657 1659 0
-39 1657 1659 0
-39 -40 1659 0
-1659 1656 0
-1667 1619 1668 0
-1663 1619 1668 0
-1663 -1667 1668 0
-1668 1616 0
-1664 1616 0
-1668 -1664 1617 0
-1665 1617 0
-1668 -1665 1618 0
-1666 1618 0
-1668 -1666 0
-1660 1616 0
-1668 -1660 1617 0
-1661 1617 0
-1668 -1661 1618 0
-1662 1618 0
-1668 -1662 0
-1660 -1664 1617 0
-1668 -1660 -1664 1618 0
-1660 -1665 1618 0
-1668 -1660 -1665 0
-1660 -1666 0
-1668 -1660 -1666 0
-1661 -1664 1618 0
-1668 -1661 -1664 0
-1661 -1665 0
-1668 -1661 -1665 0
-1661 -1666 0
-1668 -1661 -1666 0
-1662 -1664 0
-1668 -1662 -1664 0
-1662 -1665 0
-1668 -1662 -1665 0
-1662 -1666 0
-1668 -1662 -1666 0
-1672 1667 1673 0
-1670 1667 1673 0
-1670 -1672 1673 0
-1673 1664 0
-1671 1664 0
-1673 -1671 1665 0
-1669 1664 0
-1673 -1669 1665 0
-1669 -1671 1665 0
-1673 -1669 -1671 1666 0
-38 1672 1676 0
-1675 1672 1676 0
-1675 -38 1676 0
-1676 1671 0
-1674 1671 0
-1676 -1674 0
-37 1675 1677 0
-36 1675 1677 0
-36 -37 1677 0
-1677 1674 0
-35 1670 1680 0
-1679 1670 1680 0
-1679 -35 1680 0
-1680 1669 0
-1678 1669 0
-1680 -1678 0
-34 1679 1681 0
-33 1679 1681 0
-33 -34 1681 0
-1681 1678 0
-1686 1663 1687 0
-1684 1663 1687 0
-1684 -1686 1687 0
-1687 1660 0
-1685 1660 0
-1687 -1685 1661 0
-1682 1660 0
-1687 -1682 1661 0
-1683 1661 0
-1687 -1683 1662 0
-1682 -1685 1661 0
-1687 -1682 -1685 1662 0
-1683 -1685 1662 0
-1687 -1683 -1685 0
-32 1686 1690 0
-1689 1686 1690 0
-1689 -32 1690 0
-1690 1685 0
-1688 1685 0
-1690 -1688 0
-31 1689 1691 0
-30 1689 1691 0
-30 -31 1691 0
-1691 1688 0
-1695 1684 1696 0
-1693 1684 1696 0
-1693 -1695 1696 0
-1696 1682 0
-1694 1682 0
-1696 -1694 1683 0
-1692 1682 0
-1696 -1692 1683 0
-1692 -1694 1683 0
-1696 -1692 -1694 0
-29 1695 1697 0
-28 1695 1697 0
-28 -29 1697 0
-1697 1694 0
-27 1693 1698 0
-26 1693 1698 0
-26 -27 1698 0
-1698 1692 0
-1706 1610 1707 0
-1702 1610 1707 0
-1702 -1706 1707 0
-1707 1607 0
-1703 1607 0
-1707 -1703 1608 0
-1704 1608 0
-1707 -1704 1609 0
-1705 1609 0
-1707 -1705 0
-1699 1607 0
-1707 -1699 1608 0
-1700 1608 0
-1707 -1700 1609 0
-1701 1609 0
-1707 -1701 0
-1699 -1703 1608 0
-1707 -1699 -1703 1609 0
-1699 -1704 1609 0
-1707 -1699 -1704 0
-1699 -1705 0
-1707 -1699 -1705 0
-1700 -1703 1609 0
-1707 -1700 -1703 0
-1700 -1704 0
-1707 -1700 -1704 0
-1700 -1705 0
-1707 -1700 -1705 0
-1701 -1703 0
-1707 -1701 -1703 0
-1701 -1704 0
-1707 -1701 -1704 0
-1701 -1705 0
-1707 -1701 -1705 0
-1715 1706 1716 0
-1711 1706 1716 0
-1711 -1715 1716 0
-1716 1703 0
-1712 1703 0
-1716 -1712 1704 0
-1713 1704 0
-1716 -1713 1705 0
-1714 1705 0
-1716 -1714 0
-1708 1703 0
-1716 -1708 1704 0
-1709 1704 0
-1716 -1709 1705 0
-1710 1705 0
-1716 -1710 0
-1708 -1712 1704 0
-1716 -1708 -1712 1705 0
-1708 -1713 1705 0
-1716 -1708 -1713 0
-1708 -1714 0
-1716 -1708 -1714 0
-1709 -1712 1705 0
-1716 -1709 -1712 0
-1709 -1713 0
-1716 -1709 -1713 0
-1709 -1714 0
-1716 -1709 -1714 0
-1710 -1712 0
-1716 -1710 -1712 0
-1710 -1713 0
-1716 -1710 -1713 0
-1710 -1714 0
-1716 -1710 -1714 0
-1720 1715 1721 0
-1718 1715 1721 0
-1718 -1720 1721 0
-1721 1712 0
-1719 1712 0
-1721 -1719 1713 0
-1717 1712 0
-1721 -1717 1713 0
-1717 -1719 1713 0
-1721 -1717 -1719 1714 0
-25 1720 1724 0
-1723 1720 1724 0
-1723 -25 1724 0
-1724 1719 0
-1722 1719 0
-1724 -1722 0
-24 1723 1725 0
-23 1723 1725 0
-23 -24 1725 0
-1725 1722 0
-22 1718 1728 0
-1727 1718 1728 0
-1727 -22 1728 0
-1728 1717 0
-1726 1717 0
-1728 -1726 0
-21 1727 1729 0
-20 1727 1729 0
-20 -21 1729 0
-1729 1726 0
-1733 1711 1734 0
-1731 1711 1734 0
-1731 -1733 1734 0
-1734 1708 0
-1732 1708 0
-1734 -1732 1709 0
-1730 1708 0
-1734 -1730 1709 0
-1730 -1732 1709 0
-1734 -1730 -1732 1710 0
-19 1733 1737 0
-1736 1733 1737 0
-1736 -19 1737 0
-1737 1732 0
-1735 1732 0
-1737 -1735 0
-18 1736 1738 0
-17 1736 1738 0
-17 -18 1738 0
-1738 1735 0
-16 1731 1741 0
-1740 1731 1741 0
-1740 -16 1741 0
-1741 1730 0
-1739 1730 0
-1741 -1739 0
-15 1740 1742 0
-14 1740 1742 0
-14 -15 1742 0
-1742 1739 0
-1750 1702 1751 0
-1746 1702 1751 0
-1746 -1750 1751 0
-1751 1699 0
-1747 1699 0
-1751 -1747 1700 0
-1748 1700 0
-1751 -1748 1701 0
-1749 1701 0
-1751 -1749 0
-1743 1699 0
-1751 -1743 1700 0
-1744 1700 0
-1751 -1744 1701 0
-1745 1701 0
-1751 -1745 0
-1743 -1747 1700 0
-1751 -1743 -1747 1701 0
-1743 -1748 1701 0
-1751 -1743 -1748 0
-1743 -1749 0
-1751 -1743 -1749 0
-1744 -1747 1701 0
-1751 -1744 -1747 0
-1744 -1748 0
-1751 -1744 -1748 0
-1744 -1749 0
-1751 -1744 -1749 0
-1745 -1747 0
-1751 -1745 -1747 0
-1745 -1748 0
-1751 -1745 -1748 0
-1745 -1749 0
-1751 -1745 -1749 0
-1755 1750 1756 0
-1753 1750 1756 0
-1753 -1755 1756 0
-1756 1747 0
-1754 1747 0
-1756 -1754 1748 0
-1752 1747 0
-1756 -1752 1748 0
-1752 -1754 1748 0
-1756 -1752 -1754 1749 0
-13 1755 1759 0
-1758 1755 1759 0
-1758 -13 1759 0
-1759 1754 0
-1757 1754 0
-1759 -1757 0
-12 1758 1760 0
-11 1758 1760 0
-11 -12 1760 0
-1760 1757 0
-10 1753 1763 0
-1762 1753 1763 0
-1762 -10 1763 0
-1763 1752 0
-1761 1752 0
-1763 -1761 0
-9 1762 1764 0
-8 1762 1764 0
-8 -9 1764 0
-1764 1761 0
-1769 1746 1770 0
-1767 1746 1770 0
-1767 -1769 1770 0
-1770 1743 0
-1768 1743 0
-1770 -1768 1744 0
-1765 1743 0
-1770 -1765 1744 0
-1766 1744 0
-1770 -1766 1745 0
-1765 -1768 1744 0
-1770 -1765 -1768 1745 0
-1766 -1768 1745 0
-1770 -1766 -1768 0
-7 1769 1773 0
-1772 1769 1773 0
-1772 -7 1773 0
-1773 1768 0
-1771 1768 0
-1773 -1771 0
-6 1772 1774 0
-5 1772 1774 0
-5 -6 1774 0
-1774 1771 0
-1778 1767 1779 0
-1776 1767 1779 0
-1776 -1778 1779 0
-1779 1765 0
-1777 1765 0
-1779 -1777 1766 0
-1775 1765 0
-1779 -1775 1766 0
-1775 -1777 1766 0
-1779 -1775 -1777 0
-4 1778 1780 0
-3 1778 1780 0
-3 -4 1780 0
-1780 1777 0
-2 1776 1781 0
-1 1776 1781 0
-1 -2 1781 0
-1781 1775 0
-1053 -1054 0
