p cnf 1905 5926
1 96 -201 0
-1 -96 -201 0
1 -96 201 0
-1 96 201 0
201 97 -202 0
-201 -97 -202 0
201 -97 202 0
-201 97 202 0
202 100 -203 0
-202 -100 -203 0
202 -100 203 0
-202 100 203 0
203 101 -204 0
-203 -101 -204 0
203 -101 204 0
-203 101 204 0
204 181 -205 0
-204 -181 -205 0
204 -181 205 0
-204 181 205 0
205 189 -206 0
-205 -189 -206 0
205 -189 206 0
-205 189 206 0
206 193 -207 0
-206 -193 -207 0
206 -193 207 0
-206 193 207 0
-207 0
1 2 -208 0
-1 -2 -208 0
1 -2 208 0
-1 2 208 0
208 97 -209 0
-208 -97 -209 0
208 -97 209 0
-208 97 209 0
209 98 -210 0
-209 -98 -210 0
209 -98 210 0
-209 98 210 0
210 102 -211 0
-210 -102 -211 0
210 -102 211 0
-210 102 211 0
211 182 -212 0
-211 -182 -212 0
211 -182 212 0
-211 182 212 0
212 190 -213 0
-212 -190 -213 0
212 -190 213 0
-212 190 213 0
213 194 -214 0
-213 -194 -214 0
213 -194 214 0
-213 194 214 0
-214 0
2 3 -215 0
-2 -3 -215 0
2 -3 215 0
-2 3 215 0
215 98 -216 0
-215 -98 -216 0
215 -98 216 0
-215 98 216 0
216 99 -217 0
-216 -99 -217 0
216 -99 217 0
-216 99 217 0
217 103 -218 0
-217 -103 -218 0
217 -103 218 0
-217 103 218 0
218 183 -219 0
-218 -183 -219 0
218 -183 219 0
-218 183 219 0
219 191 -220 0
-219 -191 -220 0
219 -191 220 0
-219 191 220 0
220 195 -221 0
-220 -195 -221 0
220 -195 221 0
-220 195 221 0
-221 0
3 4 -222 0
-3 -4 -222 0
3 -4 222 0
-3 4 222 0
222 99 -223 0
-222 -99 -223 0
222 -99 223 0
-222 99 223 0
223 100 -224 0
-223 -100 -224 0
223 -100 224 0
-223 100 224 0
224 104 -225 0
-224 -104 -225 0
224 -104 225 0
-224 104 225 0
225 184 -226 0
-225 -184 -226 0
225 -184 226 0
-225 184 226 0
226 192 -227 0
-226 -192 -227 0
226 -192 227 0
-226 192 227 0
227 196 -228 0
-227 -196 -228 0
227 -196 228 0
-227 196 228 0
-228 0
1 4 -229 0
-1 -4 -229 0
1 -4 229 0
-1 4 229 0
229 5 -230 0
-229 -5 -230 0
229 -5 230 0
-229 5 230 0
230 100 -231 0
-230 -100 -231 0
230 -100 231 0
-230 100 231 0
231 105 -232 0
-231 -105 -232 0
231 -105 232 0
-231 105 232 0
232 185 -233 0
-232 -185 -233 0
232 -185 233 0
-232 185 233 0
233 193 -234 0
-233 -193 -234 0
233 -193 234 0
-233 193 234 0
234 197 -235 0
-234 -197 -235 0
234 -197 235 0
-234 197 235 0
-235 0
1 2 -236 0
-1 -2 -236 0
1 -2 236 0
-1 2 236 0
236 5 -237 0
-236 -5 -237 0
236 -5 237 0
-236 5 237 0
237 6 -238 0
-237 -6 -238 0
237 -6 238 0
-237 6 238 0
238 106 -239 0
-238 -106 -239 0
238 -106 239 0
-238 106 239 0
239 186 -240 0
-239 -186 -240 0
239 -186 240 0
-239 186 240 0
240 194 -241 0
-240 -194 -241 0
240 -194 241 0
-240 194 241 0
241 198 -242 0
-241 -198 -242 0
241 -198 242 0
-241 198 242 0
-242 0
2 3 -243 0
-2 -3 -243 0
2 -3 243 0
-2 3 243 0
243 6 -244 0
-243 -6 -244 0
243 -6 244 0
-243 6 244 0
244 7 -245 0
-244 -7 -245 0
244 -7 245 0
-244 7 245 0
245 107 -246 0
-245 -107 -246 0
245 -107 246 0
-245 107 246 0
246 187 -247 0
-246 -187 -247 0
246 -187 247 0
-246 187 247 0
247 195 -248 0
-247 -195 -248 0
247 -195 248 0
-247 195 248 0
248 199 -249 0
-248 -199 -249 0
248 -199 249 0
-248 199 249 0
-249 0
3 4 -250 0
-3 -4 -250 0
3 -4 250 0
-3 4 250 0
250 7 -251 0
-250 -7 -251 0
250 -7 251 0
-250 7 251 0
251 8 -252 0
-251 -8 -252 0
251 -8 252 0
-251 8 252 0
252 108 -253 0
-252 -108 -253 0
252 -108 253 0
-252 108 253 0
253 188 -254 0
-253 -188 -254 0
253 -188 254 0
-253 188 254 0
254 196 -255 0
-254 -196 -255 0
254 -196 255 0
-254 196 255 0
255 200 -256 0
-255 -200 -256 0
255 -200 256 0
-255 200 256 0
-256 0
4 5 -257 0
-4 -5 -257 0
4 -5 257 0
-4 5 257 0
257 8 -258 0
-257 -8 -258 0
257 -8 258 0
-257 8 258 0
258 9 -259 0
-258 -9 -259 0
258 -9 259 0
-258 9 259 0
259 101 -260 0
-259 -101 -260 0
259 -101 260 0
-259 101 260 0
260 109 -261 0
-260 -109 -261 0
260 -109 261 0
-260 109 261 0
261 189 -262 0
-261 -189 -262 0
261 -189 262 0
-261 189 262 0
262 197 -263 0
-262 -197 -263 0
262 -197 263 0
-262 197 263 0
-263 0
5 6 -264 0
-5 -6 -264 0
5 -6 264 0
-5 6 264 0
264 9 -265 0
-264 -9 -265 0
264 -9 265 0
-264 9 265 0
265 10 -266 0
-265 -10 -266 0
265 -10 266 0
-265 10 266 0
266 102 -267 0
-266 -102 -267 0
266 -102 267 0
-266 102 267 0
267 110 -268 0
-267 -110 -268 0
267 -110 268 0
-267 110 268 0
268 190 -269 0
-268 -190 -269 0
268 -190 269 0
-268 190 269 0
269 198 -270 0
-269 -198 -270 0
269 -198 270 0
-269 198 270 0
-270 0
6 7 -271 0
-6 -7 -271 0
6 -7 271 0
-6 7 271 0
271 10 -272 0
-271 -10 -272 0
271 -10 272 0
-271 10 272 0
272 11 -273 0
-272 -11 -273 0
272 -11 273 0
-272 11 273 0
273 103 -274 0
-273 -103 -274 0
273 -103 274 0
-273 103 274 0
274 111 -275 0
-274 -111 -275 0
274 -111 275 0
-274 111 275 0
275 191 -276 0
-275 -191 -276 0
275 -191 276 0
-275 191 276 0
276 199 -277 0
-276 -199 -277 0
276 -199 277 0
-276 199 277 0
-277 0
7 8 -278 0
-7 -8 -278 0
7 -8 278 0
-7 8 278 0
278 11 -279 0
-278 -11 -279 0
278 -11 279 0
-278 11 279 0
279 12 -280 0
-279 -12 -280 0
279 -12 280 0
-279 12 280 0
280 104 -281 0
-280 -104 -281 0
280 -104 281 0
-280 104 281 0
281 112 -282 0
-281 -112 -282 0
281 -112 282 0
-281 112 282 0
282 192 -283 0
-282 -192 -283 0
282 -192 283 0
-282 192 283 0
283 200 -284 0
-283 -200 -284 0
283 -200 284 0
-283 200 284 0
-284 0
8 9 -285 0
-8 -9 -285 0
8 -9 285 0
-8 9 285 0
285 12 -286 0
-285 -12 -286 0
285 -12 286 0
-285 12 286 0
286 13 -287 0
-286 -13 -287 0
286 -13 287 0
-286 13 287 0
287 101 -288 0
-287 -101 -288 0
287 -101 288 0
-287 101 288 0
288 105 -289 0
-288 -105 -289 0
288 -105 289 0
-288 105 289 0
289 113 -290 0
-289 -113 -290 0
289 -113 290 0
-289 113 290 0
290 193 -291 0
-290 -193 -291 0
290 -193 291 0
-290 193 291 0
-291 0
9 10 -292 0
-9 -10 -292 0
9 -10 292 0
-9 10 292 0
292 13 -293 0
-292 -13 -293 0
292 -13 293 0
-292 13 293 0
293 14 -294 0
-293 -14 -294 0
293 -14 294 0
-293 14 294 0
294 102 -295 0
-294 -102 -295 0
294 -102 295 0
-294 102 295 0
295 106 -296 0
-295 -106 -296 0
295 -106 296 0
-295 106 296 0
296 114 -297 0
-296 -114 -297 0
296 -114 297 0
-296 114 297 0
297 194 -298 0
-297 -194 -298 0
297 -194 298 0
-297 194 298 0
-298 0
10 11 -299 0
-10 -11 -299 0
10 -11 299 0
-10 11 299 0
299 14 -300 0
-299 -14 -300 0
299 -14 300 0
-299 14 300 0
300 15 -301 0
-300 -15 -301 0
300 -15 301 0
-300 15 301 0
301 103 -302 0
-301 -103 -302 0
301 -103 302 0
-301 103 302 0
302 107 -303 0
-302 -107 -303 0
302 -107 303 0
-302 107 303 0
303 115 -304 0
-303 -115 -304 0
303 -115 304 0
-303 115 304 0
304 195 -305 0
-304 -195 -305 0
304 -195 305 0
-304 195 305 0
-305 0
11 12 -306 0
-11 -12 -306 0
11 -12 306 0
-11 12 306 0
306 15 -307 0
-306 -15 -307 0
306 -15 307 0
-306 15 307 0
307 16 -308 0
-307 -16 -308 0
307 -16 308 0
-307 16 308 0
308 104 -309 0
-308 -104 -309 0
308 -104 309 0
-308 104 309 0
309 108 -310 0
-309 -108 -310 0
309 -108 310 0
-309 108 310 0
310 116 -311 0
-310 -116 -311 0
310 -116 311 0
-310 116 311 0
311 196 -312 0
-311 -196 -312 0
311 -196 312 0
-311 196 312 0
-312 0
12 13 -313 0
-12 -13 -313 0
12 -13 313 0
-12 13 313 0
313 16 -314 0
-313 -16 -314 0
313 -16 314 0
-313 16 314 0
314 17 -315 0
-314 -17 -315 0
314 -17 315 0
-314 17 315 0
315 105 -316 0
-315 -105 -316 0
315 -105 316 0
-315 105 316 0
316 109 -317 0
-316 -109 -317 0
316 -109 317 0
-316 109 317 0
317 117 -318 0
-317 -117 -318 0
317 -117 318 0
-317 117 318 0
318 197 -319 0
-318 -197 -319 0
318 -197 319 0
-318 197 319 0
-319 0
13 14 -320 0
-13 -14 -320 0
13 -14 320 0
-13 14 320 0
320 17 -321 0
-320 -17 -321 0
320 -17 321 0
-320 17 321 0
321 18 -322 0
-321 -18 -322 0
321 -18 322 0
-321 18 322 0
322 106 -323 0
-322 -106 -323 0
322 -106 323 0
-322 106 323 0
323 110 -324 0
-323 -110 -324 0
323 -110 324 0
-323 110 324 0
324 118 -325 0
-324 -118 -325 0
324 -118 325 0
-324 118 325 0
325 198 -326 0
-325 -198 -326 0
325 -198 326 0
-325 198 326 0
-326 0
14 15 -327 0
-14 -15 -327 0
14 -15 327 0
-14 15 327 0
327 18 -328 0
-327 -18 -328 0
327 -18 328 0
-327 18 328 0
328 19 -329 0
-328 -19 -329 0
328 -19 329 0
-328 19 329 0
329 107 -330 0
-329 -107 -330 0
329 -107 330 0
-329 107 330 0
330 111 -331 0
-330 -111 -331 0
330 -111 331 0
-330 111 331 0
331 119 -332 0
-331 -119 -332 0
331 -119 332 0
-331 119 332 0
332 199 -333 0
-332 -199 -333 0
332 -199 333 0
-332 199 333 0
-333 0
15 16 -334 0
-15 -16 -334 0
15 -16 334 0
-15 16 334 0
334 19 -335 0
-334 -19 -335 0
334 -19 335 0
-334 19 335 0
335 20 -336 0
-335 -20 -336 0
335 -20 336 0
-335 20 336 0
336 108 -337 0
-336 -108 -337 0
336 -108 337 0
-336 108 337 0
337 112 -338 0
-337 -112 -338 0
337 -112 338 0
-337 112 338 0
338 120 -339 0
-338 -120 -339 0
338 -120 339 0
-338 120 339 0
339 200 -340 0
-339 -200 -340 0
339 -200 340 0
-339 200 340 0
-340 0
16 17 -341 0
-16 -17 -341 0
16 -17 341 0
-16 17 341 0
341 20 -342 0
-341 -20 -342 0
341 -20 342 0
-341 20 342 0
342 21 -343 0
-342 -21 -343 0
342 -21 343 0
-342 21 343 0
343 101 -344 0
-343 -101 -344 0
343 -101 344 0
-343 101 344 0
344 109 -345 0
-344 -109 -345 0
344 -109 345 0
-344 109 345 0
345 113 -346 0
-345 -113 -346 0
345 -113 346 0
-345 113 346 0
346 121 -347 0
-346 -121 -347 0
346 -121 347 0
-346 121 347 0
-347 0
17 18 -348 0
-17 -18 -348 0
17 -18 348 0
-17 18 348 0
348 21 -349 0
-348 -21 -349 0
348 -21 349 0
-348 21 349 0
349 22 -350 0
-349 -22 -350 0
349 -22 350 0
-349 22 350 0
350 102 -351 0
-350 -102 -351 0
350 -102 351 0
-350 102 351 0
351 110 -352 0
-351 -110 -352 0
351 -110 352 0
-351 110 352 0
352 114 -353 0
-352 -114 -353 0
352 -114 353 0
-352 114 353 0
353 122 -354 0
-353 -122 -354 0
353 -122 354 0
-353 122 354 0
-354 0
18 19 -355 0
-18 -19 -355 0
18 -19 355 0
-18 19 355 0
355 22 -356 0
-355 -22 -356 0
355 -22 356 0
-355 22 356 0
356 23 -357 0
-356 -23 -357 0
356 -23 357 0
-356 23 357 0
357 103 -358 0
-357 -103 -358 0
357 -103 358 0
-357 103 358 0
358 111 -359 0
-358 -111 -359 0
358 -111 359 0
-358 111 359 0
359 115 -360 0
-359 -115 -360 0
359 -115 360 0
-359 115 360 0
360 123 -361 0
-360 -123 -361 0
360 -123 361 0
-360 123 361 0
-361 0
19 20 -362 0
-19 -20 -362 0
19 -20 362 0
-19 20 362 0
362 23 -363 0
-362 -23 -363 0
362 -23 363 0
-362 23 363 0
363 24 -364 0
-363 -24 -364 0
363 -24 364 0
-363 24 364 0
364 104 -365 0
-364 -104 -365 0
364 -104 365 0
-364 104 365 0
365 112 -366 0
-365 -112 -366 0
365 -112 366 0
-365 112 366 0
366 116 -367 0
-366 -116 -367 0
366 -116 367 0
-366 116 367 0
367 124 -368 0
-367 -124 -368 0
367 -124 368 0
-367 124 368 0
-368 0
20 21 -369 0
-20 -21 -369 0
20 -21 369 0
-20 21 369 0
369 24 -370 0
-369 -24 -370 0
369 -24 370 0
-369 24 370 0
370 25 -371 0
-370 -25 -371 0
370 -25 371 0
-370 25 371 0
371 105 -372 0
-371 -105 -372 0
371 -105 372 0
-371 105 372 0
372 113 -373 0
-372 -113 -373 0
372 -113 373 0
-372 113 373 0
373 117 -374 0
-373 -117 -374 0
373 -117 374 0
-373 117 374 0
374 125 -375 0
-374 -125 -375 0
374 -125 375 0
-374 125 375 0
-375 0
21 22 -376 0
-21 -22 -376 0
21 -22 376 0
-21 22 376 0
376 25 -377 0
-376 -25 -377 0
376 -25 377 0
-376 25 377 0
377 26 -378 0
-377 -26 -378 0
377 -26 378 0
-377 26 378 0
378 106 -379 0
-378 -106 -379 0
378 -106 379 0
-378 106 379 0
379 114 -380 0
-379 -114 -380 0
379 -114 380 0
-379 114 380 0
380 118 -381 0
-380 -118 -381 0
380 -118 381 0
-380 118 381 0
381 126 -382 0
-381 -126 -382 0
381 -126 382 0
-381 126 382 0
-382 0
22 23 -383 0
-22 -23 -383 0
22 -23 383 0
-22 23 383 0
383 26 -384 0
-383 -26 -384 0
383 -26 384 0
-383 26 384 0
384 27 -385 0
-384 -27 -385 0
384 -27 385 0
-384 27 385 0
385 107 -386 0
-385 -107 -386 0
385 -107 386 0
-385 107 386 0
386 115 -387 0
-386 -115 -387 0
386 -115 387 0
-386 115 387 0
387 119 -388 0
-387 -119 -388 0
387 -119 388 0
-387 119 388 0
388 127 -389 0
-388 -127 -389 0
388 -127 389 0
-388 127 389 0
-389 0
23 24 -390 0
-23 -24 -390 0
23 -24 390 0
-23 24 390 0
390 27 -391 0
-390 -27 -391 0
390 -27 391 0
-390 27 391 0
391 28 -392 0
-391 -28 -392 0
391 -28 392 0
-391 28 392 0
392 108 -393 0
-392 -108 -393 0
392 -108 393 0
-392 108 393 0
393 116 -394 0
-393 -116 -394 0
393 -116 394 0
-393 116 394 0
394 120 -395 0
-394 -120 -395 0
394 -120 395 0
-394 120 395 0
395 128 -396 0
-395 -128 -396 0
395 -128 396 0
-395 128 396 0
-396 0
24 25 -397 0
-24 -25 -397 0
24 -25 397 0
-24 25 397 0
397 28 -398 0
-397 -28 -398 0
397 -28 398 0
-397 28 398 0
398 29 -399 0
-398 -29 -399 0
398 -29 399 0
-398 29 399 0
399 109 -400 0
-399 -109 -400 0
399 -109 400 0
-399 109 400 0
400 117 -401 0
-400 -117 -401 0
400 -117 401 0
-400 117 401 0
401 121 -402 0
-401 -121 -402 0
401 -121 402 0
-401 121 402 0
402 129 -403 0
-402 -129 -403 0
402 -129 403 0
-402 129 403 0
-403 0
25 26 -404 0
-25 -26 -404 0
25 -26 404 0
-25 26 404 0
404 29 -405 0
-404 -29 -405 0
404 -29 405 0
-404 29 405 0
405 30 -406 0
-405 -30 -406 0
405 -30 406 0
-405 30 406 0
406 110 -407 0
-406 -110 -407 0
406 -110 407 0
-406 110 407 0
407 118 -408 0
-407 -118 -408 0
407 -118 408 0
-407 118 408 0
408 122 -409 0
-408 -122 -409 0
408 -122 409 0
-408 122 409 0
409 130 -410 0
-409 -130 -410 0
409 -130 410 0
-409 130 410 0
-410 0
26 27 -411 0
-26 -27 -411 0
26 -27 411 0
-26 27 411 0
411 30 -412 0
-411 -30 -412 0
411 -30 412 0
-411 30 412 0
412 31 -413 0
-412 -31 -413 0
412 -31 413 0
-412 31 413 0
413 111 -414 0
-413 -111 -414 0
413 -111 414 0
-413 111 414 0
414 119 -415 0
-414 -119 -415 0
414 -119 415 0
-414 119 415 0
415 123 -416 0
-415 -123 -416 0
415 -123 416 0
-415 123 416 0
416 131 -417 0
-416 -131 -417 0
416 -131 417 0
-416 131 417 0
-417 0
27 28 -418 0
-27 -28 -418 0
27 -28 418 0
-27 28 418 0
418 31 -419 0
-418 -31 -419 0
418 -31 419 0
-418 31 419 0
419 32 -420 0
-419 -32 -420 0
419 -32 420 0
-419 32 420 0
420 112 -421 0
-420 -112 -421 0
420 -112 421 0
-420 112 421 0
421 120 -422 0
-421 -120 -422 0
421 -120 422 0
-421 120 422 0
422 124 -423 0
-422 -124 -423 0
422 -124 423 0
-422 124 423 0
423 132 -424 0
-423 -132 -424 0
423 -132 424 0
-423 132 424 0
-424 0
28 29 -425 0
-28 -29 -425 0
28 -29 425 0
-28 29 425 0
425 32 -426 0
-425 -32 -426 0
425 -32 426 0
-425 32 426 0
426 33 -427 0
-426 -33 -427 0
426 -33 427 0
-426 33 427 0
427 113 -428 0
-427 -113 -428 0
427 -113 428 0
-427 113 428 0
428 121 -429 0
-428 -121 -429 0
428 -121 429 0
-428 121 429 0
429 125 -430 0
-429 -125 -430 0
429 -125 430 0
-429 125 430 0
430 133 -431 0
-430 -133 -431 0
430 -133 431 0
-430 133 431 0
-431 0
29 30 -432 0
-29 -30 -432 0
29 -30 432 0
-29 30 432 0
432 33 -433 0
-432 -33 -433 0
432 -33 433 0
-432 33 433 0
433 34 -434 0
-433 -34 -434 0
433 -34 434 0
-433 34 434 0
434 114 -435 0
-434 -114 -435 0
434 -114 435 0
-434 114 435 0
435 122 -436 0
-435 -122 -436 0
435 -122 436 0
-435 122 436 0
436 126 -437 0
-436 -126 -437 0
436 -126 437 0
-436 126 437 0
437 134 -438 0
-437 -134 -438 0
437 -134 438 0
-437 134 438 0
-438 0
30 31 -439 0
-30 -31 -439 0
30 -31 439 0
-30 31 439 0
439 34 -440 0
-439 -34 -440 0
439 -34 440 0
-439 34 440 0
440 35 -441 0
-440 -35 -441 0
440 -35 441 0
-440 35 441 0
441 115 -442 0
-441 -115 -442 0
441 -115 442 0
-441 115 442 0
442 123 -443 0
-442 -123 -443 0
442 -123 443 0
-442 123 443 0
443 127 -444 0
-443 -127 -444 0
443 -127 444 0
-443 127 444 0
444 135 -445 0
-444 -135 -445 0
444 -135 445 0
-444 135 445 0
-445 0
31 32 -446 0
-31 -32 -446 0
31 -32 446 0
-31 32 446 0
446 35 -447 0
-446 -35 -447 0
446 -35 447 0
-446 35 447 0
447 36 -448 0
-447 -36 -448 0
447 -36 448 0
-447 36 448 0
448 116 -449 0
-448 -116 -449 0
448 -116 449 0
-448 116 449 0
449 124 -450 0
-449 -124 -450 0
449 -124 450 0
-449 124 450 0
450 128 -451 0
-450 -128 -451 0
450 -128 451 0
-450 128 451 0
451 136 -452 0
-451 -136 -452 0
451 -136 452 0
-451 136 452 0
-452 0
32 33 -453 0
-32 -33 -453 0
32 -33 453 0
-32 33 453 0
453 36 -454 0
-453 -36 -454 0
453 -36 454 0
-453 36 454 0
454 37 -455 0
-454 -37 -455 0
454 -37 455 0
-454 37 455 0
455 117 -456 0
-455 -117 -456 0
455 -117 456 0
-455 117 456 0
456 125 -457 0
-456 -125 -457 0
456 -125 457 0
-456 125 457 0
457 129 -458 0
-457 -129 -458 0
457 -129 458 0
-457 129 458 0
458 137 -459 0
-458 -137 -459 0
458 -137 459 0
-458 137 459 0
-459 0
33 34 -460 0
-33 -34 -460 0
33 -34 460 0
-33 34 460 0
460 37 -461 0
-460 -37 -461 0
460 -37 461 0
-460 37 461 0
461 38 -462 0
-461 -38 -462 0
461 -38 462 0
-461 38 462 0
462 118 -463 0
-462 -118 -463 0
462 -118 463 0
-462 118 463 0
463 126 -464 0
-463 -126 -464 0
463 -126 464 0
-463 126 464 0
464 130 -465 0
-464 -130 -465 0
464 -130 465 0
-464 130 465 0
465 138 -466 0
-465 -138 -466 0
465 -138 466 0
-465 138 466 0
-466 0
34 35 -467 0
-34 -35 -467 0
34 -35 467 0
-34 35 467 0
467 38 -468 0
-467 -38 -468 0
467 -38 468 0
-467 38 468 0
468 39 -469 0
-468 -39 -469 0
468 -39 469 0
-468 39 469 0
469 119 -470 0
-469 -119 -470 0
469 -119 470 0
-469 119 470 0
470 127 -471 0
-470 -127 -471 0
470 -127 471 0
-470 127 471 0
471 131 -472 0
-471 -131 -472 0
471 -131 472 0
-471 131 472 0
472 139 -473 0
-472 -139 -473 0
472 -139 473 0
-472 139 473 0
-473 0
35 36 -474 0
-35 -36 -474 0
35 -36 474 0
-35 36 474 0
474 39 -475 0
-474 -39 -475 0
474 -39 475 0
-474 39 475 0
475 40 -476 0
-475 -40 -476 0
475 -40 476 0
-475 40 476 0
476 120 -477 0
-476 -120 -477 0
476 -120 477 0
-476 120 477 0
477 128 -478 0
-477 -128 -478 0
477 -128 478 0
-477 128 478 0
478 132 -479 0
-478 -132 -479 0
478 -132 479 0
-478 132 479 0
479 140 -480 0
-479 -140 -480 0
479 -140 480 0
-479 140 480 0
-480 0
36 37 -481 0
-36 -37 -481 0
36 -37 481 0
-36 37 481 0
481 40 -482 0
-481 -40 -482 0
481 -40 482 0
-481 40 482 0
482 41 -483 0
-482 -41 -483 0
482 -41 483 0
-482 41 483 0
483 121 -484 0
-483 -121 -484 0
483 -121 484 0
-483 121 484 0
484 129 -485 0
-484 -129 -485 0
484 -129 485 0
-484 129 485 0
485 133 -486 0
-485 -133 -486 0
485 -133 486 0
-485 133 486 0
486 141 -487 0
-486 -141 -487 0
486 -141 487 0
-486 141 487 0
-487 0
37 38 -488 0
-37 -38 -488 0
37 -38 488 0
-37 38 488 0
488 41 -489 0
-488 -41 -489 0
488 -41 489 0
-488 41 489 0
489 42 -490 0
-489 -42 -490 0
489 -42 490 0
-489 42 490 0
490 122 -491 0
-490 -122 -491 0
490 -122 491 0
-490 122 491 0
491 130 -492 0
-491 -130 -492 0
491 -130 492 0
-491 130 492 0
492 134 -493 0
-492 -134 -493 0
492 -134 493 0
-492 134 493 0
493 142 -494 0
-493 -142 -494 0
493 -142 494 0
-493 142 494 0
-494 0
38 39 -495 0
-38 -39 -495 0
38 -39 495 0
-38 39 495 0
495 42 -496 0
-495 -42 -496 0
495 -42 496 0
-495 42 496 0
496 43 -497 0
-496 -43 -497 0
496 -43 497 0
-496 43 497 0
497 123 -498 0
-497 -123 -498 0
497 -123 498 0
-497 123 498 0
498 131 -499 0
-498 -131 -499 0
498 -131 499 0
-498 131 499 0
499 135 -500 0
-499 -135 -500 0
499 -135 500 0
-499 135 500 0
500 143 -501 0
-500 -143 -501 0
500 -143 501 0
-500 143 501 0
-501 0
39 40 -502 0
-39 -40 -502 0
39 -40 502 0
-39 40 502 0
502 43 -503 0
-502 -43 -503 0
502 -43 503 0
-502 43 503 0
503 44 -504 0
-503 -44 -504 0
503 -44 504 0
-503 44 504 0
504 124 -505 0
-504 -124 -505 0
504 -124 505 0
-504 124 505 0
505 132 -506 0
-505 -132 -506 0
505 -132 506 0
-505 132 506 0
506 136 -507 0
-506 -136 -507 0
506 -136 507 0
-506 136 507 0
507 144 -508 0
-507 -144 -508 0
507 -144 508 0
-507 144 508 0
-508 0
40 41 -509 0
-40 -41 -509 0
40 -41 509 0
-40 41 509 0
509 44 -510 0
-509 -44 -510 0
509 -44 510 0
-509 44 510 0
510 45 -511 0
-510 -45 -511 0
510 -45 511 0
-510 45 511 0
511 125 -512 0
-511 -125 -512 0
511 -125 512 0
-511 125 512 0
512 133 -513 0
-512 -133 -513 0
512 -133 513 0
-512 133 513 0
513 137 -514 0
-513 -137 -514 0
513 -137 514 0
-513 137 514 0
514 145 -515 0
-514 -145 -515 0
514 -145 515 0
-514 145 515 0
-515 0
41 42 -516 0
-41 -42 -516 0
41 -42 516 0
-41 42 516 0
516 45 -517 0
-516 -45 -517 0
516 -45 517 0
-516 45 517 0
517 46 -518 0
-517 -46 -518 0
517 -46 518 0
-517 46 518 0
518 126 -519 0
-518 -126 -519 0
518 -126 519 0
-518 126 519 0
519 134 -520 0
-519 -134 -520 0
519 -134 520 0
-519 134 520 0
520 138 -521 0
-520 -138 -521 0
520 -138 521 0
-520 138 521 0
521 146 -522 0
-521 -146 -522 0
521 -146 522 0
-521 146 522 0
-522 0
42 43 -523 0
-42 -43 -523 0
42 -43 523 0
-42 43 523 0
523 46 -524 0
-523 -46 -524 0
523 -46 524 0
-523 46 524 0
524 47 -525 0
-524 -47 -525 0
524 -47 525 0
-524 47 525 0
525 127 -526 0
-525 -127 -526 0
525 -127 526 0
-525 127 526 0
526 135 -527 0
-526 -135 -527 0
526 -135 527 0
-526 135 527 0
527 139 -528 0
-527 -139 -528 0
527 -139 528 0
-527 139 528 0
528 147 -529 0
-528 -147 -529 0
528 -147 529 0
-528 147 529 0
-529 0
43 44 -530 0
-43 -44 -530 0
43 -44 530 0
-43 44 530 0
530 47 -531 0
-530 -47 -531 0
530 -47 531 0
-530 47 531 0
531 48 -532 0
-531 -48 -532 0
531 -48 532 0
-531 48 532 0
532 128 -533 0
-532 -128 -533 0
532 -128 533 0
-532 128 533 0
533 136 -534 0
-533 -136 -534 0
533 -136 534 0
-533 136 534 0
534 140 -535 0
-534 -140 -535 0
534 -140 535 0
-534 140 535 0
535 148 -536 0
-535 -148 -536 0
535 -148 536 0
-535 148 536 0
-536 0
44 45 -537 0
-44 -45 -537 0
44 -45 537 0
-44 45 537 0
537 48 -538 0
-537 -48 -538 0
537 -48 538 0
-537 48 538 0
538 49 -539 0
-538 -49 -539 0
538 -49 539 0
-538 49 539 0
539 129 -540 0
-539 -129 -540 0
539 -129 540 0
-539 129 540 0
540 137 -541 0
-540 -137 -541 0
540 -137 541 0
-540 137 541 0
541 141 -542 0
-541 -141 -542 0
541 -141 542 0
-541 141 542 0
542 149 -543 0
-542 -149 -543 0
542 -149 543 0
-542 149 543 0
-543 0
45 46 -544 0
-45 -46 -544 0
45 -46 544 0
-45 46 544 0
544 49 -545 0
-544 -49 -545 0
544 -49 545 0
-544 49 545 0
545 50 -546 0
-545 -50 -546 0
545 -50 546 0
-545 50 546 0
546 130 -547 0
-546 -130 -547 0
546 -130 547 0
-546 130 547 0
547 138 -548 0
-547 -138 -548 0
547 -138 548 0
-547 138 548 0
548 142 -549 0
-548 -142 -549 0
548 -142 549 0
-548 142 549 0
549 150 -550 0
-549 -150 -550 0
549 -150 550 0
-549 150 550 0
-550 0
46 47 -551 0
-46 -47 -551 0
46 -47 551 0
-46 47 551 0
551 50 -552 0
-551 -50 -552 0
551 -50 552 0
-551 50 552 0
552 51 -553 0
-552 -51 -553 0
552 -51 553 0
-552 51 553 0
553 131 -554 0
-553 -131 -554 0
553 -131 554 0
-553 131 554 0
554 139 -555 0
-554 -139 -555 0
554 -139 555 0
-554 139 555 0
555 143 -556 0
-555 -143 -556 0
555 -143 556 0
-555 143 556 0
556 151 -557 0
-556 -151 -557 0
556 -151 557 0
-556 151 557 0
-557 0
47 48 -558 0
-47 -48 -558 0
47 -48 558 0
-47 48 558 0
558 51 -559 0
-558 -51 -559 0
558 -51 559 0
-558 51 559 0
559 52 -560 0
-559 -52 -560 0
559 -52 560 0
-559 52 560 0
560 132 -561 0
-560 -132 -561 0
560 -132 561 0
-560 132 561 0
561 140 -562 0
-561 -140 -562 0
561 -140 562 0
-561 140 562 0
562 144 -563 0
-562 -144 -563 0
562 -144 563 0
-562 144 563 0
563 152 -564 0
-563 -152 -564 0
563 -152 564 0
-563 152 564 0
-564 0
48 49 -565 0
-48 -49 -565 0
48 -49 565 0
-48 49 565 0
565 52 -566 0
-565 -52 -566 0
565 -52 566 0
-565 52 566 0
566 53 -567 0
-566 -53 -567 0
566 -53 567 0
-566 53 567 0
567 133 -568 0
-567 -133 -568 0
567 -133 568 0
-567 133 568 0
568 141 -569 0
-568 -141 -569 0
568 -141 569 0
-568 141 569 0
569 145 -570 0
-569 -145 -570 0
569 -145 570 0
-569 145 570 0
570 153 -571 0
-570 -153 -571 0
570 -153 571 0
-570 153 571 0
-571 0
49 50 -572 0
-49 -50 -572 0
49 -50 572 0
-49 50 572 0
572 53 -573 0
-572 -53 -573 0
572 -53 573 0
-572 53 573 0
573 54 -574 0
-573 -54 -574 0
573 -54 574 0
-573 54 574 0
574 134 -575 0
-574 -134 -575 0
574 -134 575 0
-574 134 575 0
575 142 -576 0
-575 -142 -576 0
575 -142 576 0
-575 142 576 0
576 146 -577 0
-576 -146 -577 0
576 -146 577 0
-576 146 577 0
577 154 -578 0
-577 -154 -578 0
577 -154 578 0
-577 154 578 0
-578 0
50 51 -579 0
-50 -51 -579 0
50 -51 579 0
-50 51 579 0
579 54 -580 0
-579 -54 -580 0
579 -54 580 0
-579 54 580 0
580 55 -581 0
-580 -55 -581 0
580 -55 581 0
-580 55 581 0
581 135 -582 0
-581 -135 -582 0
581 -135 582 0
-581 135 582 0
582 143 -583 0
-582 -143 -583 0
582 -143 583 0
-582 143 583 0
583 147 -584 0
-583 -147 -584 0
583 -147 584 0
-583 147 584 0
584 155 -585 0
-584 -155 -585 0
584 -155 585 0
-584 155 585 0
-585 0
51 52 -586 0
-51 -52 -586 0
51 -52 586 0
-51 52 586 0
586 55 -587 0
-586 -55 -587 0
586 -55 587 0
-586 55 587 0
587 56 -588 0
-587 -56 -588 0
587 -56 588 0
-587 56 588 0
588 136 -589 0
-588 -136 -589 0
588 -136 589 0
-588 136 589 0
589 144 -590 0
-589 -144 -590 0
589 -144 590 0
-589 144 590 0
590 148 -591 0
-590 -148 -591 0
590 -148 591 0
-590 148 591 0
591 156 -592 0
-591 -156 -592 0
591 -156 592 0
-591 156 592 0
-592 0
52 53 -593 0
-52 -53 -593 0
52 -53 593 0
-52 53 593 0
593 56 -594 0
-593 -56 -594 0
593 -56 594 0
-593 56 594 0
594 57 -595 0
-594 -57 -595 0
594 -57 595 0
-594 57 595 0
595 137 -596 0
-595 -137 -596 0
595 -137 596 0
-595 137 596 0
596 145 -597 0
-596 -145 -597 0
596 -145 597 0
-596 145 597 0
597 149 -598 0
-597 -149 -598 0
597 -149 598 0
-597 149 598 0
598 157 -599 0
-598 -157 -599 0
598 -157 599 0
-598 157 599 0
-599 0
53 54 -600 0
-53 -54 -600 0
53 -54 600 0
-53 54 600 0
600 57 -601 0
-600 -57 -601 0
600 -57 601 0
-600 57 601 0
601 58 -602 0
-601 -58 -602 0
601 -58 602 0
-601 58 602 0
602 138 -603 0
-602 -138 -603 0
602 -138 603 0
-602 138 603 0
603 146 -604 0
-603 -146 -604 0
603 -146 604 0
-603 146 604 0
604 150 -605 0
-604 -150 -605 0
604 -150 605 0
-604 150 605 0
605 158 -606 0
-605 -158 -606 0
605 -158 606 0
-605 158 606 0
-606 0
54 55 -607 0
-54 -55 -607 0
54 -55 607 0
-54 55 607 0
607 58 -608 0
-607 -58 -608 0
607 -58 608 0
-607 58 608 0
608 59 -609 0
-608 -59 -609 0
608 -59 609 0
-608 59 609 0
609 139 -610 0
-609 -139 -610 0
609 -139 610 0
-609 139 610 0
610 147 -611 0
-610 -147 -611 0
610 -147 611 0
-610 147 611 0
611 151 -612 0
-611 -151 -612 0
611 -151 612 0
-611 151 612 0
612 159 -613 0
-612 -159 -613 0
612 -159 613 0
-612 159 613 0
-613 0
55 56 -614 0
-55 -56 -614 0
55 -56 614 0
-55 56 614 0
614 59 -615 0
-614 -59 -615 0
614 -59 615 0
-614 59 615 0
615 60 -616 0
-615 -60 -616 0
615 -60 616 0
-615 60 616 0
616 140 -617 0
-616 -140 -617 0
616 -140 617 0
-616 140 617 0
617 148 -618 0
-617 -148 -618 0
617 -148 618 0
-617 148 618 0
618 152 -619 0
-618 -152 -619 0
618 -152 619 0
-618 152 619 0
619 160 -620 0
-619 -160 -620 0
619 -160 620 0
-619 160 620 0
-620 0
56 57 -621 0
-56 -57 -621 0
56 -57 621 0
-56 57 621 0
621 60 -622 0
-621 -60 -622 0
621 -60 622 0
-621 60 622 0
622 61 -623 0
-622 -61 -623 0
622 -61 623 0
-622 61 623 0
623 141 -624 0
-623 -141 -624 0
623 -141 624 0
-623 141 624 0
624 149 -625 0
-624 -149 -625 0
624 -149 625 0
-624 149 625 0
625 153 -626 0
-625 -153 -626 0
625 -153 626 0
-625 153 626 0
626 161 -627 0
-626 -161 -627 0
626 -161 627 0
-626 161 627 0
-627 0
57 58 -628 0
-57 -58 -628 0
57 -58 628 0
-57 58 628 0
628 61 -629 0
-628 -61 -629 0
628 -61 629 0
-628 61 629 0
629 62 -630 0
-629 -62 -630 0
629 -62 630 0
-629 62 630 0
630 142 -631 0
-630 -142 -631 0
630 -142 631 0
-630 142 631 0
631 150 -632 0
-631 -150 -632 0
631 -150 632 0
-631 150 632 0
632 154 -633 0
-632 -154 -633 0
632 -154 633 0
-632 154 633 0
633 162 -634 0
-633 -162 -634 0
633 -162 634 0
-633 162 634 0
-634 0
58 59 -635 0
-58 -59 -635 0
58 -59 635 0
-58 59 635 0
635 62 -636 0
-635 -62 -636 0
635 -62 636 0
-635 62 636 0
636 63 -637 0
-636 -63 -637 0
636 -63 637 0
-636 63 637 0
637 143 -638 0
-637 -143 -638 0
637 -143 638 0
-637 143 638 0
638 151 -639 0
-638 -151 -639 0
638 -151 639 0
-638 151 639 0
639 155 -640 0
-639 -155 -640 0
639 -155 640 0
-639 155 640 0
640 163 -641 0
-640 -163 -641 0
640 -163 641 0
-640 163 641 0
-641 0
59 60 -642 0
-59 -60 -642 0
59 -60 642 0
-59 60 642 0
642 63 -643 0
-642 -63 -643 0
642 -63 643 0
-642 63 643 0
643 64 -644 0
-643 -64 -644 0
643 -64 644 0
-643 64 644 0
644 144 -645 0
-644 -144 -645 0
644 -144 645 0
-644 144 645 0
645 152 -646 0
-645 -152 -646 0
645 -152 646 0
-645 152 646 0
646 156 -647 0
-646 -156 -647 0
646 -156 647 0
-646 156 647 0
647 164 -648 0
-647 -164 -648 0
647 -164 648 0
-647 164 648 0
-648 0
60 61 -649 0
-60 -61 -649 0
60 -61 649 0
-60 61 649 0
649 64 -650 0
-649 -64 -650 0
649 -64 650 0
-649 64 650 0
650 65 -651 0
-650 -65 -651 0
650 -65 651 0
-650 65 651 0
651 145 -652 0
-651 -145 -652 0
651 -145 652 0
-651 145 652 0
652 153 -653 0
-652 -153 -653 0
652 -153 653 0
-652 153 653 0
653 157 -654 0
-653 -157 -654 0
653 -157 654 0
-653 157 654 0
654 165 -655 0
-654 -165 -655 0
654 -165 655 0
-654 165 655 0
-655 0
61 62 -656 0
-61 -62 -656 0
61 -62 656 0
-61 62 656 0
656 65 -657 0
-656 -65 -657 0
656 -65 657 0
-656 65 657 0
657 66 -658 0
-657 -66 -658 0
657 -66 658 0
-657 66 658 0
658 146 -659 0
-658 -146 -659 0
658 -146 659 0
-658 146 659 0
659 154 -660 0
-659 -154 -660 0
659 -154 660 0
-659 154 660 0
660 158 -661 0
-660 -158 -661 0
660 -158 661 0
-660 158 661 0
661 166 -662 0
-661 -166 -662 0
661 -166 662 0
-661 166 662 0
-662 0
62 63 -663 0
-62 -63 -663 0
62 -63 663 0
-62 63 663 0
663 66 -664 0
-663 -66 -664 0
663 -66 664 0
-663 66 664 0
664 67 -665 0
-664 -67 -665 0
664 -67 665 0
-664 67 665 0
665 147 -666 0
-665 -147 -666 0
665 -147 666 0
-665 147 666 0
666 155 -667 0
-666 -155 -667 0
666 -155 667 0
-666 155 667 0
667 159 -668 0
-667 -159 -668 0
667 -159 668 0
-667 159 668 0
668 167 -669 0
-668 -167 -669 0
668 -167 669 0
-668 167 669 0
-669 0
63 64 -670 0
-63 -64 -670 0
63 -64 670 0
-63 64 670 0
670 67 -671 0
-670 -67 -671 0
670 -67 671 0
-670 67 671 0
671 68 -672 0
-671 -68 -672 0
671 -68 672 0
-671 68 672 0
672 148 -673 0
-672 -148 -673 0
672 -148 673 0
-672 148 673 0
673 156 -674 0
-673 -156 -674 0
673 -156 674 0
-673 156 674 0
674 160 -675 0
-674 -160 -675 0
674 -160 675 0
-674 160 675 0
675 168 -676 0
-675 -168 -676 0
675 -168 676 0
-675 168 676 0
-676 0
64 65 -677 0
-64 -65 -677 0
64 -65 677 0
-64 65 677 0
677 68 -678 0
-677 -68 -678 0
677 -68 678 0
-677 68 678 0
678 69 -679 0
-678 -69 -679 0
678 -69 679 0
-678 69 679 0
679 149 -680 0
-679 -149 -680 0
679 -149 680 0
-679 149 680 0
680 157 -681 0
-680 -157 -681 0
680 -157 681 0
-680 157 681 0
681 161 -682 0
-681 -161 -682 0
681 -161 682 0
-681 161 682 0
682 169 -683 0
-682 -169 -683 0
682 -169 683 0
-682 169 683 0
-683 0
65 66 -684 0
-65 -66 -684 0
65 -66 684 0
-65 66 684 0
684 69 -685 0
-684 -69 -685 0
684 -69 685 0
-684 69 685 0
685 70 -686 0
-685 -70 -686 0
685 -70 686 0
-685 70 686 0
686 150 -687 0
-686 -150 -687 0
686 -150 687 0
-686 150 687 0
687 158 -688 0
-687 -158 -688 0
687 -158 688 0
-687 158 688 0
688 162 -689 0
-688 -162 -689 0
688 -162 689 0
-688 162 689 0
689 170 -690 0
-689 -170 -690 0
689 -170 690 0
-689 170 690 0
-690 0
66 67 -691 0
-66 -67 -691 0
66 -67 691 0
-66 67 691 0
691 70 -692 0
-691 -70 -692 0
691 -70 692 0
-691 70 692 0
692 71 -693 0
-692 -71 -693 0
692 -71 693 0
-692 71 693 0
693 151 -694 0
-693 -151 -694 0
693 -151 694 0
-693 151 694 0
694 159 -695 0
-694 -159 -695 0
694 -159 695 0
-694 159 695 0
695 163 -696 0
-695 -163 -696 0
695 -163 696 0
-695 163 696 0
696 171 -697 0
-696 -171 -697 0
696 -171 697 0
-696 171 697 0
-697 0
67 68 -698 0
-67 -68 -698 0
67 -68 698 0
-67 68 698 0
698 71 -699 0
-698 -71 -699 0
698 -71 699 0
-698 71 699 0
699 72 -700 0
-699 -72 -700 0
699 -72 700 0
-699 72 700 0
700 152 -701 0
-700 -152 -701 0
700 -152 701 0
-700 152 701 0
701 160 -702 0
-701 -160 -702 0
701 -160 702 0
-701 160 702 0
702 164 -703 0
-702 -164 -703 0
702 -164 703 0
-702 164 703 0
703 172 -704 0
-703 -172 -704 0
703 -172 704 0
-703 172 704 0
-704 0
68 69 -705 0
-68 -69 -705 0
68 -69 705 0
-68 69 705 0
705 72 -706 0
-705 -72 -706 0
705 -72 706 0
-705 72 706 0
706 73 -707 0
-706 -73 -707 0
706 -73 707 0
-706 73 707 0
707 153 -708 0
-707 -153 -708 0
707 -153 708 0
-707 153 708 0
708 161 -709 0
-708 -161 -709 0
708 -161 709 0
-708 161 709 0
709 165 -710 0
-709 -165 -710 0
709 -165 710 0
-709 165 710 0
710 173 -711 0
-710 -173 -711 0
710 -173 711 0
-710 173 711 0
-711 0
69 70 -712 0
-69 -70 -712 0
69 -70 712 0
-69 70 712 0
712 73 -713 0
-712 -73 -713 0
712 -73 713 0
-712 73 713 0
713 74 -714 0
-713 -74 -714 0
713 -74 714 0
-713 74 714 0
714 154 -715 0
-714 -154 -715 0
714 -154 715 0
-714 154 715 0
715 162 -716 0
-715 -162 -716 0
715 -162 716 0
-715 162 716 0
716 166 -717 0
-716 -166 -717 0
716 -166 717 0
-716 166 717 0
717 174 -718 0
-717 -174 -718 0
717 -174 718 0
-717 174 718 0
-718 0
70 71 -719 0
-70 -71 -719 0
70 -71 719 0
-70 71 719 0
719 74 -720 0
-719 -74 -720 0
719 -74 720 0
-719 74 720 0
720 75 -721 0
-720 -75 -721 0
720 -75 721 0
-720 75 721 0
721 155 -722 0
-721 -155 -722 0
721 -155 722 0
-721 155 722 0
722 163 -723 0
-722 -163 -723 0
722 -163 723 0
-722 163 723 0
723 167 -724 0
-723 -167 -724 0
723 -167 724 0
-723 167 724 0
724 175 -725 0
-724 -175 -725 0
724 -175 725 0
-724 175 725 0
-725 0
71 72 -726 0
-71 -72 -726 0
71 -72 726 0
-71 72 726 0
726 75 -727 0
-726 -75 -727 0
726 -75 727 0
-726 75 727 0
727 76 -728 0
-727 -76 -728 0
727 -76 728 0
-727 76 728 0
728 156 -729 0
-728 -156 -729 0
728 -156 729 0
-728 156 729 0
729 164 -730 0
-729 -164 -730 0
729 -164 730 0
-729 164 730 0
730 168 -731 0
-730 -168 -731 0
730 -168 731 0
-730 168 731 0
731 176 -732 0
-731 -176 -732 0
731 -176 732 0
-731 176 732 0
-732 0
72 73 -733 0
-72 -73 -733 0
72 -73 733 0
-72 73 733 0
733 76 -734 0
-733 -76 -734 0
733 -76 734 0
-733 76 734 0
734 77 -735 0
-734 -77 -735 0
734 -77 735 0
-734 77 735 0
735 157 -736 0
-735 -157 -736 0
735 -157 736 0
-735 157 736 0
736 165 -737 0
-736 -165 -737 0
736 -165 737 0
-736 165 737 0
737 169 -738 0
-737 -169 -738 0
737 -169 738 0
-737 169 738 0
738 177 -739 0
-738 -177 -739 0
738 -177 739 0
-738 177 739 0
-739 0
73 74 -740 0
-73 -74 -740 0
73 -74 740 0
-73 74 740 0
740 77 -741 0
-740 -77 -741 0
740 -77 741 0
-740 77 741 0
741 78 -742 0
-741 -78 -742 0
741 -78 742 0
-741 78 742 0
742 158 -743 0
-742 -158 -743 0
742 -158 743 0
-742 158 743 0
743 166 -744 0
-743 -166 -744 0
743 -166 744 0
-743 166 744 0
744 170 -745 0
-744 -170 -745 0
744 -170 745 0
-744 170 745 0
745 178 -746 0
-745 -178 -746 0
745 -178 746 0
-745 178 746 0
-746 0
74 75 -747 0
-74 -75 -747 0
74 -75 747 0
-74 75 747 0
747 78 -748 0
-747 -78 -748 0
747 -78 748 0
-747 78 748 0
748 79 -749 0
-748 -79 -749 0
748 -79 749 0
-748 79 749 0
749 159 -750 0
-749 -159 -750 0
749 -159 750 0
-749 159 750 0
750 167 -751 0
-750 -167 -751 0
750 -167 751 0
-750 167 751 0
751 171 -752 0
-751 -171 -752 0
751 -171 752 0
-751 171 752 0
752 179 -753 0
-752 -179 -753 0
752 -179 753 0
-752 179 753 0
-753 0
75 76 -754 0
-75 -76 -754 0
75 -76 754 0
-75 76 754 0
754 79 -755 0
-754 -79 -755 0
754 -79 755 0
-754 79 755 0
755 80 -756 0
-755 -80 -756 0
755 -80 756 0
-755 80 756 0
756 160 -757 0
-756 -160 -757 0
756 -160 757 0
-756 160 757 0
757 168 -758 0
-757 -168 -758 0
757 -168 758 0
-757 168 758 0
758 172 -759 0
-758 -172 -759 0
758 -172 759 0
-758 172 759 0
759 180 -760 0
-759 -180 -760 0
759 -180 760 0
-759 180 760 0
-760 0
76 77 -761 0
-76 -77 -761 0
76 -77 761 0
-76 77 761 0
761 80 -762 0
-761 -80 -762 0
761 -80 762 0
-761 80 762 0
762 81 -763 0
-762 -81 -763 0
762 -81 763 0
-762 81 763 0
763 161 -764 0
-763 -161 -764 0
763 -161 764 0
-763 161 764 0
764 169 -765 0
-764 -169 -765 0
764 -169 765 0
-764 169 765 0
765 173 -766 0
-765 -173 -766 0
765 -173 766 0
-765 173 766 0
766 181 -767 0
-766 -181 -767 0
766 -181 767 0
-766 181 767 0
-767 0
77 78 -768 0
-77 -78 -768 0
77 -78 768 0
-77 78 768 0
768 81 -769 0
-768 -81 -769 0
768 -81 769 0
-768 81 769 0
769 82 -770 0
-769 -82 -770 0
769 -82 770 0
-769 82 770 0
770 162 -771 0
-770 -162 -771 0
770 -162 771 0
-770 162 771 0
771 170 -772 0
-771 -170 -772 0
771 -170 772 0
-771 170 772 0
772 174 -773 0
-772 -174 -773 0
772 -174 773 0
-772 174 773 0
773 182 -774 0
-773 -182 -774 0
773 -182 774 0
-773 182 774 0
-774 0
78 79 -775 0
-78 -79 -775 0
78 -79 775 0
-78 79 775 0
775 82 -776 0
-775 -82 -776 0
775 -82 776 0
-775 82 776 0
776 83 -777 0
-776 -83 -777 0
776 -83 777 0
-776 83 777 0
777 163 -778 0
-777 -163 -778 0
777 -163 778 0
-777 163 778 0
778 171 -779 0
-778 -171 -779 0
778 -171 779 0
-778 171 779 0
779 175 -780 0
-779 -175 -780 0
779 -175 780 0
-779 175 780 0
780 183 -781 0
-780 -183 -781 0
780 -183 781 0
-780 183 781 0
-781 0
79 80 -782 0
-79 -80 -782 0
79 -80 782 0
-79 80 782 0
782 83 -783 0
-782 -83 -783 0
782 -83 783 0
-782 83 783 0
783 84 -784 0
-783 -84 -784 0
783 -84 784 0
-783 84 784 0
784 164 -785 0
-784 -164 -785 0
784 -164 785 0
-784 164 785 0
785 172 -786 0
-785 -172 -786 0
785 -172 786 0
-785 172 786 0
786 176 -787 0
-786 -176 -787 0
786 -176 787 0
-786 176 787 0
787 184 -788 0
-787 -184 -788 0
787 -184 788 0
-787 184 788 0
-788 0
80 81 -789 0
-80 -81 -789 0
80 -81 789 0
-80 81 789 0
789 84 -790 0
-789 -84 -790 0
789 -84 790 0
-789 84 790 0
790 85 -791 0
-790 -85 -791 0
790 -85 791 0
-790 85 791 0
791 165 -792 0
-791 -165 -792 0
791 -165 792 0
-791 165 792 0
792 173 -793 0
-792 -173 -793 0
792 -173 793 0
-792 173 793 0
793 177 -794 0
-793 -177 -794 0
793 -177 794 0
-793 177 794 0
794 185 -795 0
-794 -185 -795 0
794 -185 795 0
-794 185 795 0
-795 0
81 82 -796 0
-81 -82 -796 0
81 -82 796 0
-81 82 796 0
796 85 -797 0
-796 -85 -797 0
796 -85 797 0
-796 85 797 0
797 86 -798 0
-797 -86 -798 0
797 -86 798 0
-797 86 798 0
798 166 -799 0
-798 -166 -799 0
798 -166 799 0
-798 166 799 0
799 174 -800 0
-799 -174 -800 0
799 -174 800 0
-799 174 800 0
800 178 -801 0
-800 -178 -801 0
800 -178 801 0
-800 178 801 0
801 186 -802 0
-801 -186 -802 0
801 -186 802 0
-801 186 802 0
-802 0
82 83 -803 0
-82 -83 -803 0
82 -83 803 0
-82 83 803 0
803 86 -804 0
-803 -86 -804 0
803 -86 804 0
-803 86 804 0
804 87 -805 0
-804 -87 -805 0
804 -87 805 0
-804 87 805 0
805 167 -806 0
-805 -167 -806 0
805 -167 806 0
-805 167 806 0
806 175 -807 0
-806 -175 -807 0
806 -175 807 0
-806 175 807 0
807 179 -808 0
-807 -179 -808 0
807 -179 808 0
-807 179 808 0
808 187 -809 0
-808 -187 -809 0
808 -187 809 0
-808 187 809 0
-809 0
83 84 -810 0
-83 -84 -810 0
83 -84 810 0
-83 84 810 0
810 87 -811 0
-810 -87 -811 0
810 -87 811 0
-810 87 811 0
811 88 -812 0
-811 -88 -812 0
811 -88 812 0
-811 88 812 0
812 168 -813 0
-812 -168 -813 0
812 -168 813 0
-812 168 813 0
813 176 -814 0
-813 -176 -814 0
813 -176 814 0
-813 176 814 0
814 180 -815 0
-814 -180 -815 0
814 -180 815 0
-814 180 815 0
815 188 -816 0
-815 -188 -816 0
815 -188 816 0
-815 188 816 0
-816 0
84 85 -817 0
-84 -85 -817 0
84 -85 817 0
-84 85 817 0
817 88 -818 0
-817 -88 -818 0
817 -88 818 0
-817 88 818 0
818 89 -819 0
-818 -89 -819 0
818 -89 819 0
-818 89 819 0
819 169 -820 0
-819 -169 -820 0
819 -169 820 0
-819 169 820 0
820 177 -821 0
-820 -177 -821 0
820 -177 821 0
-820 177 821 0
821 181 -822 0
-821 -181 -822 0
821 -181 822 0
-821 181 822 0
822 189 -823 0
-822 -189 -823 0
822 -189 823 0
-822 189 823 0
-823 0
85 86 -824 0
-85 -86 -824 0
85 -86 824 0
-85 86 824 0
824 89 -825 0
-824 -89 -825 0
824 -89 825 0
-824 89 825 0
825 90 -826 0
-825 -90 -826 0
825 -90 826 0
-825 90 826 0
826 170 -827 0
-826 -170 -827 0
826 -170 827 0
-826 170 827 0
827 178 -828 0
-827 -178 -828 0
827 -178 828 0
-827 178 828 0
828 182 -829 0
-828 -182 -829 0
828 -182 829 0
-828 182 829 0
829 190 -830 0
-829 -190 -830 0
829 -190 830 0
-829 190 830 0
-830 0
86 87 -831 0
-86 -87 -831 0
86 -87 831 0
-86 87 831 0
831 90 -832 0
-831 -90 -832 0
831 -90 832 0
-831 90 832 0
832 91 -833 0
-832 -91 -833 0
832 -91 833 0
-832 91 833 0
833 171 -834 0
-833 -171 -834 0
833 -171 834 0
-833 171 834 0
834 179 -835 0
-834 -179 -835 0
834 -179 835 0
-834 179 835 0
835 183 -836 0
-835 -183 -836 0
835 -183 836 0
-835 183 836 0
836 191 -837 0
-836 -191 -837 0
836 -191 837 0
-836 191 837 0
-837 0
87 88 -838 0
-87 -88 -838 0
87 -88 838 0
-87 88 838 0
838 91 -839 0
-838 -91 -839 0
838 -91 839 0
-838 91 839 0
839 92 -840 0
-839 -92 -840 0
839 -92 840 0
-839 92 840 0
840 172 -841 0
-840 -172 -841 0
840 -172 841 0
-840 172 841 0
841 180 -842 0
-841 -180 -842 0
841 -180 842 0
-841 180 842 0
842 184 -843 0
-842 -184 -843 0
842 -184 843 0
-842 184 843 0
843 192 -844 0
-843 -192 -844 0
843 -192 844 0
-843 192 844 0
-844 0
88 89 -845 0
-88 -89 -845 0
88 -89 845 0
-88 89 845 0
845 92 -846 0
-845 -92 -846 0
845 -92 846 0
-845 92 846 0
846 93 -847 0
-846 -93 -847 0
846 -93 847 0
-846 93 847 0
847 173 -848 0
-847 -173 -848 0
847 -173 848 0
-847 173 848 0
848 181 -849 0
-848 -181 -849 0
848 -181 849 0
-848 181 849 0
849 185 -850 0
-849 -185 -850 0
849 -185 850 0
-849 185 850 0
850 193 -851 0
-850 -193 -851 0
850 -193 851 0
-850 193 851 0
-851 0
89 90 -852 0
-89 -90 -852 0
89 -90 852 0
-89 90 852 0
852 93 -853 0
-852 -93 -853 0
852 -93 853 0
-852 93 853 0
853 94 -854 0
-853 -94 -854 0
853 -94 854 0
-853 94 854 0
854 174 -855 0
-854 -174 -855 0
854 -174 855 0
-854 174 855 0
855 182 -856 0
-855 -182 -856 0
855 -182 856 0
-855 182 856 0
856 186 -857 0
-856 -186 -857 0
856 -186 857 0
-856 186 857 0
857 194 -858 0
-857 -194 -858 0
857 -194 858 0
-857 194 858 0
-858 0
90 91 -859 0
-90 -91 -859 0
90 -91 859 0
-90 91 859 0
859 94 -860 0
-859 -94 -860 0
859 -94 860 0
-859 94 860 0
860 95 -861 0
-860 -95 -861 0
860 -95 861 0
-860 95 861 0
861 175 -862 0
-861 -175 -862 0
861 -175 862 0
-861 175 862 0
862 183 -863 0
-862 -183 -863 0
862 -183 863 0
-862 183 863 0
863 187 -864 0
-863 -187 -864 0
863 -187 864 0
-863 187 864 0
864 195 -865 0
-864 -195 -865 0
864 -195 865 0
-864 195 865 0
-865 0
91 92 -866 0
-91 -92 -866 0
91 -92 866 0
-91 92 866 0
866 95 -867 0
-866 -95 -867 0
866 -95 867 0
-866 95 867 0
867 96 -868 0
-867 -96 -868 0
867 -96 868 0
-867 96 868 0
868 176 -869 0
-868 -176 -869 0
868 -176 869 0
-868 176 869 0
869 184 -870 0
-869 -184 -870 0
869 -184 870 0
-869 184 870 0
870 188 -871 0
-870 -188 -871 0
870 -188 871 0
-870 188 871 0
871 196 -872 0
-871 -196 -872 0
871 -196 872 0
-871 196 872 0
-872 0
92 93 -873 0
-92 -93 -873 0
92 -93 873 0
-92 93 873 0
873 96 -874 0
-873 -96 -874 0
873 -96 874 0
-873 96 874 0
874 97 -875 0
-874 -97 -875 0
874 -97 875 0
-874 97 875 0
875 177 -876 0
-875 -177 -876 0
875 -177 876 0
-875 177 876 0
876 185 -877 0
-876 -185 -877 0
876 -185 877 0
-876 185 877 0
877 189 -878 0
-877 -189 -878 0
877 -189 878 0
-877 189 878 0
878 197 -879 0
-878 -197 -879 0
878 -197 879 0
-878 197 879 0
-879 0
93 94 -880 0
-93 -94 -880 0
93 -94 880 0
-93 94 880 0
880 97 -881 0
-880 -97 -881 0
880 -97 881 0
-880 97 881 0
881 98 -882 0
-881 -98 -882 0
881 -98 882 0
-881 98 882 0
882 178 -883 0
-882 -178 -883 0
882 -178 883 0
-882 178 883 0
883 186 -884 0
-883 -186 -884 0
883 -186 884 0
-883 186 884 0
884 190 -885 0
-884 -190 -885 0
884 -190 885 0
-884 190 885 0
885 198 -886 0
-885 -198 -886 0
885 -198 886 0
-885 198 886 0
-886 0
94 95 -887 0
-94 -95 -887 0
94 -95 887 0
-94 95 887 0
887 98 -888 0
-887 -98 -888 0
887 -98 888 0
-887 98 888 0
888 99 -889 0
-888 -99 -889 0
888 -99 889 0
-888 99 889 0
889 179 -890 0
-889 -179 -890 0
889 -179 890 0
-889 179 890 0
890 187 -891 0
-890 -187 -891 0
890 -187 891 0
-890 187 891 0
891 191 -892 0
-891 -191 -892 0
891 -191 892 0
-891 191 892 0
892 199 -893 0
-892 -199 -893 0
892 -199 893 0
-892 199 893 0
-893 0
95 96 -894 0
-95 -96 -894 0
95 -96 894 0
-95 96 894 0
894 99 -895 0
-894 -99 -895 0
894 -99 895 0
-894 99 895 0
895 100 -896 0
-895 -100 -896 0
895 -100 896 0
-895 100 896 0
896 180 -897 0
-896 -180 -897 0
896 -180 897 0
-896 180 897 0
897 188 -898 0
-897 -188 -898 0
897 -188 898 0
-897 188 898 0
898 192 -899 0
-898 -192 -899 0
898 -192 899 0
-898 192 899 0
899 200 -900 0
-899 -200 -900 0
899 -200 900 0
-899 200 900 0
-900 0
1 105 -901 0
-1 -105 -901 0
1 -105 901 0
-1 105 901 0
901 109 -902 0
-901 -109 -902 0
901 -109 902 0
-901 109 902 0
902 113 -903 0
-902 -113 -903 0
902 -113 903 0
-902 113 903 0
903 117 -904 0
-903 -117 -904 0
903 -117 904 0
-903 117 904 0
904 121 -905 0
-904 -121 -905 0
904 -121 905 0
-904 121 905 0
905 125 -906 0
-905 -125 -906 0
905 -125 906 0
-905 125 906 0
906 129 -907 0
-906 -129 -907 0
906 -129 907 0
-906 129 907 0
907 133 -908 0
-907 -133 -908 0
907 -133 908 0
-907 133 908 0
908 137 -909 0
-908 -137 -909 0
908 -137 909 0
-908 137 909 0
909 141 -910 0
-909 -141 -910 0
909 -141 910 0
-909 141 910 0
910 145 -911 0
-910 -145 -911 0
910 -145 911 0
-910 145 911 0
911 149 -912 0
-911 -149 -912 0
911 -149 912 0
-911 149 912 0
912 153 -913 0
-912 -153 -913 0
912 -153 913 0
-912 153 913 0
913 157 -914 0
-913 -157 -914 0
913 -157 914 0
-913 157 914 0
914 161 -915 0
-914 -161 -915 0
914 -161 915 0
-914 161 915 0
915 165 -916 0
-915 -165 -916 0
915 -165 916 0
-915 165 916 0
916 169 -917 0
-916 -169 -917 0
916 -169 917 0
-916 169 917 0
917 173 -918 0
-917 -173 -918 0
917 -173 918 0
-917 173 918 0
918 177 -919 0
-918 -177 -919 0
918 -177 919 0
-918 177 919 0
919 181 -920 0
-919 -181 -920 0
919 -181 920 0
-919 181 920 0
920 185 -921 0
-920 -185 -921 0
920 -185 921 0
-920 185 921 0
921 186 -922 0
-921 -186 -922 0
921 -186 922 0
-921 186 922 0
922 187 -923 0
-922 -187 -923 0
922 -187 923 0
-922 187 923 0
923 188 -924 0
-923 -188 -924 0
923 -188 924 0
-923 188 924 0
924 193 -925 0
-924 -193 -925 0
924 -193 925 0
-924 193 925 0
925 197 -926 0
-925 -197 -926 0
925 -197 926 0
-925 197 926 0
926 198 -927 0
-926 -198 -927 0
926 -198 927 0
-926 198 927 0
927 199 -928 0
-927 -199 -928 0
927 -199 928 0
-927 199 928 0
928 200 -929 0
-928 -200 -929 0
928 -200 929 0
-928 200 929 0
2 105 -930 0
-2 -105 -930 0
2 -105 930 0
-2 105 930 0
930 106 -931 0
-930 -106 -931 0
930 -106 931 0
-930 106 931 0
931 109 -932 0
-931 -109 -932 0
931 -109 932 0
-931 109 932 0
932 110 -933 0
-932 -110 -933 0
932 -110 933 0
-932 110 933 0
933 113 -934 0
-933 -113 -934 0
933 -113 934 0
-933 113 934 0
934 114 -935 0
-934 -114 -935 0
934 -114 935 0
-934 114 935 0
935 117 -936 0
-935 -117 -936 0
935 -117 936 0
-935 117 936 0
936 118 -937 0
-936 -118 -937 0
936 -118 937 0
-936 118 937 0
937 121 -938 0
-937 -121 -938 0
937 -121 938 0
-937 121 938 0
938 122 -939 0
-938 -122 -939 0
938 -122 939 0
-938 122 939 0
939 125 -940 0
-939 -125 -940 0
939 -125 940 0
-939 125 940 0
940 126 -941 0
-940 -126 -941 0
940 -126 941 0
-940 126 941 0
941 129 -942 0
-941 -129 -942 0
941 -129 942 0
-941 129 942 0
942 130 -943 0
-942 -130 -943 0
942 -130 943 0
-942 130 943 0
943 133 -944 0
-943 -133 -944 0
943 -133 944 0
-943 133 944 0
944 134 -945 0
-944 -134 -945 0
944 -134 945 0
-944 134 945 0
945 137 -946 0
-945 -137 -946 0
945 -137 946 0
-945 137 946 0
946 138 -947 0
-946 -138 -947 0
946 -138 947 0
-946 138 947 0
947 141 -948 0
-947 -141 -948 0
947 -141 948 0
-947 141 948 0
948 142 -949 0
-948 -142 -949 0
948 -142 949 0
-948 142 949 0
949 145 -950 0
-949 -145 -950 0
949 -145 950 0
-949 145 950 0
950 146 -951 0
-950 -146 -951 0
950 -146 951 0
-950 146 951 0
951 149 -952 0
-951 -149 -952 0
951 -149 952 0
-951 149 952 0
952 150 -953 0
-952 -150 -953 0
952 -150 953 0
-952 150 953 0
953 153 -954 0
-953 -153 -954 0
953 -153 954 0
-953 153 954 0
954 154 -955 0
-954 -154 -955 0
954 -154 955 0
-954 154 955 0
955 157 -956 0
-955 -157 -956 0
955 -157 956 0
-955 157 956 0
956 158 -957 0
-956 -158 -957 0
956 -158 957 0
-956 158 957 0
957 161 -958 0
-957 -161 -958 0
957 -161 958 0
-957 161 958 0
958 162 -959 0
-958 -162 -959 0
958 -162 959 0
-958 162 959 0
959 165 -960 0
-959 -165 -960 0
959 -165 960 0
-959 165 960 0
960 166 -961 0
-960 -166 -961 0
960 -166 961 0
-960 166 961 0
961 169 -962 0
-961 -169 -962 0
961 -169 962 0
-961 169 962 0
962 170 -963 0
-962 -170 -963 0
962 -170 963 0
-962 170 963 0
963 173 -964 0
-963 -173 -964 0
963 -173 964 0
-963 173 964 0
964 174 -965 0
-964 -174 -965 0
964 -174 965 0
-964 174 965 0
965 177 -966 0
-965 -177 -966 0
965 -177 966 0
-965 177 966 0
966 178 -967 0
-966 -178 -967 0
966 -178 967 0
-966 178 967 0
967 181 -968 0
-967 -181 -968 0
967 -181 968 0
-967 181 968 0
968 182 -969 0
-968 -182 -969 0
968 -182 969 0
-968 182 969 0
969 185 -970 0
-969 -185 -970 0
969 -185 970 0
-969 185 970 0
970 186 -971 0
-970 -186 -971 0
970 -186 971 0
-970 186 971 0
971 187 -972 0
-971 -187 -972 0
971 -187 972 0
-971 187 972 0
972 188 -973 0
-972 -188 -973 0
972 -188 973 0
-972 188 973 0
973 193 -974 0
-973 -193 -974 0
973 -193 974 0
-973 193 974 0
974 194 -975 0
-974 -194 -975 0
974 -194 975 0
-974 194 975 0
975 197 -976 0
-975 -197 -976 0
975 -197 976 0
-975 197 976 0
976 198 -977 0
-976 -198 -977 0
976 -198 977 0
-976 198 977 0
977 199 -978 0
-977 -199 -978 0
977 -199 978 0
-977 199 978 0
978 200 -979 0
-978 -200 -979 0
978 -200 979 0
-978 200 979 0
3 105 -980 0
-3 -105 -980 0
3 -105 980 0
-3 105 980 0
980 106 -981 0
-980 -106 -981 0
980 -106 981 0
-980 106 981 0
981 107 -982 0
-981 -107 -982 0
981 -107 982 0
-981 107 982 0
982 109 -983 0
-982 -109 -983 0
982 -109 983 0
-982 109 983 0
983 110 -984 0
-983 -110 -984 0
983 -110 984 0
-983 110 984 0
984 111 -985 0
-984 -111 -985 0
984 -111 985 0
-984 111 985 0
985 113 -986 0
-985 -113 -986 0
985 -113 986 0
-985 113 986 0
986 114 -987 0
-986 -114 -987 0
986 -114 987 0
-986 114 987 0
987 115 -988 0
-987 -115 -988 0
987 -115 988 0
-987 115 988 0
988 117 -989 0
-988 -117 -989 0
988 -117 989 0
-988 117 989 0
989 118 -990 0
-989 -118 -990 0
989 -118 990 0
-989 118 990 0
990 119 -991 0
-990 -119 -991 0
990 -119 991 0
-990 119 991 0
991 121 -992 0
-991 -121 -992 0
991 -121 992 0
-991 121 992 0
992 122 -993 0
-992 -122 -993 0
992 -122 993 0
-992 122 993 0
993 123 -994 0
-993 -123 -994 0
993 -123 994 0
-993 123 994 0
994 125 -995 0
-994 -125 -995 0
994 -125 995 0
-994 125 995 0
995 126 -996 0
-995 -126 -996 0
995 -126 996 0
-995 126 996 0
996 127 -997 0
-996 -127 -997 0
996 -127 997 0
-996 127 997 0
997 129 -998 0
-997 -129 -998 0
997 -129 998 0
-997 129 998 0
998 130 -999 0
-998 -130 -999 0
998 -130 999 0
-998 130 999 0
999 131 -1000 0
-999 -131 -1000 0
999 -131 1000 0
-999 131 1000 0
1000 133 -1001 0
-1000 -133 -1001 0
1000 -133 1001 0
-1000 133 1001 0
1001 134 -1002 0
-1001 -134 -1002 0
1001 -134 1002 0
-1001 134 1002 0
1002 135 -1003 0
-1002 -135 -1003 0
1002 -135 1003 0
-1002 135 1003 0
1003 137 -1004 0
-1003 -137 -1004 0
1003 -137 1004 0
-1003 137 1004 0
1004 138 -1005 0
-1004 -138 -1005 0
1004 -138 1005 0
-1004 138 1005 0
1005 139 -1006 0
-1005 -139 -1006 0
1005 -139 1006 0
-1005 139 1006 0
1006 141 -1007 0
-1006 -141 -1007 0
1006 -141 1007 0
-1006 141 1007 0
1007 142 -1008 0
-1007 -142 -1008 0
1007 -142 1008 0
-1007 142 1008 0
1008 143 -1009 0
-1008 -143 -1009 0
1008 -143 1009 0
-1008 143 1009 0
1009 145 -1010 0
-1009 -145 -1010 0
1009 -145 1010 0
-1009 145 1010 0
1010 146 -1011 0
-1010 -146 -1011 0
1010 -146 1011 0
-1010 146 1011 0
1011 147 -1012 0
-1011 -147 -1012 0
1011 -147 1012 0
-1011 147 1012 0
1012 149 -1013 0
-1012 -149 -1013 0
1012 -149 1013 0
-1012 149 1013 0
1013 150 -1014 0
-1013 -150 -1014 0
1013 -150 1014 0
-1013 150 1014 0
1014 151 -1015 0
-1014 -151 -1015 0
1014 -151 1015 0
-1014 151 1015 0
1015 153 -1016 0
-1015 -153 -1016 0
1015 -153 1016 0
-1015 153 1016 0
1016 154 -1017 0
-1016 -154 -1017 0
1016 -154 1017 0
-1016 154 1017 0
1017 155 -1018 0
-1017 -155 -1018 0
1017 -155 1018 0
-1017 155 1018 0
1018 157 -1019 0
-1018 -157 -1019 0
1018 -157 1019 0
-1018 157 1019 0
1019 158 -1020 0
-1019 -158 -1020 0
1019 -158 1020 0
-1019 158 1020 0
1020 159 -1021 0
-1020 -159 -1021 0
1020 -159 1021 0
-1020 159 1021 0
1021 161 -1022 0
-1021 -161 -1022 0
1021 -161 1022 0
-1021 161 1022 0
1022 162 -1023 0
-1022 -162 -1023 0
1022 -162 1023 0
-1022 162 1023 0
1023 163 -1024 0
-1023 -163 -1024 0
1023 -163 1024 0
-1023 163 1024 0
1024 165 -1025 0
-1024 -165 -1025 0
1024 -165 1025 0
-1024 165 1025 0
1025 166 -1026 0
-1025 -166 -1026 0
1025 -166 1026 0
-1025 166 1026 0
1026 167 -1027 0
-1026 -167 -1027 0
1026 -167 1027 0
-1026 167 1027 0
1027 169 -1028 0
-1027 -169 -1028 0
1027 -169 1028 0
-1027 169 1028 0
1028 170 -1029 0
-1028 -170 -1029 0
1028 -170 1029 0
-1028 170 1029 0
1029 171 -1030 0
-1029 -171 -1030 0
1029 -171 1030 0
-1029 171 1030 0
1030 173 -1031 0
-1030 -173 -1031 0
1030 -173 1031 0
-1030 173 1031 0
1031 174 -1032 0
-1031 -174 -1032 0
1031 -174 1032 0
-1031 174 1032 0
1032 175 -1033 0
-1032 -175 -1033 0
1032 -175 1033 0
-1032 175 1033 0
1033 177 -1034 0
-1033 -177 -1034 0
1033 -177 1034 0
-1033 177 1034 0
1034 178 -1035 0
-1034 -178 -1035 0
1034 -178 1035 0
-1034 178 1035 0
1035 179 -1036 0
-1035 -179 -1036 0
1035 -179 1036 0
-1035 179 1036 0
1036 181 -1037 0
-1036 -181 -1037 0
1036 -181 1037 0
-1036 181 1037 0
1037 182 -1038 0
-1037 -182 -1038 0
1037 -182 1038 0
-1037 182 1038 0
1038 183 -1039 0
-1038 -183 -1039 0
1038 -183 1039 0
-1038 183 1039 0
1039 185 -1040 0
-1039 -185 -1040 0
1039 -185 1040 0
-1039 185 1040 0
1040 186 -1041 0
-1040 -186 -1041 0
1040 -186 1041 0
-1040 186 1041 0
1041 187 -1042 0
-1041 -187 -1042 0
1041 -187 1042 0
-1041 187 1042 0
1042 188 -1043 0
-1042 -188 -1043 0
1042 -188 1043 0
-1042 188 1043 0
1043 193 -1044 0
-1043 -193 -1044 0
1043 -193 1044 0
-1043 193 1044 0
1044 194 -1045 0
-1044 -194 -1045 0
1044 -194 1045 0
-1044 194 1045 0
1045 195 -1046 0
-1045 -195 -1046 0
1045 -195 1046 0
-1045 195 1046 0
1046 197 -1047 0
-1046 -197 -1047 0
1046 -197 1047 0
-1046 197 1047 0
1047 198 -1048 0
-1047 -198 -1048 0
1047 -198 1048 0
-1047 198 1048 0
1048 199 -1049 0
-1048 -199 -1049 0
1048 -199 1049 0
-1048 199 1049 0
1049 200 -1050 0
-1049 -200 -1050 0
1049 -200 1050 0
-1049 200 1050 0
4 105 -1051 0
-4 -105 -1051 0
4 -105 1051 0
-4 105 1051 0
1051 106 -1052 0
-1051 -106 -1052 0
1051 -106 1052 0
-1051 106 1052 0
1052 107 -1053 0
-1052 -107 -1053 0
1052 -107 1053 0
-1052 107 1053 0
1053 108 -1054 0
-1053 -108 -1054 0
1053 -108 1054 0
-1053 108 1054 0
1054 109 -1055 0
-1054 -109 -1055 0
1054 -109 1055 0
-1054 109 1055 0
1055 110 -1056 0
-1055 -110 -1056 0
1055 -110 1056 0
-1055 110 1056 0
1056 111 -1057 0
-1056 -111 -1057 0
1056 -111 1057 0
-1056 111 1057 0
1057 112 -1058 0
-1057 -112 -1058 0
1057 -112 1058 0
-1057 112 1058 0
1058 113 -1059 0
-1058 -113 -1059 0
1058 -113 1059 0
-1058 113 1059 0
1059 114 -1060 0
-1059 -114 -1060 0
1059 -114 1060 0
-1059 114 1060 0
1060 115 -1061 0
-1060 -115 -1061 0
1060 -115 1061 0
-1060 115 1061 0
1061 116 -1062 0
-1061 -116 -1062 0
1061 -116 1062 0
-1061 116 1062 0
1062 117 -1063 0
-1062 -117 -1063 0
1062 -117 1063 0
-1062 117 1063 0
1063 118 -1064 0
-1063 -118 -1064 0
1063 -118 1064 0
-1063 118 1064 0
1064 119 -1065 0
-1064 -119 -1065 0
1064 -119 1065 0
-1064 119 1065 0
1065 120 -1066 0
-1065 -120 -1066 0
1065 -120 1066 0
-1065 120 1066 0
1066 121 -1067 0
-1066 -121 -1067 0
1066 -121 1067 0
-1066 121 1067 0
1067 122 -1068 0
-1067 -122 -1068 0
1067 -122 1068 0
-1067 122 1068 0
1068 123 -1069 0
-1068 -123 -1069 0
1068 -123 1069 0
-1068 123 1069 0
1069 124 -1070 0
-1069 -124 -1070 0
1069 -124 1070 0
-1069 124 1070 0
1070 125 -1071 0
-1070 -125 -1071 0
1070 -125 1071 0
-1070 125 1071 0
1071 126 -1072 0
-1071 -126 -1072 0
1071 -126 1072 0
-1071 126 1072 0
1072 127 -1073 0
-1072 -127 -1073 0
1072 -127 1073 0
-1072 127 1073 0
1073 128 -1074 0
-1073 -128 -1074 0
1073 -128 1074 0
-1073 128 1074 0
1074 129 -1075 0
-1074 -129 -1075 0
1074 -129 1075 0
-1074 129 1075 0
1075 130 -1076 0
-1075 -130 -1076 0
1075 -130 1076 0
-1075 130 1076 0
1076 131 -1077 0
-1076 -131 -1077 0
1076 -131 1077 0
-1076 131 1077 0
1077 132 -1078 0
-1077 -132 -1078 0
1077 -132 1078 0
-1077 132 1078 0
1078 133 -1079 0
-1078 -133 -1079 0
1078 -133 1079 0
-1078 133 1079 0
1079 134 -1080 0
-1079 -134 -1080 0
1079 -134 1080 0
-1079 134 1080 0
1080 135 -1081 0
-1080 -135 -1081 0
1080 -135 1081 0
-1080 135 1081 0
1081 136 -1082 0
-1081 -136 -1082 0
1081 -136 1082 0
-1081 136 1082 0
1082 137 -1083 0
-1082 -137 -1083 0
1082 -137 1083 0
-1082 137 1083 0
1083 138 -1084 0
-1083 -138 -1084 0
1083 -138 1084 0
-1083 138 1084 0
1084 139 -1085 0
-1084 -139 -1085 0
1084 -139 1085 0
-1084 139 1085 0
1085 140 -1086 0
-1085 -140 -1086 0
1085 -140 1086 0
-1085 140 1086 0
1086 141 -1087 0
-1086 -141 -1087 0
1086 -141 1087 0
-1086 141 1087 0
1087 142 -1088 0
-1087 -142 -1088 0
1087 -142 1088 0
-1087 142 1088 0
1088 143 -1089 0
-1088 -143 -1089 0
1088 -143 1089 0
-1088 143 1089 0
1089 144 -1090 0
-1089 -144 -1090 0
1089 -144 1090 0
-1089 144 1090 0
1090 145 -1091 0
-1090 -145 -1091 0
1090 -145 1091 0
-1090 145 1091 0
1091 146 -1092 0
-1091 -146 -1092 0
1091 -146 1092 0
-1091 146 1092 0
1092 147 -1093 0
-1092 -147 -1093 0
1092 -147 1093 0
-1092 147 1093 0
1093 148 -1094 0
-1093 -148 -1094 0
1093 -148 1094 0
-1093 148 1094 0
1094 149 -1095 0
-1094 -149 -1095 0
1094 -149 1095 0
-1094 149 1095 0
1095 150 -1096 0
-1095 -150 -1096 0
1095 -150 1096 0
-1095 150 1096 0
1096 151 -1097 0
-1096 -151 -1097 0
1096 -151 1097 0
-1096 151 1097 0
1097 152 -1098 0
-1097 -152 -1098 0
1097 -152 1098 0
-1097 152 1098 0
1098 153 -1099 0
-1098 -153 -1099 0
1098 -153 1099 0
-1098 153 1099 0
1099 154 -1100 0
-1099 -154 -1100 0
1099 -154 1100 0
-1099 154 1100 0
1100 155 -1101 0
-1100 -155 -1101 0
1100 -155 1101 0
-1100 155 1101 0
1101 156 -1102 0
-1101 -156 -1102 0
1101 -156 1102 0
-1101 156 1102 0
1102 157 -1103 0
-1102 -157 -1103 0
1102 -157 1103 0
-1102 157 1103 0
1103 158 -1104 0
-1103 -158 -1104 0
1103 -158 1104 0
-1103 158 1104 0
1104 159 -1105 0
-1104 -159 -1105 0
1104 -159 1105 0
-1104 159 1105 0
1105 160 -1106 0
-1105 -160 -1106 0
1105 -160 1106 0
-1105 160 1106 0
1106 161 -1107 0
-1106 -161 -1107 0
1106 -161 1107 0
-1106 161 1107 0
1107 162 -1108 0
-1107 -162 -1108 0
1107 -162 1108 0
-1107 162 1108 0
1108 163 -1109 0
-1108 -163 -1109 0
1108 -163 1109 0
-1108 163 1109 0
1109 164 -1110 0
-1109 -164 -1110 0
1109 -164 1110 0
-1109 164 1110 0
1110 165 -1111 0
-1110 -165 -1111 0
1110 -165 1111 0
-1110 165 1111 0
1111 166 -1112 0
-1111 -166 -1112 0
1111 -166 1112 0
-1111 166 1112 0
1112 167 -1113 0
-1112 -167 -1113 0
1112 -167 1113 0
-1112 167 1113 0
1113 168 -1114 0
-1113 -168 -1114 0
1113 -168 1114 0
-1113 168 1114 0
1114 169 -1115 0
-1114 -169 -1115 0
1114 -169 1115 0
-1114 169 1115 0
1115 170 -1116 0
-1115 -170 -1116 0
1115 -170 1116 0
-1115 170 1116 0
1116 171 -1117 0
-1116 -171 -1117 0
1116 -171 1117 0
-1116 171 1117 0
1117 172 -1118 0
-1117 -172 -1118 0
1117 -172 1118 0
-1117 172 1118 0
1118 173 -1119 0
-1118 -173 -1119 0
1118 -173 1119 0
-1118 173 1119 0
1119 174 -1120 0
-1119 -174 -1120 0
1119 -174 1120 0
-1119 174 1120 0
1120 175 -1121 0
-1120 -175 -1121 0
1120 -175 1121 0
-1120 175 1121 0
1121 176 -1122 0
-1121 -176 -1122 0
1121 -176 1122 0
-1121 176 1122 0
1122 177 -1123 0
-1122 -177 -1123 0
1122 -177 1123 0
-1122 177 1123 0
1123 178 -1124 0
-1123 -178 -1124 0
1123 -178 1124 0
-1123 178 1124 0
1124 179 -1125 0
-1124 -179 -1125 0
1124 -179 1125 0
-1124 179 1125 0
1125 180 -1126 0
-1125 -180 -1126 0
1125 -180 1126 0
-1125 180 1126 0
1126 181 -1127 0
-1126 -181 -1127 0
1126 -181 1127 0
-1126 181 1127 0
1127 182 -1128 0
-1127 -182 -1128 0
1127 -182 1128 0
-1127 182 1128 0
1128 183 -1129 0
-1128 -183 -1129 0
1128 -183 1129 0
-1128 183 1129 0
1129 184 -1130 0
-1129 -184 -1130 0
1129 -184 1130 0
-1129 184 1130 0
1130 185 -1131 0
-1130 -185 -1131 0
1130 -185 1131 0
-1130 185 1131 0
1131 186 -1132 0
-1131 -186 -1132 0
1131 -186 1132 0
-1131 186 1132 0
1132 187 -1133 0
-1132 -187 -1133 0
1132 -187 1133 0
-1132 187 1133 0
1133 188 -1134 0
-1133 -188 -1134 0
1133 -188 1134 0
-1133 188 1134 0
1134 193 -1135 0
-1134 -193 -1135 0
1134 -193 1135 0
-1134 193 1135 0
1135 194 -1136 0
-1135 -194 -1136 0
1135 -194 1136 0
-1135 194 1136 0
1136 195 -1137 0
-1136 -195 -1137 0
1136 -195 1137 0
-1136 195 1137 0
1137 196 -1138 0
-1137 -196 -1138 0
1137 -196 1138 0
-1137 196 1138 0
1138 197 -1139 0
-1138 -197 -1139 0
1138 -197 1139 0
-1138 197 1139 0
1139 198 -1140 0
-1139 -198 -1140 0
1139 -198 1140 0
-1139 198 1140 0
1140 199 -1141 0
-1140 -199 -1141 0
1140 -199 1141 0
-1140 199 1141 0
1141 200 -1142 0
-1141 -200 -1142 0
1141 -200 1142 0
-1141 200 1142 0
5 105 -1143 0
-5 -105 -1143 0
5 -105 1143 0
-5 105 1143 0
1143 106 -1144 0
-1143 -106 -1144 0
1143 -106 1144 0
-1143 106 1144 0
1144 107 -1145 0
-1144 -107 -1145 0
1144 -107 1145 0
-1144 107 1145 0
1145 108 -1146 0
-1145 -108 -1146 0
1145 -108 1146 0
-1145 108 1146 0
1146 110 -1147 0
-1146 -110 -1147 0
1146 -110 1147 0
-1146 110 1147 0
1147 111 -1148 0
-1147 -111 -1148 0
1147 -111 1148 0
-1147 111 1148 0
1148 112 -1149 0
-1148 -112 -1149 0
1148 -112 1149 0
-1148 112 1149 0
1149 114 -1150 0
-1149 -114 -1150 0
1149 -114 1150 0
-1149 114 1150 0
1150 115 -1151 0
-1150 -115 -1151 0
1150 -115 1151 0
-1150 115 1151 0
1151 116 -1152 0
-1151 -116 -1152 0
1151 -116 1152 0
-1151 116 1152 0
1152 118 -1153 0
-1152 -118 -1153 0
1152 -118 1153 0
-1152 118 1153 0
1153 119 -1154 0
-1153 -119 -1154 0
1153 -119 1154 0
-1153 119 1154 0
1154 120 -1155 0
-1154 -120 -1155 0
1154 -120 1155 0
-1154 120 1155 0
1155 122 -1156 0
-1155 -122 -1156 0
1155 -122 1156 0
-1155 122 1156 0
1156 123 -1157 0
-1156 -123 -1157 0
1156 -123 1157 0
-1156 123 1157 0
1157 124 -1158 0
-1157 -124 -1158 0
1157 -124 1158 0
-1157 124 1158 0
1158 126 -1159 0
-1158 -126 -1159 0
1158 -126 1159 0
-1158 126 1159 0
1159 127 -1160 0
-1159 -127 -1160 0
1159 -127 1160 0
-1159 127 1160 0
1160 128 -1161 0
-1160 -128 -1161 0
1160 -128 1161 0
-1160 128 1161 0
1161 130 -1162 0
-1161 -130 -1162 0
1161 -130 1162 0
-1161 130 1162 0
1162 131 -1163 0
-1162 -131 -1163 0
1162 -131 1163 0
-1162 131 1163 0
1163 132 -1164 0
-1163 -132 -1164 0
1163 -132 1164 0
-1163 132 1164 0
1164 134 -1165 0
-1164 -134 -1165 0
1164 -134 1165 0
-1164 134 1165 0
1165 135 -1166 0
-1165 -135 -1166 0
1165 -135 1166 0
-1165 135 1166 0
1166 136 -1167 0
-1166 -136 -1167 0
1166 -136 1167 0
-1166 136 1167 0
1167 138 -1168 0
-1167 -138 -1168 0
1167 -138 1168 0
-1167 138 1168 0
1168 139 -1169 0
-1168 -139 -1169 0
1168 -139 1169 0
-1168 139 1169 0
1169 140 -1170 0
-1169 -140 -1170 0
1169 -140 1170 0
-1169 140 1170 0
1170 142 -1171 0
-1170 -142 -1171 0
1170 -142 1171 0
-1170 142 1171 0
1171 143 -1172 0
-1171 -143 -1172 0
1171 -143 1172 0
-1171 143 1172 0
1172 144 -1173 0
-1172 -144 -1173 0
1172 -144 1173 0
-1172 144 1173 0
1173 146 -1174 0
-1173 -146 -1174 0
1173 -146 1174 0
-1173 146 1174 0
1174 147 -1175 0
-1174 -147 -1175 0
1174 -147 1175 0
-1174 147 1175 0
1175 148 -1176 0
-1175 -148 -1176 0
1175 -148 1176 0
-1175 148 1176 0
1176 150 -1177 0
-1176 -150 -1177 0
1176 -150 1177 0
-1176 150 1177 0
1177 151 -1178 0
-1177 -151 -1178 0
1177 -151 1178 0
-1177 151 1178 0
1178 152 -1179 0
-1178 -152 -1179 0
1178 -152 1179 0
-1178 152 1179 0
1179 154 -1180 0
-1179 -154 -1180 0
1179 -154 1180 0
-1179 154 1180 0
1180 155 -1181 0
-1180 -155 -1181 0
1180 -155 1181 0
-1180 155 1181 0
1181 156 -1182 0
-1181 -156 -1182 0
1181 -156 1182 0
-1181 156 1182 0
1182 158 -1183 0
-1182 -158 -1183 0
1182 -158 1183 0
-1182 158 1183 0
1183 159 -1184 0
-1183 -159 -1184 0
1183 -159 1184 0
-1183 159 1184 0
1184 160 -1185 0
-1184 -160 -1185 0
1184 -160 1185 0
-1184 160 1185 0
1185 162 -1186 0
-1185 -162 -1186 0
1185 -162 1186 0
-1185 162 1186 0
1186 163 -1187 0
-1186 -163 -1187 0
1186 -163 1187 0
-1186 163 1187 0
1187 164 -1188 0
-1187 -164 -1188 0
1187 -164 1188 0
-1187 164 1188 0
1188 166 -1189 0
-1188 -166 -1189 0
1188 -166 1189 0
-1188 166 1189 0
1189 167 -1190 0
-1189 -167 -1190 0
1189 -167 1190 0
-1189 167 1190 0
1190 168 -1191 0
-1190 -168 -1191 0
1190 -168 1191 0
-1190 168 1191 0
1191 170 -1192 0
-1191 -170 -1192 0
1191 -170 1192 0
-1191 170 1192 0
1192 171 -1193 0
-1192 -171 -1193 0
1192 -171 1193 0
-1192 171 1193 0
1193 172 -1194 0
-1193 -172 -1194 0
1193 -172 1194 0
-1193 172 1194 0
1194 174 -1195 0
-1194 -174 -1195 0
1194 -174 1195 0
-1194 174 1195 0
1195 175 -1196 0
-1195 -175 -1196 0
1195 -175 1196 0
-1195 175 1196 0
1196 176 -1197 0
-1196 -176 -1197 0
1196 -176 1197 0
-1196 176 1197 0
1197 178 -1198 0
-1197 -178 -1198 0
1197 -178 1198 0
-1197 178 1198 0
1198 179 -1199 0
-1198 -179 -1199 0
1198 -179 1199 0
-1198 179 1199 0
1199 180 -1200 0
-1199 -180 -1200 0
1199 -180 1200 0
-1199 180 1200 0
1200 182 -1201 0
-1200 -182 -1201 0
1200 -182 1201 0
-1200 182 1201 0
1201 183 -1202 0
-1201 -183 -1202 0
1201 -183 1202 0
-1201 183 1202 0
1202 184 -1203 0
-1202 -184 -1203 0
1202 -184 1203 0
-1202 184 1203 0
1203 186 -1204 0
-1203 -186 -1204 0
1203 -186 1204 0
-1203 186 1204 0
1204 187 -1205 0
-1204 -187 -1205 0
1204 -187 1205 0
-1204 187 1205 0
1205 188 -1206 0
-1205 -188 -1206 0
1205 -188 1206 0
-1205 188 1206 0
1206 193 -1207 0
-1206 -193 -1207 0
1206 -193 1207 0
-1206 193 1207 0
1207 194 -1208 0
-1207 -194 -1208 0
1207 -194 1208 0
-1207 194 1208 0
1208 195 -1209 0
-1208 -195 -1209 0
1208 -195 1209 0
-1208 195 1209 0
1209 196 -1210 0
-1209 -196 -1210 0
1209 -196 1210 0
-1209 196 1210 0
1210 198 -1211 0
-1210 -198 -1211 0
1210 -198 1211 0
-1210 198 1211 0
1211 199 -1212 0
-1211 -199 -1212 0
1211 -199 1212 0
-1211 199 1212 0
1212 200 -1213 0
-1212 -200 -1213 0
1212 -200 1213 0
-1212 200 1213 0
9 106 -1214 0
-9 -106 -1214 0
9 -106 1214 0
-9 106 1214 0
1214 107 -1215 0
-1214 -107 -1215 0
1214 -107 1215 0
-1214 107 1215 0
1215 108 -1216 0
-1215 -108 -1216 0
1215 -108 1216 0
-1215 108 1216 0
1216 109 -1217 0
-1216 -109 -1217 0
1216 -109 1217 0
-1216 109 1217 0
1217 194 -1218 0
-1217 -194 -1218 0
1217 -194 1218 0
-1217 194 1218 0
1218 195 -1219 0
-1218 -195 -1219 0
1218 -195 1219 0
-1218 195 1219 0
1219 196 -1220 0
-1219 -196 -1220 0
1219 -196 1220 0
-1219 196 1220 0
1220 197 -1221 0
-1220 -197 -1221 0
1220 -197 1221 0
-1220 197 1221 0
10 107 -1222 0
-10 -107 -1222 0
10 -107 1222 0
-10 107 1222 0
1222 108 -1223 0
-1222 -108 -1223 0
1222 -108 1223 0
-1222 108 1223 0
1223 109 -1224 0
-1223 -109 -1224 0
1223 -109 1224 0
-1223 109 1224 0
1224 110 -1225 0
-1224 -110 -1225 0
1224 -110 1225 0
-1224 110 1225 0
1225 195 -1226 0
-1225 -195 -1226 0
1225 -195 1226 0
-1225 195 1226 0
1226 196 -1227 0
-1226 -196 -1227 0
1226 -196 1227 0
-1226 196 1227 0
1227 197 -1228 0
-1227 -197 -1228 0
1227 -197 1228 0
-1227 197 1228 0
1228 198 -1229 0
-1228 -198 -1229 0
1228 -198 1229 0
-1228 198 1229 0
11 108 -1230 0
-11 -108 -1230 0
11 -108 1230 0
-11 108 1230 0
1230 109 -1231 0
-1230 -109 -1231 0
1230 -109 1231 0
-1230 109 1231 0
1231 110 -1232 0
-1231 -110 -1232 0
1231 -110 1232 0
-1231 110 1232 0
1232 111 -1233 0
-1232 -111 -1233 0
1232 -111 1233 0
-1232 111 1233 0
1233 196 -1234 0
-1233 -196 -1234 0
1233 -196 1234 0
-1233 196 1234 0
1234 197 -1235 0
-1234 -197 -1235 0
1234 -197 1235 0
-1234 197 1235 0
1235 198 -1236 0
-1235 -198 -1236 0
1235 -198 1236 0
-1235 198 1236 0
1236 199 -1237 0
-1236 -199 -1237 0
1236 -199 1237 0
-1236 199 1237 0
929 979 1050 1142 1213 1221 1229 1237 0
1 0
-1246 1240 1247 0
-1243 1240 1247 0
-1243 -1246 1247 0
-1247 1238 0
-1244 1238 0
-1247 -1244 1239 0
-1245 1239 0
-1247 -1245 0
-1241 1238 0
-1247 -1241 1239 0
-1242 1239 0
-1247 -1242 0
-1241 -1244 1239 0
-1247 -1241 -1244 0
-1241 -1245 0
-1247 -1241 -1245 0
-1242 -1244 0
-1247 -1242 -1244 0
-1242 -1245 0
-1247 -1242 -1245 0
-1253 1246 1254 0
-1250 1246 1254 0
-1250 -1253 1254 0
-1254 1244 0
-1251 1244 0
-1254 -1251 1245 0
-1252 1245 0
-1254 -1252 0
-1248 1244 0
-1254 -1248 1245 0
-1249 1245 0
-1254 -1249 0
-1248 -1251 1245 0
-1254 -1248 -1251 0
-1248 -1252 0
-1254 -1248 -1252 0
-1249 -1251 0
-1254 -1249 -1251 0
-1249 -1252 0
-1254 -1249 -1252 0
-1260 1253 1261 0
-1257 1253 1261 0
-1257 -1260 1261 0
-1261 1251 0
-1258 1251 0
-1261 -1258 1252 0
-1259 1252 0
-1261 -1259 0
-1255 1251 0
-1261 -1255 1252 0
-1256 1252 0
-1261 -1256 0
-1255 -1258 1252 0
-1261 -1255 -1258 0
-1255 -1259 0
-1261 -1255 -1259 0
-1256 -1258 0
-1261 -1256 -1258 0
-1256 -1259 0
-1261 -1256 -1259 0
-1267 1260 1268 0
-1264 1260 1268 0
-1264 -1267 1268 0
-1268 1258 0
-1265 1258 0
-1268 -1265 1259 0
-1266 1259 0
-1268 -1266 0
-1262 1258 0
-1268 -1262 1259 0
-1263 1259 0
-1268 -1263 0
-1262 -1265 1259 0
-1268 -1262 -1265 0
-1262 -1266 0
-1268 -1262 -1266 0
-1263 -1265 0
-1268 -1263 -1265 0
-1263 -1266 0
-1268 -1263 -1266 0
-1274 1267 1275 0
-1271 1267 1275 0
-1271 -1274 1275 0
-1275 1265 0
-1272 1265 0
-1275 -1272 1266 0
-1273 1266 0
-1275 -1273 0
-1269 1265 0
-1275 -1269 1266 0
-1270 1266 0
-1275 -1270 0
-1269 -1272 1266 0
-1275 -1269 -1272 0
-1269 -1273 0
-1275 -1269 -1273 0
-1270 -1272 0
-1275 -1270 -1272 0
-1270 -1273 0
-1275 -1270 -1273 0
-1279 1274 1280 0
-1277 1274 1280 0
-1277 -1279 1280 0
-1280 1272 0
-1278 1272 0
-1280 -1278 1273 0
-1276 1272 0
-1280 -1276 1273 0
-1276 -1278 1273 0
-1280 -1276 -1278 0
-200 1279 1283 0
-1282 1279 1283 0
-1282 -200 1283 0
-1283 1278 0
-1281 1278 0
-1283 -1281 0
-199 1282 1284 0
-198 1282 1284 0
-198 -199 1284 0
-1284 1281 0
-197 1277 1287 0
-1286 1277 1287 0
-1286 -197 1287 0
-1287 1276 0
-1285 1276 0
-1287 -1285 0
-196 1286 1288 0
-195 1286 1288 0
-195 -196 1288 0
-1288 1285 0
-1292 1271 1293 0
-1290 1271 1293 0
-1290 -1292 1293 0
-1293 1269 0
-1291 1269 0
-1293 -1291 1270 0
-1289 1269 0
-1293 -1289 1270 0
-1289 -1291 1270 0
-1293 -1289 -1291 0
-194 1292 1296 0
-1295 1292 1296 0
-1295 -194 1296 0
-1296 1291 0
-1294 1291 0
-1296 -1294 0
-193 1295 1297 0
-192 1295 1297 0
-192 -193 1297 0
-1297 1294 0
-191 1290 1300 0
-1299 1290 1300 0
-1299 -191 1300 0
-1300 1289 0
-1298 1289 0
-1300 -1298 0
-190 1299 1301 0
-189 1299 1301 0
-189 -190 1301 0
-1301 1298 0
-1307 1264 1308 0
-1304 1264 1308 0
-1304 -1307 1308 0
-1308 1262 0
-1305 1262 0
-1308 -1305 1263 0
-1306 1263 0
-1308 -1306 0
-1302 1262 0
-1308 -1302 1263 0
-1303 1263 0
-1308 -1303 0
-1302 -1305 1263 0
-1308 -1302 -1305 0
-1302 -1306 0
-1308 -1302 -1306 0
-1303 -1305 0
-1308 -1303 -1305 0
-1303 -1306 0
-1308 -1303 -1306 0
-1312 1307 1313 0
-1310 1307 1313 0
-1310 -1312 1313 0
-1313 1305 0
-1311 1305 0
-1313 -1311 1306 0
-1309 1305 0
-1313 -1309 1306 0
-1309 -1311 1306 0
-1313 -1309 -1311 0
-188 1312 1316 0
-1315 1312 1316 0
-1315 -188 1316 0
-1316 1311 0
-1314 1311 0
-1316 -1314 0
-187 1315 1317 0
-186 1315 1317 0
-186 -187 1317 0
-1317 1314 0
-185 1310 1320 0
-1319 1310 1320 0
-1319 -185 1320 0
-1320 1309 0
-1318 1309 0
-1320 -1318 0
-184 1319 1321 0
-183 1319 1321 0
-183 -184 1321 0
-1321 1318 0
-1326 1304 1327 0
-1324 1304 1327 0
-1324 -1326 1327 0
-1327 1302 0
-1325 1302 0
-1327 -1325 1303 0
-1322 1302 0
-1327 -1322 1303 0
-1323 1303 0
-1327 -1323 0
-1322 -1325 1303 0
-1327 -1322 -1325 0
-1323 -1325 0
-1327 -1323 -1325 0
-182 1326 1330 0
-1329 1326 1330 0
-1329 -182 1330 0
-1330 1325 0
-1328 1325 0
-1330 -1328 0
-181 1329 1331 0
-180 1329 1331 0
-180 -181 1331 0
-1331 1328 0
-1335 1324 1336 0
-1333 1324 1336 0
-1333 -1335 1336 0
-1336 1322 0
-1334 1322 0
-1336 -1334 1323 0
-1332 1322 0
-1336 -1332 1323 0
-1332 -1334 1323 0
-1336 -1332 -1334 0
-179 1335 1337 0
-178 1335 1337 0
-178 -179 1337 0
-1337 1334 0
-177 1333 1338 0
-176 1333 1338 0
-176 -177 1338 0
-1338 1332 0
-1344 1257 1345 0
-1341 1257 1345 0
-1341 -1344 1345 0
-1345 1255 0
-1342 1255 0
-1345 -1342 1256 0
-1343 1256 0
-1345 -1343 0
-1339 1255 0
-1345 -1339 1256 0
-1340 1256 0
-1345 -1340 0
-1339 -1342 1256 0
-1345 -1339 -1342 0
-1339 -1343 0
-1345 -1339 -1343 0
-1340 -1342 0
-1345 -1340 -1342 0
-1340 -1343 0
-1345 -1340 -1343 0
-1351 1344 1352 0
-1348 1344 1352 0
-1348 -1351 1352 0
-1352 1342 0
-1349 1342 0
-1352 -1349 1343 0
-1350 1343 0
-1352 -1350 0
-1346 1342 0
-1352 -1346 1343 0
-1347 1343 0
-1352 -1347 0
-1346 -1349 1343 0
-1352 -1346 -1349 0
-1346 -1350 0
-1352 -1346 -1350 0
-1347 -1349 0
-1352 -1347 -1349 0
-1347 -1350 0
-1352 -1347 -1350 0
-1356 1351 1357 0
-1354 1351 1357 0
-1354 -1356 1357 0
-1357 1349 0
-1355 1349 0
-1357 -1355 1350 0
-1353 1349 0
-1357 -1353 1350 0
-1353 -1355 1350 0
-1357 -1353 -1355 0
-175 1356 1360 0
-1359 1356 1360 0
-1359 -175 1360 0
-1360 1355 0
-1358 1355 0
-1360 -1358 0
-174 1359 1361 0
-173 1359 1361 0
-173 -174 1361 0
-1361 1358 0
-172 1354 1364 0
-1363 1354 1364 0
-1363 -172 1364 0
-1364 1353 0
-1362 1353 0
-1364 -1362 0
-171 1363 1365 0
-170 1363 1365 0
-170 -171 1365 0
-1365 1362 0
-1369 1348 1370 0
-1367 1348 1370 0
-1367 -1369 1370 0
-1370 1346 0
-1368 1346 0
-1370 -1368 1347 0
-1366 1346 0
-1370 -1366 1347 0
-1366 -1368 1347 0
-1370 -1366 -1368 0
-169 1369 1373 0
-1372 1369 1373 0
-1372 -169 1373 0
-1373 1368 0
-1371 1368 0
-1373 -1371 0
-168 1372 1374 0
-167 1372 1374 0
-167 -168 1374 0
-1374 1371 0
-166 1367 1377 0
-1376 1367 1377 0
-1376 -166 1377 0
-1377 1366 0
-1375 1366 0
-1377 -1375 0
-165 1376 1378 0
-164 1376 1378 0
-164 -165 1378 0
-1378 1375 0
-1384 1341 1385 0
-1381 1341 1385 0
-1381 -1384 1385 0
-1385 1339 0
-1382 1339 0
-1385 -1382 1340 0
-1383 1340 0
-1385 -1383 0
-1379 1339 0
-1385 -1379 1340 0
-1380 1340 0
-1385 -1380 0
-1379 -1382 1340 0
-1385 -1379 -1382 0
-1379 -1383 0
-1385 -1379 -1383 0
-1380 -1382 0
-1385 -1380 -1382 0
-1380 -1383 0
-1385 -1380 -1383 0
-1389 1384 1390 0
-1387 1384 1390 0
-1387 -1389 1390 0
-1390 1382 0
-1388 1382 0
-1390 -1388 1383 0
-1386 1382 0
-1390 -1386 1383 0
-1386 -1388 1383 0
-1390 -1386 -1388 0
-163 1389 1393 0
-1392 1389 1393 0
-1392 -163 1393 0
-1393 1388 0
-1391 1388 0
-1393 -1391 0
-162 1392 1394 0
-161 1392 1394 0
-161 -162 1394 0
-1394 1391 0
-160 1387 1397 0
-1396 1387 1397 0
-1396 -160 1397 0
-1397 1386 0
-1395 1386 0
-1397 -1395 0
-159 1396 1398 0
-158 1396 1398 0
-158 -159 1398 0
-1398 1395 0
-1403 1381 1404 0
-1401 1381 1404 0
-1401 -1403 1404 0
-1404 1379 0
-1402 1379 0
-1404 -1402 1380 0
-1399 1379 0
-1404 -1399 1380 0
-1400 1380 0
-1404 -1400 0
-1399 -1402 1380 0
-1404 -1399 -1402 0
-1400 -1402 0
-1404 -1400 -1402 0
-157 1403 1407 0
-1406 1403 1407 0
-1406 -157 1407 0
-1407 1402 0
-1405 1402 0
-1407 -1405 0
-156 1406 1408 0
-155 1406 1408 0
-155 -156 1408 0
-1408 1405 0
-1412 1401 1413 0
-1410 1401 1413 0
-1410 -1412 1413 0
-1413 1399 0
-1411 1399 0
-1413 -1411 1400 0
-1409 1399 0
-1413 -1409 1400 0
-1409 -1411 1400 0
-1413 -1409 -1411 0
-154 1412 1414 0
-153 1412 1414 0
-153 -154 1414 0
-1414 1411 0
-152 1410 1415 0
-151 1410 1415 0
-151 -152 1415 0
-1415 1409 0
-1421 1250 1422 0
-1418 1250 1422 0
-1418 -1421 1422 0
-1422 1248 0
-1419 1248 0
-1422 -1419 1249 0
-1420 1249 0
-1422 -1420 0
-1416 1248 0
-1422 -1416 1249 0
-1417 1249 0
-1422 -1417 0
-1416 -1419 1249 0
-1422 -1416 -1419 0
-1416 -1420 0
-1422 -1416 -1420 0
-1417 -1419 0
-1422 -1417 -1419 0
-1417 -1420 0
-1422 -1417 -1420 0
-1428 1421 1429 0
-1425 1421 1429 0
-1425 -1428 1429 0
-1429 1419 0
-1426 1419 0
-1429 -1426 1420 0
-1427 1420 0
-1429 -1427 0
-1423 1419 0
-1429 -1423 1420 0
-1424 1420 0
-1429 -1424 0
-1423 -1426 1420 0
-1429 -1423 -1426 0
-1423 -1427 0
-1429 -1423 -1427 0
-1424 -1426 0
-1429 -1424 -1426 0
-1424 -1427 0
-1429 -1424 -1427 0
-1435 1428 1436 0
-1432 1428 1436 0
-1432 -1435 1436 0
-1436 1426 0
-1433 1426 0
-1436 -1433 1427 0
-1434 1427 0
-1436 -1434 0
-1430 1426 0
-1436 -1430 1427 0
-1431 1427 0
-1436 -1431 0
-1430 -1433 1427 0
-1436 -1430 -1433 0
-1430 -1434 0
-1436 -1430 -1434 0
-1431 -1433 0
-1436 -1431 -1433 0
-1431 -1434 0
-1436 -1431 -1434 0
-1440 1435 1441 0
-1438 1435 1441 0
-1438 -1440 1441 0
-1441 1433 0
-1439 1433 0
-1441 -1439 1434 0
-1437 1433 0
-1441 -1437 1434 0
-1437 -1439 1434 0
-1441 -1437 -1439 0
-150 1440 1444 0
-1443 1440 1444 0
-1443 -150 1444 0
-1444 1439 0
-1442 1439 0
-1444 -1442 0
-149 1443 1445 0
-148 1443 1445 0
-148 -149 1445 0
-1445 1442 0
-147 1438 1448 0
-1447 1438 1448 0
-1447 -147 1448 0
-1448 1437 0
-1446 1437 0
-1448 -1446 0
-146 1447 1449 0
-145 1447 1449 0
-145 -146 1449 0
-1449 1446 0
-1453 1432 1454 0
-1451 1432 1454 0
-1451 -1453 1454 0
-1454 1430 0
-1452 1430 0
-1454 -1452 1431 0
-1450 1430 0
-1454 -1450 1431 0
-1450 -1452 1431 0
-1454 -1450 -1452 0
-144 1453 1457 0
-1456 1453 1457 0
-1456 -144 1457 0
-1457 1452 0
-1455 1452 0
-1457 -1455 0
-143 1456 1458 0
-142 1456 1458 0
-142 -143 1458 0
-1458 1455 0
-141 1451 1461 0
-1460 1451 1461 0
-1460 -141 1461 0
-1461 1450 0
-1459 1450 0
-1461 -1459 0
-140 1460 1462 0
-139 1460 1462 0
-139 -140 1462 0
-1462 1459 0
-1468 1425 1469 0
-1465 1425 1469 0
-1465 -1468 1469 0
-1469 1423 0
-1466 1423 0
-1469 -1466 1424 0
-1467 1424 0
-1469 -1467 0
-1463 1423 0
-1469 -1463 1424 0
-1464 1424 0
-1469 -1464 0
-1463 -1466 1424 0
-1469 -1463 -1466 0
-1463 -1467 0
-1469 -1463 -1467 0
-1464 -1466 0
-1469 -1464 -1466 0
-1464 -1467 0
-1469 -1464 -1467 0
-1473 1468 1474 0
-1471 1468 1474 0
-1471 -1473 1474 0
-1474 1466 0
-1472 1466 0
-1474 -1472 1467 0
-1470 1466 0
-1474 -1470 1467 0
-1470 -1472 1467 0
-1474 -1470 -1472 0
-138 1473 1477 0
-1476 1473 1477 0
-1476 -138 1477 0
-1477 1472 0
-1475 1472 0
-1477 -1475 0
-137 1476 1478 0
-136 1476 1478 0
-136 -137 1478 0
-1478 1475 0
-135 1471 1481 0
-1480 1471 1481 0
-1480 -135 1481 0
-1481 1470 0
-1479 1470 0
-1481 -1479 0
-134 1480 1482 0
-133 1480 1482 0
-133 -134 1482 0
-1482 1479 0
-1487 1465 1488 0
-1485 1465 1488 0
-1485 -1487 1488 0
-1488 1463 0
-1486 1463 0
-1488 -1486 1464 0
-1483 1463 0
-1488 -1483 1464 0
-1484 1464 0
-1488 -1484 0
-1483 -1486 1464 0
-1488 -1483 -1486 0
-1484 -1486 0
-1488 -1484 -1486 0
-132 1487 1491 0
-1490 1487 1491 0
-1490 -132 1491 0
-1491 1486 0
-1489 1486 0
-1491 -1489 0
-131 1490 1492 0
-130 1490 1492 0
-130 -131 1492 0
-1492 1489 0
-1496 1485 1497 0
-1494 1485 1497 0
-1494 -1496 1497 0
-1497 1483 0
-1495 1483 0
-1497 -1495 1484 0
-1493 1483 0
-1497 -1493 1484 0
-1493 -1495 1484 0
-1497 -1493 -1495 0
-129 1496 1498 0
-128 1496 1498 0
-128 -129 1498 0
-1498 1495 0
-127 1494 1499 0
-126 1494 1499 0
-126 -127 1499 0
-1499 1493 0
-1505 1418 1506 0
-1502 1418 1506 0
-1502 -1505 1506 0
-1506 1416 0
-1503 1416 0
-1506 -1503 1417 0
-1504 1417 0
-1506 -1504 0
-1500 1416 0
-1506 -1500 1417 0
-1501 1417 0
-1506 -1501 0
-1500 -1503 1417 0
-1506 -1500 -1503 0
-1500 -1504 0
-1506 -1500 -1504 0
-1501 -1503 0
-1506 -1501 -1503 0
-1501 -1504 0
-1506 -1501 -1504 0
-1512 1505 1513 0
-1509 1505 1513 0
-1509 -1512 1513 0
-1513 1503 0
-1510 1503 0
-1513 -1510 1504 0
-1511 1504 0
-1513 -1511 0
-1507 1503 0
-1513 -1507 1504 0
-1508 1504 0
-1513 -1508 0
-1507 -1510 1504 0
-1513 -1507 -1510 0
-1507 -1511 0
-1513 -1507 -1511 0
-1508 -1510 0
-1513 -1508 -1510 0
-1508 -1511 0
-1513 -1508 -1511 0
-1517 1512 1518 0
-1515 1512 1518 0
-1515 -1517 1518 0
-1518 1510 0
-1516 1510 0
-1518 -1516 1511 0
-1514 1510 0
-1518 -1514 1511 0
-1514 -1516 1511 0
-1518 -1514 -1516 0
-125 1517 1521 0
-1520 1517 1521 0
-1520 -125 1521 0
-1521 1516 0
-1519 1516 0
-1521 -1519 0
-124 1520 1522 0
-123 1520 1522 0
-123 -124 1522 0
-1522 1519 0
-122 1515 1525 0
-1524 1515 1525 0
-1524 -122 1525 0
-1525 1514 0
-1523 1514 0
-1525 -1523 0
-121 1524 1526 0
-120 1524 1526 0
-120 -121 1526 0
-1526 1523 0
-1530 1509 1531 0
-1528 1509 1531 0
-1528 -1530 1531 0
-1531 1507 0
-1529 1507 0
-1531 -1529 1508 0
-1527 1507 0
-1531 -1527 1508 0
-1527 -1529 1508 0
-1531 -1527 -1529 0
-119 1530 1534 0
-1533 1530 1534 0
-1533 -119 1534 0
-1534 1529 0
-1532 1529 0
-1534 -1532 0
-118 1533 1535 0
-117 1533 1535 0
-117 -118 1535 0
-1535 1532 0
-116 1528 1538 0
-1537 1528 1538 0
-1537 -116 1538 0
-1538 1527 0
-1536 1527 0
-1538 -1536 0
-115 1537 1539 0
-114 1537 1539 0
-114 -115 1539 0
-1539 1536 0
-1545 1502 1546 0
-1542 1502 1546 0
-1542 -1545 1546 0
-1546 1500 0
-1543 1500 0
-1546 -1543 1501 0
-1544 1501 0
-1546 -1544 0
-1540 1500 0
-1546 -1540 1501 0
-1541 1501 0
-1546 -1541 0
-1540 -1543 1501 0
-1546 -1540 -1543 0
-1540 -1544 0
-1546 -1540 -1544 0
-1541 -1543 0
-1546 -1541 -1543 0
-1541 -1544 0
-1546 -1541 -1544 0
-1550 1545 1551 0
-1548 1545 1551 0
-1548 -1550 1551 0
-1551 1543 0
-1549 1543 0
-1551 -1549 1544 0
-1547 1543 0
-1551 -1547 1544 0
-1547 -1549 1544 0
-1551 -1547 -1549 0
-113 1550 1554 0
-1553 1550 1554 0
-1553 -113 1554 0
-1554 1549 0
-1552 1549 0
-1554 -1552 0
-112 1553 1555 0
-111 1553 1555 0
-111 -112 1555 0
-1555 1552 0
-110 1548 1558 0
-1557 1548 1558 0
-1557 -110 1558 0
-1558 1547 0
-1556 1547 0
-1558 -1556 0
-109 1557 1559 0
-108 1557 1559 0
-108 -109 1559 0
-1559 1556 0
-1564 1542 1565 0
-1562 1542 1565 0
-1562 -1564 1565 0
-1565 1540 0
-1563 1540 0
-1565 -1563 1541 0
-1560 1540 0
-1565 -1560 1541 0
-1561 1541 0
-1565 -1561 0
-1560 -1563 1541 0
-1565 -1560 -1563 0
-1561 -1563 0
-1565 -1561 -1563 0
-107 1564 1568 0
-1567 1564 1568 0
-1567 -107 1568 0
-1568 1563 0
-1566 1563 0
-1568 -1566 0
-106 1567 1569 0
-105 1567 1569 0
-105 -106 1569 0
-1569 1566 0
-1573 1562 1574 0
-1571 1562 1574 0
-1571 -1573 1574 0
-1574 1560 0
-1572 1560 0
-1574 -1572 1561 0
-1570 1560 0
-1574 -1570 1561 0
-1570 -1572 1561 0
-1574 -1570 -1572 0
-104 1573 1575 0
-103 1573 1575 0
-103 -104 1575 0
-1575 1572 0
-102 1571 1576 0
-101 1571 1576 0
-101 -102 1576 0
-1576 1570 0
-1582 1243 1583 0
-1579 1243 1583 0
-1579 -1582 1583 0
-1583 1241 0
-1580 1241 0
-1583 -1580 1242 0
-1581 1242 0
-1583 -1581 0
-1577 1241 0
-1583 -1577 1242 0
-1578 1242 0
-1583 -1578 0
-1577 -1580 1242 0
-1583 -1577 -1580 0
-1577 -1581 0
-1583 -1577 -1581 0
-1578 -1580 0
-1583 -1578 -1580 0
-1578 -1581 0
-1583 -1578 -1581 0
-1589 1582 1590 0
-1586 1582 1590 0
-1586 -1589 1590 0
-1590 1580 0
-1587 1580 0
-1590 -1587 1581 0
-1588 1581 0
-1590 -1588 0
-1584 1580 0
-1590 -1584 1581 0
-1585 1581 0
-1590 -1585 0
-1584 -1587 1581 0
-1590 -1584 -1587 0
-1584 -1588 0
-1590 -1584 -1588 0
-1585 -1587 0
-1590 -1585 -1587 0
-1585 -1588 0
-1590 -1585 -1588 0
-1596 1589 1597 0
-1593 1589 1597 0
-1593 -1596 1597 0
-1597 1587 0
-1594 1587 0
-1597 -1594 1588 0
-1595 1588 0
-1597 -1595 0
-1591 1587 0
-1597 -1591 1588 0
-1592 1588 0
-1597 -1592 0
-1591 -1594 1588 0
-1597 -1591 -1594 0
-1591 -1595 0
-1597 -1591 -1595 0
-1592 -1594 0
-1597 -1592 -1594 0
-1592 -1595 0
-1597 -1592 -1595 0
-1603 1596 1604 0
-1600 1596 1604 0
-1600 -1603 1604 0
-1604 1594 0
-1601 1594 0
-1604 -1601 1595 0
-1602 1595 0
-1604 -1602 0
-1598 1594 0
-1604 -1598 1595 0
-1599 1595 0
-1604 -1599 0
-1598 -1601 1595 0
-1604 -1598 -1601 0
-1598 -1602 0
-1604 -1598 -1602 0
-1599 -1601 0
-1604 -1599 -1601 0
-1599 -1602 0
-1604 -1599 -1602 0
-1608 1603 1609 0
-1606 1603 1609 0
-1606 -1608 1609 0
-1609 1601 0
-1607 1601 0
-1609 -1607 1602 0
-1605 1601 0
-1609 -1605 1602 0
-1605 -1607 1602 0
-1609 -1605 -1607 0
-100 1608 1612 0
-1611 1608 1612 0
-1611 -100 1612 0
-1612 1607 0
-1610 1607 0
-1612 -1610 0
-99 1611 1613 0
-98 1611 1613 0
-98 -99 1613 0
-1613 1610 0
-97 1606 1616 0
-1615 1606 1616 0
-1615 -97 1616 0
-1616 1605 0
-1614 1605 0
-1616 -1614 0
-96 1615 1617 0
-95 1615 1617 0
-95 -96 1617 0
-1617 1614 0
-1621 1600 1622 0
-1619 1600 1622 0
-1619 -1621 1622 0
-1622 1598 0
-1620 1598 0
-1622 -1620 1599 0
-1618 1598 0
-1622 -1618 1599 0
-1618 -1620 1599 0
-1622 -1618 -1620 0
-94 1621 1625 0
-1624 1621 1625 0
-1624 -94 1625 0
-1625 1620 0
-1623 1620 0
-1625 -1623 0
-93 1624 1626 0
-92 1624 1626 0
-92 -93 1626 0
-1626 1623 0
-91 1619 1629 0
-1628 1619 1629 0
-1628 -91 1629 0
-1629 1618 0
-1627 1618 0
-1629 -1627 0
-90 1628 1630 0
-89 1628 1630 0
-89 -90 1630 0
-1630 1627 0
-1636 1593 1637 0
-1633 1593 1637 0
-1633 -1636 1637 0
-1637 1591 0
-1634 1591 0
-1637 -1634 1592 0
-1635 1592 0
-1637 -1635 0
-1631 1591 0
-1637 -1631 1592 0
-1632 1592 0
-1637 -1632 0
-1631 -1634 1592 0
-1637 -1631 -1634 0
-1631 -1635 0
-1637 -1631 -1635 0
-1632 -1634 0
-1637 -1632 -1634 0
-1632 -1635 0
-1637 -1632 -1635 0
-1641 1636 1642 0
-1639 1636 1642 0
-1639 -1641 1642 0
-1642 1634 0
-1640 1634 0
-1642 -1640 1635 0
-1638 1634 0
-1642 -1638 1635 0
-1638 -1640 1635 0
-1642 -1638 -1640 0
-88 1641 1645 0
-1644 1641 1645 0
-1644 -88 1645 0
-1645 1640 0
-1643 1640 0
-1645 -1643 0
-87 1644 1646 0
-86 1644 1646 0
-86 -87 1646 0
-1646 1643 0
-85 1639 1649 0
-1648 1639 1649 0
-1648 -85 1649 0
-1649 1638 0
-1647 1638 0
-1649 -1647 0
-84 1648 1650 0
-83 1648 1650 0
-83 -84 1650 0
-1650 1647 0
-1655 1633 1656 0
-1653 1633 1656 0
-1653 -1655 1656 0
-1656 1631 0
-1654 1631 0
-1656 -1654 1632 0
-1651 1631 0
-1656 -1651 1632 0
-1652 1632 0
-1656 -1652 0
-1651 -1654 1632 0
-1656 -1651 -1654 0
-1652 -1654 0
-1656 -1652 -1654 0
-82 1655 1659 0
-1658 1655 1659 0
-1658 -82 1659 0
-1659 1654 0
-1657 1654 0
-1659 -1657 0
-81 1658 1660 0
-80 1658 1660 0
-80 -81 1660 0
-1660 1657 0
-1664 1653 1665 0
-1662 1653 1665 0
-1662 -1664 1665 0
-1665 1651 0
-1663 1651 0
-1665 -1663 1652 0
-1661 1651 0
-1665 -1661 1652 0
-1661 -1663 1652 0
-1665 -1661 -1663 0
-79 1664 1666 0
-78 1664 1666 0
-78 -79 1666 0
-1666 1663 0
-77 1662 1667 0
-76 1662 1667 0
-76 -77 1667 0
-1667 1661 0
-1673 1586 1674 0
-1670 1586 1674 0
-1670 -1673 1674 0
-1674 1584 0
-1671 1584 0
-1674 -1671 1585 0
-1672 1585 0
-1674 -1672 0
-1668 1584 0
-1674 -1668 1585 0
-1669 1585 0
-1674 -1669 0
-1668 -1671 1585 0
-1674 -1668 -1671 0
-1668 -1672 0
-1674 -1668 -1672 0
-1669 -1671 0
-1674 -1669 -1671 0
-1669 -1672 0
-1674 -1669 -1672 0
-1680 1673 1681 0
-1677 1673 1681 0
-1677 -1680 1681 0
-1681 1671 0
-1678 1671 0
-1681 -1678 1672 0
-1679 1672 0
-1681 -1679 0
-1675 1671 0
-1681 -1675 1672 0
-1676 1672 0
-1681 -1676 0
-1675 -1678 1672 0
-1681 -1675 -1678 0
-1675 -1679 0
-1681 -1675 -1679 0
-1676 -1678 0
-1681 -1676 -1678 0
-1676 -1679 0
-1681 -1676 -1679 0
-1685 1680 1686 0
-1683 1680 1686 0
-1683 -1685 1686 0
-1686 1678 0
-1684 1678 0
-1686 -1684 1679 0
-1682 1678 0
-1686 -1682 1679 0
-1682 -1684 1679 0
-1686 -1682 -1684 0
-75 1685 1689 0
-1688 1685 1689 0
-1688 -75 1689 0
-1689 1684 0
-1687 1684 0
-1689 -1687 0
-74 1688 1690 0
-73 1688 1690 0
-73 -74 1690 0
-1690 1687 0
-72 1683 1693 0
-1692 1683 1693 0
-1692 -72 1693 0
-1693 1682 0
-1691 1682 0
-1693 -1691 0
-71 1692 1694 0
-70 1692 1694 0
-70 -71 1694 0
-1694 1691 0
-1698 1677 1699 0
-1696 1677 1699 0
-1696 -1698 1699 0
-1699 1675 0
-1697 1675 0
-1699 -1697 1676 0
-1695 1675 0
-1699 -1695 1676 0
-1695 -1697 1676 0
-1699 -1695 -1697 0
-69 1698 1702 0
-1701 1698 1702 0
-1701 -69 1702 0
-1702 1697 0
-1700 1697 0
-1702 -1700 0
-68 1701 1703 0
-67 1701 1703 0
-67 -68 1703 0
-1703 1700 0
-66 1696 1706 0
-1705 1696 1706 0
-1705 -66 1706 0
-1706 1695 0
-1704 1695 0
-1706 -1704 0
-65 1705 1707 0
-64 1705 1707 0
-64 -65 1707 0
-1707 1704 0
-1713 1670 1714 0
-1710 1670 1714 0
-1710 -1713 1714 0
-1714 1668 0
-1711 1668 0
-1714 -1711 1669 0
-1712 1669 0
-1714 -1712 0
-1708 1668 0
-1714 -1708 1669 0
-1709 1669 0
-1714 -1709 0
-1708 -1711 1669 0
-1714 -1708 -1711 0
-1708 -1712 0
-1714 -1708 -1712 0
-1709 -1711 0
-1714 -1709 -1711 0
-1709 -1712 0
-1714 -1709 -1712 0
-1718 1713 1719 0
-1716 1713 1719 0
-1716 -1718 1719 0
-1719 1711 0
-1717 1711 0
-1719 -1717 1712 0
-1715 1711 0
-1719 -1715 1712 0
-1715 -1717 1712 0
-1719 -1715 -1717 0
-63 1718 1722 0
-1721 1718 1722 0
-1721 -63 1722 0
-1722 1717 0
-1720 1717 0
-1722 -1720 0
-62 1721 1723 0
-61 1721 1723 0
-61 -62 1723 0
-1723 1720 0
-60 1716 1726 0
-1725 1716 1726 0
-1725 -60 1726 0
-1726 1715 0
-1724 1715 0
-1726 -1724 0
-59 1725 1727 0
-58 1725 1727 0
-58 -59 1727 0
-1727 1724 0
-1732 1710 1733 0
-1730 1710 1733 0
-1730 -1732 1733 0
-1733 1708 0
-1731 1708 0
-1733 -1731 1709 0
-1728 1708 0
-1733 -1728 1709 0
-1729 1709 0
-1733 -1729 0
-1728 -1731 1709 0
-1733 -1728 -1731 0
-1729 -1731 0
-1733 -1729 -1731 0
-57 1732 1736 0
-1735 1732 1736 0
-1735 -57 1736 0
-1736 1731 0
-1734 1731 0
-1736 -1734 0
-56 1735 1737 0
-55 1735 1737 0
-55 -56 1737 0
-1737 1734 0
-1741 1730 1742 0
-1739 1730 1742 0
-1739 -1741 1742 0
-1742 1728 0
-1740 1728 0
-1742 -1740 1729 0
-1738 1728 0
-1742 -1738 1729 0
-1738 -1740 1729 0
-1742 -1738 -1740 0
-54 1741 1743 0
-53 1741 1743 0
-53 -54 1743 0
-1743 1740 0
-52 1739 1744 0
-51 1739 1744 0
-51 -52 1744 0
-1744 1738 0
-1750 1579 1751 0
-1747 1579 1751 0
-1747 -1750 1751 0
-1751 1577 0
-1748 1577 0
-1751 -1748 1578 0
-1749 1578 0
-1751 -1749 0
-1745 1577 0
-1751 -1745 1578 0
-1746 1578 0
-1751 -1746 0
-1745 -1748 1578 0
-1751 -1745 -1748 0
-1745 -1749 0
-1751 -1745 -1749 0
-1746 -1748 0
-1751 -1746 -1748 0
-1746 -1749 0
-1751 -1746 -1749 0
-1757 1750 1758 0
-1754 1750 1758 0
-1754 -1757 1758 0
-1758 1748 0
-1755 1748 0
-1758 -1755 1749 0
-1756 1749 0
-1758 -1756 0
-1752 1748 0
-1758 -1752 1749 0
-1753 1749 0
-1758 -1753 0
-1752 -1755 1749 0
-1758 -1752 -1755 0
-1752 -1756 0
-1758 -1752 -1756 0
-1753 -1755 0
-1758 -1753 -1755 0
-1753 -1756 0
-1758 -1753 -1756 0
-1764 1757 1765 0
-1761 1757 1765 0
-1761 -1764 1765 0
-1765 1755 0
-1762 1755 0
-1765 -1762 1756 0
-1763 1756 0
-1765 -1763 0
-1759 1755 0
-1765 -1759 1756 0
-1760 1756 0
-1765 -1760 0
-1759 -1762 1756 0
-1765 -1759 -1762 0
-1759 -1763 0
-1765 -1759 -1763 0
-1760 -1762 0
-1765 -1760 -1762 0
-1760 -1763 0
-1765 -1760 -1763 0
-1769 1764 1770 0
-1767 1764 1770 0
-1767 -1769 1770 0
-1770 1762 0
-1768 1762 0
-1770 -1768 1763 0
-1766 1762 0
-1770 -1766 1763 0
-1766 -1768 1763 0
-1770 -1766 -1768 0
-50 1769 1773 0
-1772 1769 1773 0
-1772 -50 1773 0
-1773 1768 0
-1771 1768 0
-1773 -1771 0
-49 1772 1774 0
-48 1772 1774 0
-48 -49 1774 0
-1774 1771 0
-47 1767 1777 0
-1776 1767 1777 0
-1776 -47 1777 0
-1777 1766 0
-1775 1766 0
-1777 -1775 0
-46 1776 1778 0
-45 1776 1778 0
-45 -46 1778 0
-1778 1775 0
-1782 1761 1783 0
-1780 1761 1783 0
-1780 -1782 1783 0
-1783 1759 0
-1781 1759 0
-1783 -1781 1760 0
-1779 1759 0
-1783 -1779 1760 0
-1779 -1781 1760 0
-1783 -1779 -1781 0
-44 1782 1786 0
-1785 1782 1786 0
-1785 -44 1786 0
-1786 1781 0
-1784 1781 0
-1786 -1784 0
-43 1785 1787 0
-42 1785 1787 0
-42 -43 1787 0
-1787 1784 0
-41 1780 1790 0
-1789 1780 1790 0
-1789 -41 1790 0
-1790 1779 0
-1788 1779 0
-1790 -1788 0
-40 1789 1791 0
-39 1789 1791 0
-39 -40 1791 0
-1791 1788 0
-1797 1754 1798 0
-1794 1754 1798 0
-1794 -1797 1798 0
-1798 1752 0
-1795 1752 0
-1798 -1795 1753 0
-1796 1753 0
-1798 -1796 0
-1792 1752 0
-1798 -1792 1753 0
-1793 1753 0
-1798 -1793 0
-1792 -1795 1753 0
-1798 -1792 -1795 0
-1792 -1796 0
-1798 -1792 -1796 0
-1793 -1795 0
-1798 -1793 -1795 0
-1793 -1796 0
-1798 -1793 -1796 0
-1802 1797 1803 0
-1800 1797 1803 0
-1800 -1802 1803 0
-1803 1795 0
-1801 1795 0
-1803 -1801 1796 0
-1799 1795 0
-1803 -1799 1796 0
-1799 -1801 1796 0
-1803 -1799 -1801 0
-38 1802 1806 0
-1805 1802 1806 0
-1805 -38 1806 0
-1806 1801 0
-1804 1801 0
-1806 -1804 0
-37 1805 1807 0
-36 1805 1807 0
-36 -37 1807 0
-1807 1804 0
-35 1800 1810 0
-1809 1800 1810 0
-1809 -35 1810 0
-1810 1799 0
-1808 1799 0
-1810 -1808 0
-34 1809 1811 0
-33 1809 1811 0
-33 -34 1811 0
-1811 1808 0
-1816 1794 1817 0
-1814 1794 1817 0
-1814 -1816 1817 0
-1817 1792 0
-1815 1792 0
-1817 -1815 1793 0
-1812 1792 0
-1817 -1812 1793 0
-1813 1793 0
-1817 -1813 0
-1812 -1815 1793 0
-1817 -1812 -1815 0
-1813 -1815 0
-1817 -1813 -1815 0
-32 1816 1820 0
-1819 1816 1820 0
-1819 -32 1820 0
-1820 1815 0
-1818 1815 0
-1820 -1818 0
-31 1819 1821 0
-30 1819 1821 0
-30 -31 1821 0
-1821 1818 0
-1825 1814 1826 0
-1823 1814 1826 0
-1823 -1825 1826 0
-1826 1812 0
-1824 1812 0
-1826 -1824 1813 0
-1822 1812 0
-1826 -1822 1813 0
-1822 -1824 1813 0
-1826 -1822 -1824 0
-29 1825 1827 0
-28 1825 1827 0
-28 -29 1827 0
-1827 1824 0
-27 1823 1828 0
-26 1823 1828 0
-26 -27 1828 0
-1828 1822 0
-1834 1747 1835 0
-1831 1747 1835 0
-1831 -1834 1835 0
-1835 1745 0
-1832 1745 0
-1835 -1832 1746 0
-1833 1746 0
-1835 -1833 0
-1829 1745 0
-1835 -1829 1746 0
-1830 1746 0
-1835 -1830 0
-1829 -1832 1746 0
-1835 -1829 -1832 0
-1829 -1833 0
-1835 -1829 -1833 0
-1830 -1832 0
-1835 -1830 -1832 0
-1830 -1833 0
-1835 -1830 -1833 0
-1841 1834 1842 0
-1838 1834 1842 0
-1838 -1841 1842 0
-1842 1832 0
-1839 1832 0
-1842 -1839 1833 0
-1840 1833 0
-1842 -1840 0
-1836 1832 0
-1842 -1836 1833 0
-1837 1833 0
-1842 -1837 0
-1836 -1839 1833 0
-1842 -1836 -1839 0
-1836 -1840 0
-1842 -1836 -1840 0
-1837 -1839 0
-1842 -1837 -1839 0
-1837 -1840 0
-1842 -1837 -1840 0
-1846 1841 1847 0
-1844 1841 1847 0
-1844 -1846 1847 0
-1847 1839 0
-1845 1839 0
-1847 -1845 1840 0
-1843 1839 0
-1847 -1843 1840 0
-1843 -1845 1840 0
-1847 -1843 -1845 0
-25 1846 1850 0
-1849 1846 1850 0
-1849 -25 1850 0
-1850 1845 0
-1848 1845 0
-1850 -1848 0
-24 1849 1851 0
-23 1849 1851 0
-23 -24 1851 0
-1851 1848 0
-22 1844 1854 0
-1853 1844 1854 0
-1853 -22 1854 0
-1854 1843 0
-1852 1843 0
-1854 -1852 0
-21 1853 1855 0
-20 1853 1855 0
-20 -21 1855 0
-1855 1852 0
-1859 1838 1860 0
-1857 1838 1860 0
-1857 -1859 1860 0
-1860 1836 0
-1858 1836 0
-1860 -1858 1837 0
-1856 1836 0
-1860 -1856 1837 0
-1856 -1858 1837 0
-1860 -1856 -1858 0
-19 1859 1863 0
-1862 1859 1863 0
-1862 -19 1863 0
-1863 1858 0
-1861 1858 0
-1863 -1861 0
-18 1862 1864 0
-17 1862 1864 0
-17 -18 1864 0
-1864 1861 0
-16 1857 1867 0
-1866 1857 1867 0
-1866 -16 1867 0
-1867 1856 0
-1865 1856 0
-1867 -1865 0
-15 1866 1868 0
-14 1866 1868 0
-14 -15 1868 0
-1868 1865 0
-1874 1831 1875 0
-1871 1831 1875 0
-1871 -1874 1875 0
-1875 1829 0
-1872 1829 0
-1875 -1872 1830 0
-1873 1830 0
-1875 -1873 0
-1869 1829 0
-1875 -1869 1830 0
-1870 1830 0
-1875 -1870 0
-1869 -1872 1830 0
-1875 -1869 -1872 0
-1869 -1873 0
-1875 -1869 -1873 0
-1870 -1872 0
-1875 -1870 -1872 0
-1870 -1873 0
-1875 -1870 -1873 0
-1879 1874 1880 0
-1877 1874 1880 0
-1877 -1879 1880 0
-1880 1872 0
-1878 1872 0
-1880 -1878 1873 0
-1876 1872 0
-1880 -1876 1873 0
-1876 -1878 1873 0
-1880 -1876 -1878 0
-13 1879 1883 0
-1882 1879 1883 0
-1882 -13 1883 0
-1883 1878 0
-1881 1878 0
-1883 -1881 0
-12 1882 1884 0
-11 1882 1884 0
-11 -12 1884 0
-1884 1881 0
-10 1877 1887 0
-1886 1877 1887 0
-1886 -10 1887 0
-1887 1876 0
-1885 1876 0
-1887 -1885 0
-9 1886 1888 0
-8 1886 1888 0
-8 -9 1888 0
-1888 1885 0
-1893 1871 1894 0
-1891 1871 1894 0
-1891 -1893 1894 0
-1894 1869 0
-1892 1869 0
-1894 -1892 1870 0
-1889 1869 0
-1894 -1889 1870 0
-1890 1870 0
-1894 -1890 0
-1889 -1892 1870 0
-1894 -1889 -1892 0
-1890 -1892 0
-1894 -1890 -1892 0
-7 1893 1897 0
-1896 1893 1897 0
-1896 -7 1897 0
-1897 1892 0
-1895 1892 0
-1897 -1895 0
-6 1896 1898 0
-5 1896 1898 0
-5 -6 1898 0
-1898 1895 0
-1902 1891 1903 0
-1900 1891 1903 0
-1900 -1902 1903 0
-1903 1889 0
-1901 1889 0
-1903 -1901 1890 0
-1899 1889 0
-1903 -1899 1890 0
-1899 -1901 1890 0
-1903 -1899 -1901 0
-4 1902 1904 0
-3 1902 1904 0
-3 -4 1904 0
-1904 1901 0
-2 1900 1905 0
-1 1900 1905 0
-1 -2 1905 0
-1905 1899 0
