p cnf 1175 3748
1 60 -127 0
-1 -60 -127 0
1 -60 127 0
-1 60 127 0
127 61 -128 0
-127 -61 -128 0
127 -61 128 0
-127 61 128 0
128 63 -129 0
-128 -63 -129 0
128 -63 129 0
-128 63 129 0
129 64 -130 0
-129 -64 -130 0
129 -64 130 0
-129 64 130 0
130 112 -131 0
-130 -112 -131 0
130 -112 131 0
-130 112 131 0
131 118 -132 0
-131 -118 -132 0
131 -118 132 0
-131 118 132 0
132 121 -133 0
-132 -121 -133 0
132 -121 133 0
-132 121 133 0
-133 0
1 2 -134 0
-1 -2 -134 0
1 -2 134 0
-1 2 134 0
134 61 -135 0
-134 -61 -135 0
134 -61 135 0
-134 61 135 0
135 62 -136 0
-135 -62 -136 0
135 -62 136 0
-135 62 136 0
136 65 -137 0
-136 -65 -137 0
136 -65 137 0
-136 65 137 0
137 113 -138 0
-137 -113 -138 0
137 -113 138 0
-137 113 138 0
138 119 -139 0
-138 -119 -139 0
138 -119 139 0
-138 119 139 0
139 122 -140 0
-139 -122 -140 0
139 -122 140 0
-139 122 140 0
-140 0
2 3 -141 0
-2 -3 -141 0
2 -3 141 0
-2 3 141 0
141 62 -142 0
-141 -62 -142 0
141 -62 142 0
-141 62 142 0
142 63 -143 0
-142 -63 -143 0
142 -63 143 0
-142 63 143 0
143 66 -144 0
-143 -66 -144 0
143 -66 144 0
-143 66 144 0
144 114 -145 0
-144 -114 -145 0
144 -114 145 0
-144 114 145 0
145 120 -146 0
-145 -120 -146 0
145 -120 146 0
-145 120 146 0
146 123 -147 0
-146 -123 -147 0
146 -123 147 0
-146 123 147 0
-147 0
1 3 -148 0
-1 -3 -148 0
1 -3 148 0
-1 3 148 0
148 4 -149 0
-148 -4 -149 0
148 -4 149 0
-148 4 149 0
149 63 -150 0
-149 -63 -150 0
149 -63 150 0
-149 63 150 0
150 67 -151 0
-150 -67 -151 0
150 -67 151 0
-150 67 151 0
151 115 -152 0
-151 -115 -152 0
151 -115 152 0
-151 115 152 0
152 121 -153 0
-152 -121 -153 0
152 -121 153 0
-152 121 153 0
153 124 -154 0
-153 -124 -154 0
153 -124 154 0
-153 124 154 0
-154 0
1 2 -155 0
-1 -2 -155 0
1 -2 155 0
-1 2 155 0
155 4 -156 0
-155 -4 -156 0
155 -4 156 0
-155 4 156 0
156 5 -157 0
-156 -5 -157 0
156 -5 157 0
-156 5 157 0
157 68 -158 0
-157 -68 -158 0
157 -68 158 0
-157 68 158 0
158 116 -159 0
-158 -116 -159 0
158 -116 159 0
-158 116 159 0
159 122 -160 0
-159 -122 -160 0
159 -122 160 0
-159 122 160 0
160 125 -161 0
-160 -125 -161 0
160 -125 161 0
-160 125 161 0
-161 0
2 3 -162 0
-2 -3 -162 0
2 -3 162 0
-2 3 162 0
162 5 -163 0
-162 -5 -163 0
162 -5 163 0
-162 5 163 0
163 6 -164 0
-163 -6 -164 0
163 -6 164 0
-163 6 164 0
164 69 -165 0
-164 -69 -165 0
164 -69 165 0
-164 69 165 0
165 117 -166 0
-165 -117 -166 0
165 -117 166 0
-165 117 166 0
166 123 -167 0
-166 -123 -167 0
166 -123 167 0
-166 123 167 0
167 126 -168 0
-167 -126 -168 0
167 -126 168 0
-167 126 168 0
-168 0
3 4 -169 0
-3 -4 -169 0
3 -4 169 0
-3 4 169 0
169 6 -170 0
-169 -6 -170 0
169 -6 170 0
-169 6 170 0
170 7 -171 0
-170 -7 -171 0
170 -7 171 0
-170 7 171 0
171 64 -172 0
-171 -64 -172 0
171 -64 172 0
-171 64 172 0
172 70 -173 0
-172 -70 -173 0
172 -70 173 0
-172 70 173 0
173 118 -174 0
-173 -118 -174 0
173 -118 174 0
-173 118 174 0
174 124 -175 0
-174 -124 -175 0
174 -124 175 0
-174 124 175 0
-175 0
4 5 -176 0
-4 -5 -176 0
4 -5 176 0
-4 5 176 0
176 7 -177 0
-176 -7 -177 0
176 -7 177 0
-176 7 177 0
177 8 -178 0
-177 -8 -178 0
177 -8 178 0
-177 8 178 0
178 65 -179 0
-178 -65 -179 0
178 -65 179 0
-178 65 179 0
179 71 -180 0
-179 -71 -180 0
179 -71 180 0
-179 71 180 0
180 119 -181 0
-180 -119 -181 0
180 -119 181 0
-180 119 181 0
181 125 -182 0
-181 -125 -182 0
181 -125 182 0
-181 125 182 0
-182 0
5 6 -183 0
-5 -6 -183 0
5 -6 183 0
-5 6 183 0
183 8 -184 0
-183 -8 -184 0
183 -8 184 0
-183 8 184 0
184 9 -185 0
-184 -9 -185 0
184 -9 185 0
-184 9 185 0
185 66 -186 0
-185 -66 -186 0
185 -66 186 0
-185 66 186 0
186 72 -187 0
-186 -72 -187 0
186 -72 187 0
-186 72 187 0
187 120 -188 0
-187 -120 -188 0
187 -120 188 0
-187 120 188 0
188 126 -189 0
-188 -126 -189 0
188 -126 189 0
-188 126 189 0
-189 0
6 7 -190 0
-6 -7 -190 0
6 -7 190 0
-6 7 190 0
190 9 -191 0
-190 -9 -191 0
190 -9 191 0
-190 9 191 0
191 10 -192 0
-191 -10 -192 0
191 -10 192 0
-191 10 192 0
192 64 -193 0
-192 -64 -193 0
192 -64 193 0
-192 64 193 0
193 67 -194 0
-193 -67 -194 0
193 -67 194 0
-193 67 194 0
194 73 -195 0
-194 -73 -195 0
194 -73 195 0
-194 73 195 0
195 121 -196 0
-195 -121 -196 0
195 -121 196 0
-195 121 196 0
-196 0
7 8 -197 0
-7 -8 -197 0
7 -8 197 0
-7 8 197 0
197 10 -198 0
-197 -10 -198 0
197 -10 198 0
-197 10 198 0
198 11 -199 0
-198 -11 -199 0
198 -11 199 0
-198 11 199 0
199 65 -200 0
-199 -65 -200 0
199 -65 200 0
-199 65 200 0
200 68 -201 0
-200 -68 -201 0
200 -68 201 0
-200 68 201 0
201 74 -202 0
-201 -74 -202 0
201 -74 202 0
-201 74 202 0
202 122 -203 0
-202 -122 -203 0
202 -122 203 0
-202 122 203 0
-203 0
8 9 -204 0
-8 -9 -204 0
8 -9 204 0
-8 9 204 0
204 11 -205 0
-204 -11 -205 0
204 -11 205 0
-204 11 205 0
205 12 -206 0
-205 -12 -206 0
205 -12 206 0
-205 12 206 0
206 66 -207 0
-206 -66 -207 0
206 -66 207 0
-206 66 207 0
207 69 -208 0
-207 -69 -208 0
207 -69 208 0
-207 69 208 0
208 75 -209 0
-208 -75 -209 0
208 -75 209 0
-208 75 209 0
209 123 -210 0
-209 -123 -210 0
209 -123 210 0
-209 123 210 0
-210 0
9 10 -211 0
-9 -10 -211 0
9 -10 211 0
-9 10 211 0
211 12 -212 0
-211 -12 -212 0
211 -12 212 0
-211 12 212 0
212 13 -213 0
-212 -13 -213 0
212 -13 213 0
-212 13 213 0
213 67 -214 0
-213 -67 -214 0
213 -67 214 0
-213 67 214 0
214 70 -215 0
-214 -70 -215 0
214 -70 215 0
-214 70 215 0
215 76 -216 0
-215 -76 -216 0
215 -76 216 0
-215 76 216 0
216 124 -217 0
-216 -124 -217 0
216 -124 217 0
-216 124 217 0
-217 0
10 11 -218 0
-10 -11 -218 0
10 -11 218 0
-10 11 218 0
218 13 -219 0
-218 -13 -219 0
218 -13 219 0
-218 13 219 0
219 14 -220 0
-219 -14 -220 0
219 -14 220 0
-219 14 220 0
220 68 -221 0
-220 -68 -221 0
220 -68 221 0
-220 68 221 0
221 71 -222 0
-221 -71 -222 0
221 -71 222 0
-221 71 222 0
222 77 -223 0
-222 -77 -223 0
222 -77 223 0
-222 77 223 0
223 125 -224 0
-223 -125 -224 0
223 -125 224 0
-223 125 224 0
-224 0
11 12 -225 0
-11 -12 -225 0
11 -12 225 0
-11 12 225 0
225 14 -226 0
-225 -14 -226 0
225 -14 226 0
-225 14 226 0
226 15 -227 0
-226 -15 -227 0
226 -15 227 0
-226 15 227 0
227 69 -228 0
-227 -69 -228 0
227 -69 228 0
-227 69 228 0
228 72 -229 0
-228 -72 -229 0
228 -72 229 0
-228 72 229 0
229 78 -230 0
-229 -78 -230 0
229 -78 230 0
-229 78 230 0
230 126 -231 0
-230 -126 -231 0
230 -126 231 0
-230 126 231 0
-231 0
12 13 -232 0
-12 -13 -232 0
12 -13 232 0
-12 13 232 0
232 15 -233 0
-232 -15 -233 0
232 -15 233 0
-232 15 233 0
233 16 -234 0
-233 -16 -234 0
233 -16 234 0
-233 16 234 0
234 64 -235 0
-234 -64 -235 0
234 -64 235 0
-234 64 235 0
235 70 -236 0
-235 -70 -236 0
235 -70 236 0
-235 70 236 0
236 73 -237 0
-236 -73 -237 0
236 -73 237 0
-236 73 237 0
237 79 -238 0
-237 -79 -238 0
237 -79 238 0
-237 79 238 0
-238 0
13 14 -239 0
-13 -14 -239 0
13 -14 239 0
-13 14 239 0
239 16 -240 0
-239 -16 -240 0
239 -16 240 0
-239 16 240 0
240 17 -241 0
-240 -17 -241 0
240 -17 241 0
-240 17 241 0
241 65 -242 0
-241 -65 -242 0
241 -65 242 0
-241 65 242 0
242 71 -243 0
-242 -71 -243 0
242 -71 243 0
-242 71 243 0
243 74 -244 0
-243 -74 -244 0
243 -74 244 0
-243 74 244 0
244 80 -245 0
-244 -80 -245 0
244 -80 245 0
-244 80 245 0
-245 0
14 15 -246 0
-14 -15 -246 0
14 -15 246 0
-14 15 246 0
246 17 -247 0
-246 -17 -247 0
246 -17 247 0
-246 17 247 0
247 18 -248 0
-247 -18 -248 0
247 -18 248 0
-247 18 248 0
248 66 -249 0
-248 -66 -249 0
248 -66 249 0
-248 66 249 0
249 72 -250 0
-249 -72 -250 0
249 -72 250 0
-249 72 250 0
250 75 -251 0
-250 -75 -251 0
250 -75 251 0
-250 75 251 0
251 81 -252 0
-251 -81 -252 0
251 -81 252 0
-251 81 252 0
-252 0
15 16 -253 0
-15 -16 -253 0
15 -16 253 0
-15 16 253 0
253 18 -254 0
-253 -18 -254 0
253 -18 254 0
-253 18 254 0
254 19 -255 0
-254 -19 -255 0
254 -19 255 0
-254 19 255 0
255 67 -256 0
-255 -67 -256 0
255 -67 256 0
-255 67 256 0
256 73 -257 0
-256 -73 -257 0
256 -73 257 0
-256 73 257 0
257 76 -258 0
-257 -76 -258 0
257 -76 258 0
-257 76 258 0
258 82 -259 0
-258 -82 -259 0
258 -82 259 0
-258 82 259 0
-259 0
16 17 -260 0
-16 -17 -260 0
16 -17 260 0
-16 17 260 0
260 19 -261 0
-260 -19 -261 0
260 -19 261 0
-260 19 261 0
261 20 -262 0
-261 -20 -262 0
261 -20 262 0
-261 20 262 0
262 68 -263 0
-262 -68 -263 0
262 -68 263 0
-262 68 263 0
263 74 -264 0
-263 -74 -264 0
263 -74 264 0
-263 74 264 0
264 77 -265 0
-264 -77 -265 0
264 -77 265 0
-264 77 265 0
265 83 -266 0
-265 -83 -266 0
265 -83 266 0
-265 83 266 0
-266 0
17 18 -267 0
-17 -18 -267 0
17 -18 267 0
-17 18 267 0
267 20 -268 0
-267 -20 -268 0
267 -20 268 0
-267 20 268 0
268 21 -269 0
-268 -21 -269 0
268 -21 269 0
-268 21 269 0
269 69 -270 0
-269 -69 -270 0
269 -69 270 0
-269 69 270 0
270 75 -271 0
-270 -75 -271 0
270 -75 271 0
-270 75 271 0
271 78 -272 0
-271 -78 -272 0
271 -78 272 0
-271 78 272 0
272 84 -273 0
-272 -84 -273 0
272 -84 273 0
-272 84 273 0
-273 0
18 19 -274 0
-18 -19 -274 0
18 -19 274 0
-18 19 274 0
274 21 -275 0
-274 -21 -275 0
274 -21 275 0
-274 21 275 0
275 22 -276 0
-275 -22 -276 0
275 -22 276 0
-275 22 276 0
276 70 -277 0
-276 -70 -277 0
276 -70 277 0
-276 70 277 0
277 76 -278 0
-277 -76 -278 0
277 -76 278 0
-277 76 278 0
278 79 -279 0
-278 -79 -279 0
278 -79 279 0
-278 79 279 0
279 85 -280 0
-279 -85 -280 0
279 -85 280 0
-279 85 280 0
-280 0
19 20 -281 0
-19 -20 -281 0
19 -20 281 0
-19 20 281 0
281 22 -282 0
-281 -22 -282 0
281 -22 282 0
-281 22 282 0
282 23 -283 0
-282 -23 -283 0
282 -23 283 0
-282 23 283 0
283 71 -284 0
-283 -71 -284 0
283 -71 284 0
-283 71 284 0
284 77 -285 0
-284 -77 -285 0
284 -77 285 0
-284 77 285 0
285 80 -286 0
-285 -80 -286 0
285 -80 286 0
-285 80 286 0
286 86 -287 0
-286 -86 -287 0
286 -86 287 0
-286 86 287 0
-287 0
20 21 -288 0
-20 -21 -288 0
20 -21 288 0
-20 21 288 0
288 23 -289 0
-288 -23 -289 0
288 -23 289 0
-288 23 289 0
289 24 -290 0
-289 -24 -290 0
289 -24 290 0
-289 24 290 0
290 72 -291 0
-290 -72 -291 0
290 -72 291 0
-290 72 291 0
291 78 -292 0
-291 -78 -292 0
291 -78 292 0
-291 78 292 0
292 81 -293 0
-292 -81 -293 0
292 -81 293 0
-292 81 293 0
293 87 -294 0
-293 -87 -294 0
293 -87 294 0
-293 87 294 0
-294 0
21 22 -295 0
-21 -22 -295 0
21 -22 295 0
-21 22 295 0
295 24 -296 0
-295 -24 -296 0
295 -24 296 0
-295 24 296 0
296 25 -297 0
-296 -25 -297 0
296 -25 297 0
-296 25 297 0
297 73 -298 0
-297 -73 -298 0
297 -73 298 0
-297 73 298 0
298 79 -299 0
-298 -79 -299 0
298 -79 299 0
-298 79 299 0
299 82 -300 0
-299 -82 -300 0
299 -82 300 0
-299 82 300 0
300 88 -301 0
-300 -88 -301 0
300 -88 301 0
-300 88 301 0
-301 0
22 23 -302 0
-22 -23 -302 0
22 -23 302 0
-22 23 302 0
302 25 -303 0
-302 -25 -303 0
302 -25 303 0
-302 25 303 0
303 26 -304 0
-303 -26 -304 0
303 -26 304 0
-303 26 304 0
304 74 -305 0
-304 -74 -305 0
304 -74 305 0
-304 74 305 0
305 80 -306 0
-305 -80 -306 0
305 -80 306 0
-305 80 306 0
306 83 -307 0
-306 -83 -307 0
306 -83 307 0
-306 83 307 0
307 89 -308 0
-307 -89 -308 0
307 -89 308 0
-307 89 308 0
-308 0
23 24 -309 0
-23 -24 -309 0
23 -24 309 0
-23 24 309 0
309 26 -310 0
-309 -26 -310 0
309 -26 310 0
-309 26 310 0
310 27 -311 0
-310 -27 -311 0
310 -27 311 0
-310 27 311 0
311 75 -312 0
-311 -75 -312 0
311 -75 312 0
-311 75 312 0
312 81 -313 0
-312 -81 -313 0
312 -81 313 0
-312 81 313 0
313 84 -314 0
-313 -84 -314 0
313 -84 314 0
-313 84 314 0
314 90 -315 0
-314 -90 -315 0
314 -90 315 0
-314 90 315 0
-315 0
24 25 -316 0
-24 -25 -316 0
24 -25 316 0
-24 25 316 0
316 27 -317 0
-316 -27 -317 0
316 -27 317 0
-316 27 317 0
317 28 -318 0
-317 -28 -318 0
317 -28 318 0
-317 28 318 0
318 76 -319 0
-318 -76 -319 0
318 -76 319 0
-318 76 319 0
319 82 -320 0
-319 -82 -320 0
319 -82 320 0
-319 82 320 0
320 85 -321 0
-320 -85 -321 0
320 -85 321 0
-320 85 321 0
321 91 -322 0
-321 -91 -322 0
321 -91 322 0
-321 91 322 0
-322 0
25 26 -323 0
-25 -26 -323 0
25 -26 323 0
-25 26 323 0
323 28 -324 0
-323 -28 -324 0
323 -28 324 0
-323 28 324 0
324 29 -325 0
-324 -29 -325 0
324 -29 325 0
-324 29 325 0
325 77 -326 0
-325 -77 -326 0
325 -77 326 0
-325 77 326 0
326 83 -327 0
-326 -83 -327 0
326 -83 327 0
-326 83 327 0
327 86 -328 0
-327 -86 -328 0
327 -86 328 0
-327 86 328 0
328 92 -329 0
-328 -92 -329 0
328 -92 329 0
-328 92 329 0
-329 0
26 27 -330 0
-26 -27 -330 0
26 -27 330 0
-26 27 330 0
330 29 -331 0
-330 -29 -331 0
330 -29 331 0
-330 29 331 0
331 30 -332 0
-331 -30 -332 0
331 -30 332 0
-331 30 332 0
332 78 -333 0
-332 -78 -333 0
332 -78 333 0
-332 78 333 0
333 84 -334 0
-333 -84 -334 0
333 -84 334 0
-333 84 334 0
334 87 -335 0
-334 -87 -335 0
334 -87 335 0
-334 87 335 0
335 93 -336 0
-335 -93 -336 0
335 -93 336 0
-335 93 336 0
-336 0
27 28 -337 0
-27 -28 -337 0
27 -28 337 0
-27 28 337 0
337 30 -338 0
-337 -30 -338 0
337 -30 338 0
-337 30 338 0
338 31 -339 0
-338 -31 -339 0
338 -31 339 0
-338 31 339 0
339 79 -340 0
-339 -79 -340 0
339 -79 340 0
-339 79 340 0
340 85 -341 0
-340 -85 -341 0
340 -85 341 0
-340 85 341 0
341 88 -342 0
-341 -88 -342 0
341 -88 342 0
-341 88 342 0
342 94 -343 0
-342 -94 -343 0
342 -94 343 0
-342 94 343 0
-343 0
28 29 -344 0
-28 -29 -344 0
28 -29 344 0
-28 29 344 0
344 31 -345 0
-344 -31 -345 0
344 -31 345 0
-344 31 345 0
345 32 -346 0
-345 -32 -346 0
345 -32 346 0
-345 32 346 0
346 80 -347 0
-346 -80 -347 0
346 -80 347 0
-346 80 347 0
347 86 -348 0
-347 -86 -348 0
347 -86 348 0
-347 86 348 0
348 89 -349 0
-348 -89 -349 0
348 -89 349 0
-348 89 349 0
349 95 -350 0
-349 -95 -350 0
349 -95 350 0
-349 95 350 0
-350 0
29 30 -351 0
-29 -30 -351 0
29 -30 351 0
-29 30 351 0
351 32 -352 0
-351 -32 -352 0
351 -32 352 0
-351 32 352 0
352 33 -353 0
-352 -33 -353 0
352 -33 353 0
-352 33 353 0
353 81 -354 0
-353 -81 -354 0
353 -81 354 0
-353 81 354 0
354 87 -355 0
-354 -87 -355 0
354 -87 355 0
-354 87 355 0
355 90 -356 0
-355 -90 -356 0
355 -90 356 0
-355 90 356 0
356 96 -357 0
-356 -96 -357 0
356 -96 357 0
-356 96 357 0
-357 0
30 31 -358 0
-30 -31 -358 0
30 -31 358 0
-30 31 358 0
358 33 -359 0
-358 -33 -359 0
358 -33 359 0
-358 33 359 0
359 34 -360 0
-359 -34 -360 0
359 -34 360 0
-359 34 360 0
360 82 -361 0
-360 -82 -361 0
360 -82 361 0
-360 82 361 0
361 88 -362 0
-361 -88 -362 0
361 -88 362 0
-361 88 362 0
362 91 -363 0
-362 -91 -363 0
362 -91 363 0
-362 91 363 0
363 97 -364 0
-363 -97 -364 0
363 -97 364 0
-363 97 364 0
-364 0
31 32 -365 0
-31 -32 -365 0
31 -32 365 0
-31 32 365 0
365 34 -366 0
-365 -34 -366 0
365 -34 366 0
-365 34 366 0
366 35 -367 0
-366 -35 -367 0
366 -35 367 0
-366 35 367 0
367 83 -368 0
-367 -83 -368 0
367 -83 368 0
-367 83 368 0
368 89 -369 0
-368 -89 -369 0
368 -89 369 0
-368 89 369 0
369 92 -370 0
-369 -92 -370 0
369 -92 370 0
-369 92 370 0
370 98 -371 0
-370 -98 -371 0
370 -98 371 0
-370 98 371 0
-371 0
32 33 -372 0
-32 -33 -372 0
32 -33 372 0
-32 33 372 0
372 35 -373 0
-372 -35 -373 0
372 -35 373 0
-372 35 373 0
373 36 -374 0
-373 -36 -374 0
373 -36 374 0
-373 36 374 0
374 84 -375 0
-374 -84 -375 0
374 -84 375 0
-374 84 375 0
375 90 -376 0
-375 -90 -376 0
375 -90 376 0
-375 90 376 0
376 93 -377 0
-376 -93 -377 0
376 -93 377 0
-376 93 377 0
377 99 -378 0
-377 -99 -378 0
377 -99 378 0
-377 99 378 0
-378 0
33 34 -379 0
-33 -34 -379 0
33 -34 379 0
-33 34 379 0
379 36 -380 0
-379 -36 -380 0
379 -36 380 0
-379 36 380 0
380 37 -381 0
-380 -37 -381 0
380 -37 381 0
-380 37 381 0
381 85 -382 0
-381 -85 -382 0
381 -85 382 0
-381 85 382 0
382 91 -383 0
-382 -91 -383 0
382 -91 383 0
-382 91 383 0
383 94 -384 0
-383 -94 -384 0
383 -94 384 0
-383 94 384 0
384 100 -385 0
-384 -100 -385 0
384 -100 385 0
-384 100 385 0
-385 0
34 35 -386 0
-34 -35 -386 0
34 -35 386 0
-34 35 386 0
386 37 -387 0
-386 -37 -387 0
386 -37 387 0
-386 37 387 0
387 38 -388 0
-387 -38 -388 0
387 -38 388 0
-387 38 388 0
388 86 -389 0
-388 -86 -389 0
388 -86 389 0
-388 86 389 0
389 92 -390 0
-389 -92 -390 0
389 -92 390 0
-389 92 390 0
390 95 -391 0
-390 -95 -391 0
390 -95 391 0
-390 95 391 0
391 101 -392 0
-391 -101 -392 0
391 -101 392 0
-391 101 392 0
-392 0
35 36 -393 0
-35 -36 -393 0
35 -36 393 0
-35 36 393 0
393 38 -394 0
-393 -38 -394 0
393 -38 394 0
-393 38 394 0
394 39 -395 0
-394 -39 -395 0
394 -39 395 0
-394 39 395 0
395 87 -396 0
-395 -87 -396 0
395 -87 396 0
-395 87 396 0
396 93 -397 0
-396 -93 -397 0
396 -93 397 0
-396 93 397 0
397 96 -398 0
-397 -96 -398 0
397 -96 398 0
-397 96 398 0
398 102 -399 0
-398 -102 -399 0
398 -102 399 0
-398 102 399 0
-399 0
36 37 -400 0
-36 -37 -400 0
36 -37 400 0
-36 37 400 0
400 39 -401 0
-400 -39 -401 0
400 -39 401 0
-400 39 401 0
401 40 -402 0
-401 -40 -402 0
401 -40 402 0
-401 40 402 0
402 88 -403 0
-402 -88 -403 0
402 -88 403 0
-402 88 403 0
403 94 -404 0
-403 -94 -404 0
403 -94 404 0
-403 94 404 0
404 97 -405 0
-404 -97 -405 0
404 -97 405 0
-404 97 405 0
405 103 -406 0
-405 -103 -406 0
405 -103 406 0
-405 103 406 0
-406 0
37 38 -407 0
-37 -38 -407 0
37 -38 407 0
-37 38 407 0
407 40 -408 0
-407 -40 -408 0
407 -40 408 0
-407 40 408 0
408 41 -409 0
-408 -41 -409 0
408 -41 409 0
-408 41 409 0
409 89 -410 0
-409 -89 -410 0
409 -89 410 0
-409 89 410 0
410 95 -411 0
-410 -95 -411 0
410 -95 411 0
-410 95 411 0
411 98 -412 0
-411 -98 -412 0
411 -98 412 0
-411 98 412 0
412 104 -413 0
-412 -104 -413 0
412 -104 413 0
-412 104 413 0
-413 0
38 39 -414 0
-38 -39 -414 0
38 -39 414 0
-38 39 414 0
414 41 -415 0
-414 -41 -415 0
414 -41 415 0
-414 41 415 0
415 42 -416 0
-415 -42 -416 0
415 -42 416 0
-415 42 416 0
416 90 -417 0
-416 -90 -417 0
416 -90 417 0
-416 90 417 0
417 96 -418 0
-417 -96 -418 0
417 -96 418 0
-417 96 418 0
418 99 -419 0
-418 -99 -419 0
418 -99 419 0
-418 99 419 0
419 105 -420 0
-419 -105 -420 0
419 -105 420 0
-419 105 420 0
-420 0
39 40 -421 0
-39 -40 -421 0
39 -40 421 0
-39 40 421 0
421 42 -422 0
-421 -42 -422 0
421 -42 422 0
-421 42 422 0
422 43 -423 0
-422 -43 -423 0
422 -43 423 0
-422 43 423 0
423 91 -424 0
-423 -91 -424 0
423 -91 424 0
-423 91 424 0
424 97 -425 0
-424 -97 -425 0
424 -97 425 0
-424 97 425 0
425 100 -426 0
-425 -100 -426 0
425 -100 426 0
-425 100 426 0
426 106 -427 0
-426 -106 -427 0
426 -106 427 0
-426 106 427 0
-427 0
40 41 -428 0
-40 -41 -428 0
40 -41 428 0
-40 41 428 0
428 43 -429 0
-428 -43 -429 0
428 -43 429 0
-428 43 429 0
429 44 -430 0
-429 -44 -430 0
429 -44 430 0
-429 44 430 0
430 92 -431 0
-430 -92 -431 0
430 -92 431 0
-430 92 431 0
431 98 -432 0
-431 -98 -432 0
431 -98 432 0
-431 98 432 0
432 101 -433 0
-432 -101 -433 0
432 -101 433 0
-432 101 433 0
433 107 -434 0
-433 -107 -434 0
433 -107 434 0
-433 107 434 0
-434 0
41 42 -435 0
-41 -42 -435 0
41 -42 435 0
-41 42 435 0
435 44 -436 0
-435 -44 -436 0
435 -44 436 0
-435 44 436 0
436 45 -437 0
-436 -45 -437 0
436 -45 437 0
-436 45 437 0
437 93 -438 0
-437 -93 -438 0
437 -93 438 0
-437 93 438 0
438 99 -439 0
-438 -99 -439 0
438 -99 439 0
-438 99 439 0
439 102 -440 0
-439 -102 -440 0
439 -102 440 0
-439 102 440 0
440 108 -441 0
-440 -108 -441 0
440 -108 441 0
-440 108 441 0
-441 0
42 43 -442 0
-42 -43 -442 0
42 -43 442 0
-42 43 442 0
442 45 -443 0
-442 -45 -443 0
442 -45 443 0
-442 45 443 0
443 46 -444 0
-443 -46 -444 0
443 -46 444 0
-443 46 444 0
444 94 -445 0
-444 -94 -445 0
444 -94 445 0
-444 94 445 0
445 100 -446 0
-445 -100 -446 0
445 -100 446 0
-445 100 446 0
446 103 -447 0
-446 -103 -447 0
446 -103 447 0
-446 103 447 0
447 109 -448 0
-447 -109 -448 0
447 -109 448 0
-447 109 448 0
-448 0
43 44 -449 0
-43 -44 -449 0
43 -44 449 0
-43 44 449 0
449 46 -450 0
-449 -46 -450 0
449 -46 450 0
-449 46 450 0
450 47 -451 0
-450 -47 -451 0
450 -47 451 0
-450 47 451 0
451 95 -452 0
-451 -95 -452 0
451 -95 452 0
-451 95 452 0
452 101 -453 0
-452 -101 -453 0
452 -101 453 0
-452 101 453 0
453 104 -454 0
-453 -104 -454 0
453 -104 454 0
-453 104 454 0
454 110 -455 0
-454 -110 -455 0
454 -110 455 0
-454 110 455 0
-455 0
44 45 -456 0
-44 -45 -456 0
44 -45 456 0
-44 45 456 0
456 47 -457 0
-456 -47 -457 0
456 -47 457 0
-456 47 457 0
457 48 -458 0
-457 -48 -458 0
457 -48 458 0
-457 48 458 0
458 96 -459 0
-458 -96 -459 0
458 -96 459 0
-458 96 459 0
459 102 -460 0
-459 -102 -460 0
459 -102 460 0
-459 102 460 0
460 105 -461 0
-460 -105 -461 0
460 -105 461 0
-460 105 461 0
461 111 -462 0
-461 -111 -462 0
461 -111 462 0
-461 111 462 0
-462 0
45 46 -463 0
-45 -46 -463 0
45 -46 463 0
-45 46 463 0
463 48 -464 0
-463 -48 -464 0
463 -48 464 0
-463 48 464 0
464 49 -465 0
-464 -49 -465 0
464 -49 465 0
-464 49 465 0
465 97 -466 0
-465 -97 -466 0
465 -97 466 0
-465 97 466 0
466 103 -467 0
-466 -103 -467 0
466 -103 467 0
-466 103 467 0
467 106 -468 0
-467 -106 -468 0
467 -106 468 0
-467 106 468 0
468 112 -469 0
-468 -112 -469 0
468 -112 469 0
-468 112 469 0
-469 0
46 47 -470 0
-46 -47 -470 0
46 -47 470 0
-46 47 470 0
470 49 -471 0
-470 -49 -471 0
470 -49 471 0
-470 49 471 0
471 50 -472 0
-471 -50 -472 0
471 -50 472 0
-471 50 472 0
472 98 -473 0
-472 -98 -473 0
472 -98 473 0
-472 98 473 0
473 104 -474 0
-473 -104 -474 0
473 -104 474 0
-473 104 474 0
474 107 -475 0
-474 -107 -475 0
474 -107 475 0
-474 107 475 0
475 113 -476 0
-475 -113 -476 0
475 -113 476 0
-475 113 476 0
-476 0
47 48 -477 0
-47 -48 -477 0
47 -48 477 0
-47 48 477 0
477 50 -478 0
-477 -50 -478 0
477 -50 478 0
-477 50 478 0
478 51 -479 0
-478 -51 -479 0
478 -51 479 0
-478 51 479 0
479 99 -480 0
-479 -99 -480 0
479 -99 480 0
-479 99 480 0
480 105 -481 0
-480 -105 -481 0
480 -105 481 0
-480 105 481 0
481 108 -482 0
-481 -108 -482 0
481 -108 482 0
-481 108 482 0
482 114 -483 0
-482 -114 -483 0
482 -114 483 0
-482 114 483 0
-483 0
48 49 -484 0
-48 -49 -484 0
48 -49 484 0
-48 49 484 0
484 51 -485 0
-484 -51 -485 0
484 -51 485 0
-484 51 485 0
485 52 -486 0
-485 -52 -486 0
485 -52 486 0
-485 52 486 0
486 100 -487 0
-486 -100 -487 0
486 -100 487 0
-486 100 487 0
487 106 -488 0
-487 -106 -488 0
487 -106 488 0
-487 106 488 0
488 109 -489 0
-488 -109 -489 0
488 -109 489 0
-488 109 489 0
489 115 -490 0
-489 -115 -490 0
489 -115 490 0
-489 115 490 0
-490 0
49 50 -491 0
-49 -50 -491 0
49 -50 491 0
-49 50 491 0
491 52 -492 0
-491 -52 -492 0
491 -52 492 0
-491 52 492 0
492 53 -493 0
-492 -53 -493 0
492 -53 493 0
-492 53 493 0
493 101 -494 0
-493 -101 -494 0
493 -101 494 0
-493 101 494 0
494 107 -495 0
-494 -107 -495 0
494 -107 495 0
-494 107 495 0
495 110 -496 0
-495 -110 -496 0
495 -110 496 0
-495 110 496 0
496 116 -497 0
-496 -116 -497 0
496 -116 497 0
-496 116 497 0
-497 0
50 51 -498 0
-50 -51 -498 0
50 -51 498 0
-50 51 498 0
498 53 -499 0
-498 -53 -499 0
498 -53 499 0
-498 53 499 0
499 54 -500 0
-499 -54 -500 0
499 -54 500 0
-499 54 500 0
500 102 -501 0
-500 -102 -501 0
500 -102 501 0
-500 102 501 0
501 108 -502 0
-501 -108 -502 0
501 -108 502 0
-501 108 502 0
502 111 -503 0
-502 -111 -503 0
502 -111 503 0
-502 111 503 0
503 117 -504 0
-503 -117 -504 0
503 -117 504 0
-503 117 504 0
-504 0
51 52 -505 0
-51 -52 -505 0
51 -52 505 0
-51 52 505 0
505 54 -506 0
-505 -54 -506 0
505 -54 506 0
-505 54 506 0
506 55 -507 0
-506 -55 -507 0
506 -55 507 0
-506 55 507 0
507 103 -508 0
-507 -103 -508 0
507 -103 508 0
-507 103 508 0
508 109 -509 0
-508 -109 -509 0
508 -109 509 0
-508 109 509 0
509 112 -510 0
-509 -112 -510 0
509 -112 510 0
-509 112 510 0
510 118 -511 0
-510 -118 -511 0
510 -118 511 0
-510 118 511 0
-511 0
52 53 -512 0
-52 -53 -512 0
52 -53 512 0
-52 53 512 0
512 55 -513 0
-512 -55 -513 0
512 -55 513 0
-512 55 513 0
513 56 -514 0
-513 -56 -514 0
513 -56 514 0
-513 56 514 0
514 104 -515 0
-514 -104 -515 0
514 -104 515 0
-514 104 515 0
515 110 -516 0
-515 -110 -516 0
515 -110 516 0
-515 110 516 0
516 113 -517 0
-516 -113 -517 0
516 -113 517 0
-516 113 517 0
517 119 -518 0
-517 -119 -518 0
517 -119 518 0
-517 119 518 0
-518 0
53 54 -519 0
-53 -54 -519 0
53 -54 519 0
-53 54 519 0
519 56 -520 0
-519 -56 -520 0
519 -56 520 0
-519 56 520 0
520 57 -521 0
-520 -57 -521 0
520 -57 521 0
-520 57 521 0
521 105 -522 0
-521 -105 -522 0
521 -105 522 0
-521 105 522 0
522 111 -523 0
-522 -111 -523 0
522 -111 523 0
-522 111 523 0
523 114 -524 0
-523 -114 -524 0
523 -114 524 0
-523 114 524 0
524 120 -525 0
-524 -120 -525 0
524 -120 525 0
-524 120 525 0
-525 0
54 55 -526 0
-54 -55 -526 0
54 -55 526 0
-54 55 526 0
526 57 -527 0
-526 -57 -527 0
526 -57 527 0
-526 57 527 0
527 58 -528 0
-527 -58 -528 0
527 -58 528 0
-527 58 528 0
528 106 -529 0
-528 -106 -529 0
528 -106 529 0
-528 106 529 0
529 112 -530 0
-529 -112 -530 0
529 -112 530 0
-529 112 530 0
530 115 -531 0
-530 -115 -531 0
530 -115 531 0
-530 115 531 0
531 121 -532 0
-531 -121 -532 0
531 -121 532 0
-531 121 532 0
-532 0
55 56 -533 0
-55 -56 -533 0
55 -56 533 0
-55 56 533 0
533 58 -534 0
-533 -58 -534 0
533 -58 534 0
-533 58 534 0
534 59 -535 0
-534 -59 -535 0
534 -59 535 0
-534 59 535 0
535 107 -536 0
-535 -107 -536 0
535 -107 536 0
-535 107 536 0
536 113 -537 0
-536 -113 -537 0
536 -113 537 0
-536 113 537 0
537 116 -538 0
-537 -116 -538 0
537 -116 538 0
-537 116 538 0
538 122 -539 0
-538 -122 -539 0
538 -122 539 0
-538 122 539 0
-539 0
56 57 -540 0
-56 -57 -540 0
56 -57 540 0
-56 57 540 0
540 59 -541 0
-540 -59 -541 0
540 -59 541 0
-540 59 541 0
541 60 -542 0
-541 -60 -542 0
541 -60 542 0
-541 60 542 0
542 108 -543 0
-542 -108 -543 0
542 -108 543 0
-542 108 543 0
543 114 -544 0
-543 -114 -544 0
543 -114 544 0
-543 114 544 0
544 117 -545 0
-544 -117 -545 0
544 -117 545 0
-544 117 545 0
545 123 -546 0
-545 -123 -546 0
545 -123 546 0
-545 123 546 0
-546 0
57 58 -547 0
-57 -58 -547 0
57 -58 547 0
-57 58 547 0
547 60 -548 0
-547 -60 -548 0
547 -60 548 0
-547 60 548 0
548 61 -549 0
-548 -61 -549 0
548 -61 549 0
-548 61 549 0
549 109 -550 0
-549 -109 -550 0
549 -109 550 0
-549 109 550 0
550 115 -551 0
-550 -115 -551 0
550 -115 551 0
-550 115 551 0
551 118 -552 0
-551 -118 -552 0
551 -118 552 0
-551 118 552 0
552 124 -553 0
-552 -124 -553 0
552 -124 553 0
-552 124 553 0
-553 0
58 59 -554 0
-58 -59 -554 0
58 -59 554 0
-58 59 554 0
554 61 -555 0
-554 -61 -555 0
554 -61 555 0
-554 61 555 0
555 62 -556 0
-555 -62 -556 0
555 -62 556 0
-555 62 556 0
556 110 -557 0
-556 -110 -557 0
556 -110 557 0
-556 110 557 0
557 116 -558 0
-557 -116 -558 0
557 -116 558 0
-557 116 558 0
558 119 -559 0
-558 -119 -559 0
558 -119 559 0
-558 119 559 0
559 125 -560 0
-559 -125 -560 0
559 -125 560 0
-559 125 560 0
-560 0
59 60 -561 0
-59 -60 -561 0
59 -60 561 0
-59 60 561 0
561 62 -562 0
-561 -62 -562 0
561 -62 562 0
-561 62 562 0
562 63 -563 0
-562 -63 -563 0
562 -63 563 0
-562 63 563 0
563 111 -564 0
-563 -111 -564 0
563 -111 564 0
-563 111 564 0
564 117 -565 0
-564 -117 -565 0
564 -117 565 0
-564 117 565 0
565 120 -566 0
-565 -120 -566 0
565 -120 566 0
-565 120 566 0
566 126 -567 0
-566 -126 -567 0
566 -126 567 0
-566 126 567 0
-567 0
1 67 -568 0
-1 -67 -568 0
1 -67 568 0
-1 67 568 0
568 70 -569 0
-568 -70 -569 0
568 -70 569 0
-568 70 569 0
569 73 -570 0
-569 -73 -570 0
569 -73 570 0
-569 73 570 0
570 76 -571 0
-570 -76 -571 0
570 -76 571 0
-570 76 571 0
571 79 -572 0
-571 -79 -572 0
571 -79 572 0
-571 79 572 0
572 82 -573 0
-572 -82 -573 0
572 -82 573 0
-572 82 573 0
573 85 -574 0
-573 -85 -574 0
573 -85 574 0
-573 85 574 0
574 88 -575 0
-574 -88 -575 0
574 -88 575 0
-574 88 575 0
575 91 -576 0
-575 -91 -576 0
575 -91 576 0
-575 91 576 0
576 94 -577 0
-576 -94 -577 0
576 -94 577 0
-576 94 577 0
577 97 -578 0
-577 -97 -578 0
577 -97 578 0
-577 97 578 0
578 100 -579 0
-578 -100 -579 0
578 -100 579 0
-578 100 579 0
579 103 -580 0
-579 -103 -580 0
579 -103 580 0
-579 103 580 0
580 106 -581 0
-580 -106 -581 0
580 -106 581 0
-580 106 581 0
581 109 -582 0
-581 -109 -582 0
581 -109 582 0
-581 109 582 0
582 112 -583 0
-582 -112 -583 0
582 -112 583 0
-582 112 583 0
583 115 -584 0
-583 -115 -584 0
583 -115 584 0
-583 115 584 0
584 116 -585 0
-584 -116 -585 0
584 -116 585 0
-584 116 585 0
585 117 -586 0
-585 -117 -586 0
585 -117 586 0
-585 117 586 0
586 121 -587 0
-586 -121 -587 0
586 -121 587 0
-586 121 587 0
587 124 -588 0
-587 -124 -588 0
587 -124 588 0
-587 124 588 0
588 125 -589 0
-588 -125 -589 0
588 -125 589 0
-588 125 589 0
589 126 -590 0
-589 -126 -590 0
589 -126 590 0
-589 126 590 0
2 67 -591 0
-2 -67 -591 0
2 -67 591 0
-2 67 591 0
591 68 -592 0
-591 -68 -592 0
591 -68 592 0
-591 68 592 0
592 70 -593 0
-592 -70 -593 0
592 -70 593 0
-592 70 593 0
593 71 -594 0
-593 -71 -594 0
593 -71 594 0
-593 71 594 0
594 73 -595 0
-594 -73 -595 0
594 -73 595 0
-594 73 595 0
595 74 -596 0
-595 -74 -596 0
595 -74 596 0
-595 74 596 0
596 76 -597 0
-596 -76 -597 0
596 -76 597 0
-596 76 597 0
597 77 -598 0
-597 -77 -598 0
597 -77 598 0
-597 77 598 0
598 79 -599 0
-598 -79 -599 0
598 -79 599 0
-598 79 599 0
599 80 -600 0
-599 -80 -600 0
599 -80 600 0
-599 80 600 0
600 82 -601 0
-600 -82 -601 0
600 -82 601 0
-600 82 601 0
601 83 -602 0
-601 -83 -602 0
601 -83 602 0
-601 83 602 0
602 85 -603 0
-602 -85 -603 0
602 -85 603 0
-602 85 603 0
603 86 -604 0
-603 -86 -604 0
603 -86 604 0
-603 86 604 0
604 88 -605 0
-604 -88 -605 0
604 -88 605 0
-604 88 605 0
605 89 -606 0
-605 -89 -606 0
605 -89 606 0
-605 89 606 0
606 91 -607 0
-606 -91 -607 0
606 -91 607 0
-606 91 607 0
607 92 -608 0
-607 -92 -608 0
607 -92 608 0
-607 92 608 0
608 94 -609 0
-608 -94 -609 0
608 -94 609 0
-608 94 609 0
609 95 -610 0
-609 -95 -610 0
609 -95 610 0
-609 95 610 0
610 97 -611 0
-610 -97 -611 0
610 -97 611 0
-610 97 611 0
611 98 -612 0
-611 -98 -612 0
611 -98 612 0
-611 98 612 0
612 100 -613 0
-612 -100 -613 0
612 -100 613 0
-612 100 613 0
613 101 -614 0
-613 -101 -614 0
613 -101 614 0
-613 101 614 0
614 103 -615 0
-614 -103 -615 0
614 -103 615 0
-614 103 615 0
615 104 -616 0
-615 -104 -616 0
615 -104 616 0
-615 104 616 0
616 106 -617 0
-616 -106 -617 0
616 -106 617 0
-616 106 617 0
617 107 -618 0
-617 -107 -618 0
617 -107 618 0
-617 107 618 0
618 109 -619 0
-618 -109 -619 0
618 -109 619 0
-618 109 619 0
619 110 -620 0
-619 -110 -620 0
619 -110 620 0
-619 110 620 0
620 112 -621 0
-620 -112 -621 0
620 -112 621 0
-620 112 621 0
621 113 -622 0
-621 -113 -622 0
621 -113 622 0
-621 113 622 0
622 115 -623 0
-622 -115 -623 0
622 -115 623 0
-622 115 623 0
623 116 -624 0
-623 -116 -624 0
623 -116 624 0
-623 116 624 0
624 117 -625 0
-624 -117 -625 0
624 -117 625 0
-624 117 625 0
625 121 -626 0
-625 -121 -626 0
625 -121 626 0
-625 121 626 0
626 122 -627 0
-626 -122 -627 0
626 -122 627 0
-626 122 627 0
627 124 -628 0
-627 -124 -628 0
627 -124 628 0
-627 124 628 0
628 125 -629 0
-628 -125 -629 0
628 -125 629 0
-628 125 629 0
629 126 -630 0
-629 -126 -630 0
629 -126 630 0
-629 126 630 0
3 67 -631 0
-3 -67 -631 0
3 -67 631 0
-3 67 631 0
631 68 -632 0
-631 -68 -632 0
631 -68 632 0
-631 68 632 0
632 69 -633 0
-632 -69 -633 0
632 -69 633 0
-632 69 633 0
633 70 -634 0
-633 -70 -634 0
633 -70 634 0
-633 70 634 0
634 71 -635 0
-634 -71 -635 0
634 -71 635 0
-634 71 635 0
635 72 -636 0
-635 -72 -636 0
635 -72 636 0
-635 72 636 0
636 73 -637 0
-636 -73 -637 0
636 -73 637 0
-636 73 637 0
637 74 -638 0
-637 -74 -638 0
637 -74 638 0
-637 74 638 0
638 75 -639 0
-638 -75 -639 0
638 -75 639 0
-638 75 639 0
639 76 -640 0
-639 -76 -640 0
639 -76 640 0
-639 76 640 0
640 77 -641 0
-640 -77 -641 0
640 -77 641 0
-640 77 641 0
641 78 -642 0
-641 -78 -642 0
641 -78 642 0
-641 78 642 0
642 79 -643 0
-642 -79 -643 0
642 -79 643 0
-642 79 643 0
643 80 -644 0
-643 -80 -644 0
643 -80 644 0
-643 80 644 0
644 81 -645 0
-644 -81 -645 0
644 -81 645 0
-644 81 645 0
645 82 -646 0
-645 -82 -646 0
645 -82 646 0
-645 82 646 0
646 83 -647 0
-646 -83 -647 0
646 -83 647 0
-646 83 647 0
647 84 -648 0
-647 -84 -648 0
647 -84 648 0
-647 84 648 0
648 85 -649 0
-648 -85 -649 0
648 -85 649 0
-648 85 649 0
649 86 -650 0
-649 -86 -650 0
649 -86 650 0
-649 86 650 0
650 87 -651 0
-650 -87 -651 0
650 -87 651 0
-650 87 651 0
651 88 -652 0
-651 -88 -652 0
651 -88 652 0
-651 88 652 0
652 89 -653 0
-652 -89 -653 0
652 -89 653 0
-652 89 653 0
653 90 -654 0
-653 -90 -654 0
653 -90 654 0
-653 90 654 0
654 91 -655 0
-654 -91 -655 0
654 -91 655 0
-654 91 655 0
655 92 -656 0
-655 -92 -656 0
655 -92 656 0
-655 92 656 0
656 93 -657 0
-656 -93 -657 0
656 -93 657 0
-656 93 657 0
657 94 -658 0
-657 -94 -658 0
657 -94 658 0
-657 94 658 0
658 95 -659 0
-658 -95 -659 0
658 -95 659 0
-658 95 659 0
659 96 -660 0
-659 -96 -660 0
659 -96 660 0
-659 96 660 0
660 97 -661 0
-660 -97 -661 0
660 -97 661 0
-660 97 661 0
661 98 -662 0
-661 -98 -662 0
661 -98 662 0
-661 98 662 0
662 99 -663 0
-662 -99 -663 0
662 -99 663 0
-662 99 663 0
663 100 -664 0
-663 -100 -664 0
663 -100 664 0
-663 100 664 0
664 101 -665 0
-664 -101 -665 0
664 -101 665 0
-664 101 665 0
665 102 -666 0
-665 -102 -666 0
665 -102 666 0
-665 102 666 0
666 103 -667 0
-666 -103 -667 0
666 -103 667 0
-666 103 667 0
667 104 -668 0
-667 -104 -668 0
667 -104 668 0
-667 104 668 0
668 105 -669 0
-668 -105 -669 0
668 -105 669 0
-668 105 669 0
669 106 -670 0
-669 -106 -670 0
669 -106 670 0
-669 106 670 0
670 107 -671 0
-670 -107 -671 0
670 -107 671 0
-670 107 671 0
671 108 -672 0
-671 -108 -672 0
671 -108 672 0
-671 108 672 0
672 109 -673 0
-672 -109 -673 0
672 -109 673 0
-672 109 673 0
673 110 -674 0
-673 -110 -674 0
673 -110 674 0
-673 110 674 0
674 111 -675 0
-674 -111 -675 0
674 -111 675 0
-674 111 675 0
675 112 -676 0
-675 -112 -676 0
675 -112 676 0
-675 112 676 0
676 113 -677 0
-676 -113 -677 0
676 -113 677 0
-676 113 677 0
677 114 -678 0
-677 -114 -678 0
677 -114 678 0
-677 114 678 0
678 115 -679 0
-678 -115 -679 0
678 -115 679 0
-678 115 679 0
679 116 -680 0
-679 -116 -680 0
679 -116 680 0
-679 116 680 0
680 117 -681 0
-680 -117 -681 0
680 -117 681 0
-680 117 681 0
681 121 -682 0
-681 -121 -682 0
681 -121 682 0
-681 121 682 0
682 122 -683 0
-682 -122 -683 0
682 -122 683 0
-682 122 683 0
683 123 -684 0
-683 -123 -684 0
683 -123 684 0
-683 123 684 0
684 124 -685 0
-684 -124 -685 0
684 -124 685 0
-684 124 685 0
685 125 -686 0
-685 -125 -686 0
685 -125 686 0
-685 125 686 0
686 126 -687 0
-686 -126 -687 0
686 -126 687 0
-686 126 687 0
4 67 -688 0
-4 -67 -688 0
4 -67 688 0
-4 67 688 0
688 68 -689 0
-688 -68 -689 0
688 -68 689 0
-688 68 689 0
689 69 -690 0
-689 -69 -690 0
689 -69 690 0
-689 69 690 0
690 71 -691 0
-690 -71 -691 0
690 -71 691 0
-690 71 691 0
691 72 -692 0
-691 -72 -692 0
691 -72 692 0
-691 72 692 0
692 74 -693 0
-692 -74 -693 0
692 -74 693 0
-692 74 693 0
693 75 -694 0
-693 -75 -694 0
693 -75 694 0
-693 75 694 0
694 77 -695 0
-694 -77 -695 0
694 -77 695 0
-694 77 695 0
695 78 -696 0
-695 -78 -696 0
695 -78 696 0
-695 78 696 0
696 80 -697 0
-696 -80 -697 0
696 -80 697 0
-696 80 697 0
697 81 -698 0
-697 -81 -698 0
697 -81 698 0
-697 81 698 0
698 83 -699 0
-698 -83 -699 0
698 -83 699 0
-698 83 699 0
699 84 -700 0
-699 -84 -700 0
699 -84 700 0
-699 84 700 0
700 86 -701 0
-700 -86 -701 0
700 -86 701 0
-700 86 701 0
701 87 -702 0
-701 -87 -702 0
701 -87 702 0
-701 87 702 0
702 89 -703 0
-702 -89 -703 0
702 -89 703 0
-702 89 703 0
703 90 -704 0
-703 -90 -704 0
703 -90 704 0
-703 90 704 0
704 92 -705 0
-704 -92 -705 0
704 -92 705 0
-704 92 705 0
705 93 -706 0
-705 -93 -706 0
705 -93 706 0
-705 93 706 0
706 95 -707 0
-706 -95 -707 0
706 -95 707 0
-706 95 707 0
707 96 -708 0
-707 -96 -708 0
707 -96 708 0
-707 96 708 0
708 98 -709 0
-708 -98 -709 0
708 -98 709 0
-708 98 709 0
709 99 -710 0
-709 -99 -710 0
709 -99 710 0
-709 99 710 0
710 101 -711 0
-710 -101 -711 0
710 -101 711 0
-710 101 711 0
711 102 -712 0
-711 -102 -712 0
711 -102 712 0
-711 102 712 0
712 104 -713 0
-712 -104 -713 0
712 -104 713 0
-712 104 713 0
713 105 -714 0
-713 -105 -714 0
713 -105 714 0
-713 105 714 0
714 107 -715 0
-714 -107 -715 0
714 -107 715 0
-714 107 715 0
715 108 -716 0
-715 -108 -716 0
715 -108 716 0
-715 108 716 0
716 110 -717 0
-716 -110 -717 0
716 -110 717 0
-716 110 717 0
717 111 -718 0
-717 -111 -718 0
717 -111 718 0
-717 111 718 0
718 113 -719 0
-718 -113 -719 0
718 -113 719 0
-718 113 719 0
719 114 -720 0
-719 -114 -720 0
719 -114 720 0
-719 114 720 0
720 116 -721 0
-720 -116 -721 0
720 -116 721 0
-720 116 721 0
721 117 -722 0
-721 -117 -722 0
721 -117 722 0
-721 117 722 0
722 121 -723 0
-722 -121 -723 0
722 -121 723 0
-722 121 723 0
723 122 -724 0
-723 -122 -724 0
723 -122 724 0
-723 122 724 0
724 123 -725 0
-724 -123 -725 0
724 -123 725 0
-724 123 725 0
725 125 -726 0
-725 -125 -726 0
725 -125 726 0
-725 125 726 0
726 126 -727 0
-726 -126 -727 0
726 -126 727 0
-726 126 727 0
7 68 -728 0
-7 -68 -728 0
7 -68 728 0
-7 68 728 0
728 69 -729 0
-728 -69 -729 0
728 -69 729 0
-728 69 729 0
729 70 -730 0
-729 -70 -730 0
729 -70 730 0
-729 70 730 0
730 122 -731 0
-730 -122 -731 0
730 -122 731 0
-730 122 731 0
731 123 -732 0
-731 -123 -732 0
731 -123 732 0
-731 123 732 0
732 124 -733 0
-732 -124 -733 0
732 -124 733 0
-732 124 733 0
8 69 -734 0
-8 -69 -734 0
8 -69 734 0
-8 69 734 0
734 70 -735 0
-734 -70 -735 0
734 -70 735 0
-734 70 735 0
735 71 -736 0
-735 -71 -736 0
735 -71 736 0
-735 71 736 0
736 123 -737 0
-736 -123 -737 0
736 -123 737 0
-736 123 737 0
737 124 -738 0
-737 -124 -738 0
737 -124 738 0
-737 124 738 0
738 125 -739 0
-738 -125 -739 0
738 -125 739 0
-738 125 739 0
590 630 687 727 733 739 0
-1 0
-2 0
-3 0
-4 0
-5 0
-6 0
-7 0
-8 0
-9 0
-10 0
-11 0
-12 0
-13 0
-14 0
-15 0
-16 0
-17 0
-18 0
-19 0
-20 0
-21 0
-22 0
-23 0
-24 0
-25 0
-26 0
-27 0
-28 0
-29 0
-30 0
-31 0
-32 0
-33 0
-34 0
-35 0
-36 0
-37 0
-38 0
-39 0
-40 0
-41 0
-42 0
-43 0
-44 0
-45 0
-46 0
-47 0
-48 0
-49 0
-50 0
-51 0
-52 0
-53 0
-54 0
-55 0
-56 0
-57 0
-58 0
-59 0
-60 0
-61 0
-62 0
-63 0
64 0
-748 742 749 0
-745 742 749 0
-745 -748 749 0
-749 740 0
-746 740 0
-749 -746 741 0
-747 741 0
-749 -747 0
-743 740 0
-749 -743 741 0
-744 741 0
-749 -744 0
-743 -746 741 0
-749 -743 -746 0
-743 -747 0
-749 -743 -747 0
-744 -746 0
-749 -744 -746 0
-744 -747 0
-749 -744 -747 0
-755 748 756 0
-752 748 756 0
-752 -755 756 0
-756 746 0
-753 746 0
-756 -753 747 0
-754 747 0
-756 -754 0
-750 746 0
-756 -750 747 0
-751 747 0
-756 -751 0
-750 -753 747 0
-756 -750 -753 0
-750 -754 0
-756 -750 -754 0
-751 -753 0
-756 -751 -753 0
-751 -754 0
-756 -751 -754 0
-762 755 763 0
-759 755 763 0
-759 -762 763 0
-763 753 0
-760 753 0
-763 -760 754 0
-761 754 0
-763 -761 0
-757 753 0
-763 -757 754 0
-758 754 0
-763 -758 0
-757 -760 754 0
-763 -757 -760 0
-757 -761 0
-763 -757 -761 0
-758 -760 0
-763 -758 -760 0
-758 -761 0
-763 -758 -761 0
-769 762 770 0
-766 762 770 0
-766 -769 770 0
-770 760 0
-767 760 0
-770 -767 761 0
-768 761 0
-770 -768 0
-764 760 0
-770 -764 761 0
-765 761 0
-770 -765 0
-764 -767 761 0
-770 -764 -767 0
-764 -768 0
-770 -764 -768 0
-765 -767 0
-770 -765 -767 0
-765 -768 0
-770 -765 -768 0
-775 769 776 0
-773 769 776 0
-773 -775 776 0
-776 767 0
-774 767 0
-776 -774 768 0
-771 767 0
-776 -771 768 0
-772 768 0
-776 -772 0
-771 -774 768 0
-776 -771 -774 0
-772 -774 0
-776 -772 -774 0
-126 775 779 0
-778 775 779 0
-778 -126 779 0
-779 774 0
-777 774 0
-779 -777 0
-125 778 780 0
-124 778 780 0
-124 -125 780 0
-780 777 0
-784 773 785 0
-782 773 785 0
-782 -784 785 0
-785 771 0
-783 771 0
-785 -783 772 0
-781 771 0
-785 -781 772 0
-781 -783 772 0
-785 -781 -783 0
-123 784 786 0
-122 784 786 0
-122 -123 786 0
-786 783 0
-121 782 787 0
-120 782 787 0
-120 -121 787 0
-787 781 0
-793 766 794 0
-790 766 794 0
-790 -793 794 0
-794 764 0
-791 764 0
-794 -791 765 0
-792 765 0
-794 -792 0
-788 764 0
-794 -788 765 0
-789 765 0
-794 -789 0
-788 -791 765 0
-794 -788 -791 0
-788 -792 0
-794 -788 -792 0
-789 -791 0
-794 -789 -791 0
-789 -792 0
-794 -789 -792 0
-798 793 799 0
-796 793 799 0
-796 -798 799 0
-799 791 0
-797 791 0
-799 -797 792 0
-795 791 0
-799 -795 792 0
-795 -797 792 0
-799 -795 -797 0
-119 798 800 0
-118 798 800 0
-118 -119 800 0
-800 797 0
-117 796 801 0
-116 796 801 0
-116 -117 801 0
-801 795 0
-805 790 806 0
-803 790 806 0
-803 -805 806 0
-806 788 0
-804 788 0
-806 -804 789 0
-802 788 0
-806 -802 789 0
-802 -804 789 0
-806 -802 -804 0
-115 805 807 0
-114 805 807 0
-114 -115 807 0
-807 804 0
-113 803 808 0
-112 803 808 0
-112 -113 808 0
-808 802 0
-814 759 815 0
-811 759 815 0
-811 -814 815 0
-815 757 0
-812 757 0
-815 -812 758 0
-813 758 0
-815 -813 0
-809 757 0
-815 -809 758 0
-810 758 0
-815 -810 0
-809 -812 758 0
-815 -809 -812 0
-809 -813 0
-815 -809 -813 0
-810 -812 0
-815 -810 -812 0
-810 -813 0
-815 -810 -813 0
-821 814 822 0
-818 814 822 0
-818 -821 822 0
-822 812 0
-819 812 0
-822 -819 813 0
-820 813 0
-822 -820 0
-816 812 0
-822 -816 813 0
-817 813 0
-822 -817 0
-816 -819 813 0
-822 -816 -819 0
-816 -820 0
-822 -816 -820 0
-817 -819 0
-822 -817 -819 0
-817 -820 0
-822 -817 -820 0
-826 821 827 0
-824 821 827 0
-824 -826 827 0
-827 819 0
-825 819 0
-827 -825 820 0
-823 819 0
-827 -823 820 0
-823 -825 820 0
-827 -823 -825 0
-111 826 828 0
-110 826 828 0
-110 -111 828 0
-828 825 0
-109 824 829 0
-108 824 829 0
-108 -109 829 0
-829 823 0
-833 818 834 0
-831 818 834 0
-831 -833 834 0
-834 816 0
-832 816 0
-834 -832 817 0
-830 816 0
-834 -830 817 0
-830 -832 817 0
-834 -830 -832 0
-107 833 835 0
-106 833 835 0
-106 -107 835 0
-835 832 0
-105 831 836 0
-104 831 836 0
-104 -105 836 0
-836 830 0
-842 811 843 0
-839 811 843 0
-839 -842 843 0
-843 809 0
-840 809 0
-843 -840 810 0
-841 810 0
-843 -841 0
-837 809 0
-843 -837 810 0
-838 810 0
-843 -838 0
-837 -840 810 0
-843 -837 -840 0
-837 -841 0
-843 -837 -841 0
-838 -840 0
-843 -838 -840 0
-838 -841 0
-843 -838 -841 0
-847 842 848 0
-845 842 848 0
-845 -847 848 0
-848 840 0
-846 840 0
-848 -846 841 0
-844 840 0
-848 -844 841 0
-844 -846 841 0
-848 -844 -846 0
-103 847 849 0
-102 847 849 0
-102 -103 849 0
-849 846 0
-101 845 850 0
-100 845 850 0
-100 -101 850 0
-850 844 0
-854 839 855 0
-852 839 855 0
-852 -854 855 0
-855 837 0
-853 837 0
-855 -853 838 0
-851 837 0
-855 -851 838 0
-851 -853 838 0
-855 -851 -853 0
-99 854 856 0
-98 854 856 0
-98 -99 856 0
-856 853 0
-97 852 857 0
-96 852 857 0
-96 -97 857 0
-857 851 0
-863 752 864 0
-860 752 864 0
-860 -863 864 0
-864 750 0
-861 750 0
-864 -861 751 0
-862 751 0
-864 -862 0
-858 750 0
-864 -858 751 0
-859 751 0
-864 -859 0
-858 -861 751 0
-864 -858 -861 0
-858 -862 0
-864 -858 -862 0
-859 -861 0
-864 -859 -861 0
-859 -862 0
-864 -859 -862 0
-870 863 871 0
-867 863 871 0
-867 -870 871 0
-871 861 0
-868 861 0
-871 -868 862 0
-869 862 0
-871 -869 0
-865 861 0
-871 -865 862 0
-866 862 0
-871 -866 0
-865 -868 862 0
-871 -865 -868 0
-865 -869 0
-871 -865 -869 0
-866 -868 0
-871 -866 -868 0
-866 -869 0
-871 -866 -869 0
-877 870 878 0
-874 870 878 0
-874 -877 878 0
-878 868 0
-875 868 0
-878 -875 869 0
-876 869 0
-878 -876 0
-872 868 0
-878 -872 869 0
-873 869 0
-878 -873 0
-872 -875 869 0
-878 -872 -875 0
-872 -876 0
-878 -872 -876 0
-873 -875 0
-878 -873 -875 0
-873 -876 0
-878 -873 -876 0
-882 877 883 0
-880 877 883 0
-880 -882 883 0
-883 875 0
-881 875 0
-883 -881 876 0
-879 875 0
-883 -879 876 0
-879 -881 876 0
-883 -879 -881 0
-95 882 884 0
-94 882 884 0
-94 -95 884 0
-884 881 0
-93 880 885 0
-92 880 885 0
-92 -93 885 0
-885 879 0
-889 874 890 0
-887 874 890 0
-887 -889 890 0
-890 872 0
-888 872 0
-890 -888 873 0
-886 872 0
-890 -886 873 0
-886 -888 873 0
-890 -886 -888 0
-91 889 891 0
-90 889 891 0
-90 -91 891 0
-891 888 0
-89 887 892 0
-88 887 892 0
-88 -89 892 0
-892 886 0
-898 867 899 0
-895 867 899 0
-895 -898 899 0
-899 865 0
-896 865 0
-899 -896 866 0
-897 866 0
-899 -897 0
-893 865 0
-899 -893 866 0
-894 866 0
-899 -894 0
-893 -896 866 0
-899 -893 -896 0
-893 -897 0
-899 -893 -897 0
-894 -896 0
-899 -894 -896 0
-894 -897 0
-899 -894 -897 0
-903 898 904 0
-901 898 904 0
-901 -903 904 0
-904 896 0
-902 896 0
-904 -902 897 0
-900 896 0
-904 -900 897 0
-900 -902 897 0
-904 -900 -902 0
-87 903 905 0
-86 903 905 0
-86 -87 905 0
-905 902 0
-85 901 906 0
-84 901 906 0
-84 -85 906 0
-906 900 0
-910 895 911 0
-908 895 911 0
-908 -910 911 0
-911 893 0
-909 893 0
-911 -909 894 0
-907 893 0
-911 -907 894 0
-907 -909 894 0
-911 -907 -909 0
-83 910 912 0
-82 910 912 0
-82 -83 912 0
-912 909 0
-81 908 913 0
-80 908 913 0
-80 -81 913 0
-913 907 0
-919 860 920 0
-916 860 920 0
-916 -919 920 0
-920 858 0
-917 858 0
-920 -917 859 0
-918 859 0
-920 -918 0
-914 858 0
-920 -914 859 0
-915 859 0
-920 -915 0
-914 -917 859 0
-920 -914 -917 0
-914 -918 0
-920 -914 -918 0
-915 -917 0
-920 -915 -917 0
-915 -918 0
-920 -915 -918 0
-926 919 927 0
-923 919 927 0
-923 -926 927 0
-927 917 0
-924 917 0
-927 -924 918 0
-925 918 0
-927 -925 0
-921 917 0
-927 -921 918 0
-922 918 0
-927 -922 0
-921 -924 918 0
-927 -921 -924 0
-921 -925 0
-927 -921 -925 0
-922 -924 0
-927 -922 -924 0
-922 -925 0
-927 -922 -925 0
-931 926 932 0
-929 926 932 0
-929 -931 932 0
-932 924 0
-930 924 0
-932 -930 925 0
-928 924 0
-932 -928 925 0
-928 -930 925 0
-932 -928 -930 0
-79 931 933 0
-78 931 933 0
-78 -79 933 0
-933 930 0
-77 929 934 0
-76 929 934 0
-76 -77 934 0
-934 928 0
-938 923 939 0
-936 923 939 0
-936 -938 939 0
-939 921 0
-937 921 0
-939 -937 922 0
-935 921 0
-939 -935 922 0
-935 -937 922 0
-939 -935 -937 0
-75 938 940 0
-74 938 940 0
-74 -75 940 0
-940 937 0
-73 936 941 0
-72 936 941 0
-72 -73 941 0
-941 935 0
-947 916 948 0
-944 916 948 0
-944 -947 948 0
-948 914 0
-945 914 0
-948 -945 915 0
-946 915 0
-948 -946 0
-942 914 0
-948 -942 915 0
-943 915 0
-948 -943 0
-942 -945 915 0
-948 -942 -945 0
-942 -946 0
-948 -942 -946 0
-943 -945 0
-948 -943 -945 0
-943 -946 0
-948 -943 -946 0
-952 947 953 0
-950 947 953 0
-950 -952 953 0
-953 945 0
-951 945 0
-953 -951 946 0
-949 945 0
-953 -949 946 0
-949 -951 946 0
-953 -949 -951 0
-71 952 954 0
-70 952 954 0
-70 -71 954 0
-954 951 0
-69 950 955 0
-68 950 955 0
-68 -69 955 0
-955 949 0
-959 944 960 0
-957 944 960 0
-957 -959 960 0
-960 942 0
-958 942 0
-960 -958 943 0
-956 942 0
-960 -956 943 0
-956 -958 943 0
-960 -956 -958 0
-67 959 961 0
-66 959 961 0
-66 -67 961 0
-961 958 0
-65 957 962 0
-64 957 962 0
-64 -65 962 0
-962 956 0
-968 745 969 0
-965 745 969 0
-965 -968 969 0
-969 743 0
-966 743 0
-969 -966 744 0
-967 744 0
-969 -967 0
-963 743 0
-969 -963 744 0
-964 744 0
-969 -964 0
-963 -966 744 0
-969 -963 -966 0
-963 -967 0
-969 -963 -967 0
-964 -966 0
-969 -964 -966 0
-964 -967 0
-969 -964 -967 0
-975 968 976 0
-972 968 976 0
-972 -975 976 0
-976 966 0
-973 966 0
-976 -973 967 0
-974 967 0
-976 -974 0
-970 966 0
-976 -970 967 0
-971 967 0
-976 -971 0
-970 -973 967 0
-976 -970 -973 0
-970 -974 0
-976 -970 -974 0
-971 -973 0
-976 -971 -973 0
-971 -974 0
-976 -971 -974 0
-982 975 983 0
-979 975 983 0
-979 -982 983 0
-983 973 0
-980 973 0
-983 -980 974 0
-981 974 0
-983 -981 0
-977 973 0
-983 -977 974 0
-978 974 0
-983 -978 0
-977 -980 974 0
-983 -977 -980 0
-977 -981 0
-983 -977 -981 0
-978 -980 0
-983 -978 -980 0
-978 -981 0
-983 -978 -981 0
-988 982 989 0
-986 982 989 0
-986 -988 989 0
-989 980 0
-987 980 0
-989 -987 981 0
-984 980 0
-989 -984 981 0
-985 981 0
-989 -985 0
-984 -987 981 0
-989 -984 -987 0
-985 -987 0
-989 -985 -987 0
-63 988 992 0
-991 988 992 0
-991 -63 992 0
-992 987 0
-990 987 0
-992 -990 0
-62 991 993 0
-61 991 993 0
-61 -62 993 0
-993 990 0
-997 986 998 0
-995 986 998 0
-995 -997 998 0
-998 984 0
-996 984 0
-998 -996 985 0
-994 984 0
-998 -994 985 0
-994 -996 985 0
-998 -994 -996 0
-60 997 999 0
-59 997 999 0
-59 -60 999 0
-999 996 0
-58 995 1000 0
-57 995 1000 0
-57 -58 1000 0
-1000 994 0
-1006 979 1007 0
-1003 979 1007 0
-1003 -1006 1007 0
-1007 977 0
-1004 977 0
-1007 -1004 978 0
-1005 978 0
-1007 -1005 0
-1001 977 0
-1007 -1001 978 0
-1002 978 0
-1007 -1002 0
-1001 -1004 978 0
-1007 -1001 -1004 0
-1001 -1005 0
-1007 -1001 -1005 0
-1002 -1004 0
-1007 -1002 -1004 0
-1002 -1005 0
-1007 -1002 -1005 0
-1011 1006 1012 0
-1009 1006 1012 0
-1009 -1011 1012 0
-1012 1004 0
-1010 1004 0
-1012 -1010 1005 0
-1008 1004 0
-1012 -1008 1005 0
-1008 -1010 1005 0
-1012 -1008 -1010 0
-56 1011 1013 0
-55 1011 1013 0
-55 -56 1013 0
-1013 1010 0
-54 1009 1014 0
-53 1009 1014 0
-53 -54 1014 0
-1014 1008 0
-1018 1003 1019 0
-1016 1003 1019 0
-1016 -1018 1019 0
-1019 1001 0
-1017 1001 0
-1019 -1017 1002 0
-1015 1001 0
-1019 -1015 1002 0
-1015 -1017 1002 0
-1019 -1015 -1017 0
-52 1018 1020 0
-51 1018 1020 0
-51 -52 1020 0
-1020 1017 0
-50 1016 1021 0
-49 1016 1021 0
-49 -50 1021 0
-1021 1015 0
-1027 972 1028 0
-1024 972 1028 0
-1024 -1027 1028 0
-1028 970 0
-1025 970 0
-1028 -1025 971 0
-1026 971 0
-1028 -1026 0
-1022 970 0
-1028 -1022 971 0
-1023 971 0
-1028 -1023 0
-1022 -1025 971 0
-1028 -1022 -1025 0
-1022 -1026 0
-1028 -1022 -1026 0
-1023 -1025 0
-1028 -1023 -1025 0
-1023 -1026 0
-1028 -1023 -1026 0
-1034 1027 1035 0
-1031 1027 1035 0
-1031 -1034 1035 0
-1035 1025 0
-1032 1025 0
-1035 -1032 1026 0
-1033 1026 0
-1035 -1033 0
-1029 1025 0
-1035 -1029 1026 0
-1030 1026 0
-1035 -1030 0
-1029 -1032 1026 0
-1035 -1029 -1032 0
-1029 -1033 0
-1035 -1029 -1033 0
-1030 -1032 0
-1035 -1030 -1032 0
-1030 -1033 0
-1035 -1030 -1033 0
-1039 1034 1040 0
-1037 1034 1040 0
-1037 -1039 1040 0
-1040 1032 0
-1038 1032 0
-1040 -1038 1033 0
-1036 1032 0
-1040 -1036 1033 0
-1036 -1038 1033 0
-1040 -1036 -1038 0
-48 1039 1041 0
-47 1039 1041 0
-47 -48 1041 0
-1041 1038 0
-46 1037 1042 0
-45 1037 1042 0
-45 -46 1042 0
-1042 1036 0
-1046 1031 1047 0
-1044 1031 1047 0
-1044 -1046 1047 0
-1047 1029 0
-1045 1029 0
-1047 -1045 1030 0
-1043 1029 0
-1047 -1043 1030 0
-1043 -1045 1030 0
-1047 -1043 -1045 0
-44 1046 1048 0
-43 1046 1048 0
-43 -44 1048 0
-1048 1045 0
-42 1044 1049 0
-41 1044 1049 0
-41 -42 1049 0
-1049 1043 0
-1055 1024 1056 0
-1052 1024 1056 0
-1052 -1055 1056 0
-1056 1022 0
-1053 1022 0
-1056 -1053 1023 0
-1054 1023 0
-1056 -1054 0
-1050 1022 0
-1056 -1050 1023 0
-1051 1023 0
-1056 -1051 0
-1050 -1053 1023 0
-1056 -1050 -1053 0
-1050 -1054 0
-1056 -1050 -1054 0
-1051 -1053 0
-1056 -1051 -1053 0
-1051 -1054 0
-1056 -1051 -1054 0
-1060 1055 1061 0
-1058 1055 1061 0
-1058 -1060 1061 0
-1061 1053 0
-1059 1053 0
-1061 -1059 1054 0
-1057 1053 0
-1061 -1057 1054 0
-1057 -1059 1054 0
-1061 -1057 -1059 0
-40 1060 1062 0
-39 1060 1062 0
-39 -40 1062 0
-1062 1059 0
-38 1058 1063 0
-37 1058 1063 0
-37 -38 1063 0
-1063 1057 0
-1067 1052 1068 0
-1065 1052 1068 0
-1065 -1067 1068 0
-1068 1050 0
-1066 1050 0
-1068 -1066 1051 0
-1064 1050 0
-1068 -1064 1051 0
-1064 -1066 1051 0
-1068 -1064 -1066 0
-36 1067 1069 0
-35 1067 1069 0
-35 -36 1069 0
-1069 1066 0
-34 1065 1070 0
-33 1065 1070 0
-33 -34 1070 0
-1070 1064 0
-1076 965 1077 0
-1073 965 1077 0
-1073 -1076 1077 0
-1077 963 0
-1074 963 0
-1077 -1074 964 0
-1075 964 0
-1077 -1075 0
-1071 963 0
-1077 -1071 964 0
-1072 964 0
-1077 -1072 0
-1071 -1074 964 0
-1077 -1071 -1074 0
-1071 -1075 0
-1077 -1071 -1075 0
-1072 -1074 0
-1077 -1072 -1074 0
-1072 -1075 0
-1077 -1072 -1075 0
-1083 1076 1084 0
-1080 1076 1084 0
-1080 -1083 1084 0
-1084 1074 0
-1081 1074 0
-1084 -1081 1075 0
-1082 1075 0
-1084 -1082 0
-1078 1074 0
-1084 -1078 1075 0
-1079 1075 0
-1084 -1079 0
-1078 -1081 1075 0
-1084 -1078 -1081 0
-1078 -1082 0
-1084 -1078 -1082 0
-1079 -1081 0
-1084 -1079 -1081 0
-1079 -1082 0
-1084 -1079 -1082 0
-1090 1083 1091 0
-1087 1083 1091 0
-1087 -1090 1091 0
-1091 1081 0
-1088 1081 0
-1091 -1088 1082 0
-1089 1082 0
-1091 -1089 0
-1085 1081 0
-1091 -1085 1082 0
-1086 1082 0
-1091 -1086 0
-1085 -1088 1082 0
-1091 -1085 -1088 0
-1085 -1089 0
-1091 -1085 -1089 0
-1086 -1088 0
-1091 -1086 -1088 0
-1086 -1089 0
-1091 -1086 -1089 0
-1095 1090 1096 0
-1093 1090 1096 0
-1093 -1095 1096 0
-1096 1088 0
-1094 1088 0
-1096 -1094 1089 0
-1092 1088 0
-1096 -1092 1089 0
-1092 -1094 1089 0
-1096 -1092 -1094 0
-32 1095 1097 0
-31 1095 1097 0
-31 -32 1097 0
-1097 1094 0
-30 1093 1098 0
-29 1093 1098 0
-29 -30 1098 0
-1098 1092 0
-1102 1087 1103 0
-1100 1087 1103 0
-1100 -1102 1103 0
-1103 1085 0
-1101 1085 0
-1103 -1101 1086 0
-1099 1085 0
-1103 -1099 1086 0
-1099 -1101 1086 0
-1103 -1099 -1101 0
-28 1102 1104 0
-27 1102 1104 0
-27 -28 1104 0
-1104 1101 0
-26 1100 1105 0
-25 1100 1105 0
-25 -26 1105 0
-1105 1099 0
-1111 1080 1112 0
-1108 1080 1112 0
-1108 -1111 1112 0
-1112 1078 0
-1109 1078 0
-1112 -1109 1079 0
-1110 1079 0
-1112 -1110 0
-1106 1078 0
-1112 -1106 1079 0
-1107 1079 0
-1112 -1107 0
-1106 -1109 1079 0
-1112 -1106 -1109 0
-1106 -1110 0
-1112 -1106 -1110 0
-1107 -1109 0
-1112 -1107 -1109 0
-1107 -1110 0
-1112 -1107 -1110 0
-1116 1111 1117 0
-1114 1111 1117 0
-1114 -1116 1117 0
-1117 1109 0
-1115 1109 0
-1117 -1115 1110 0
-1113 1109 0
-1117 -1113 1110 0
-1113 -1115 1110 0
-1117 -1113 -1115 0
-24 1116 1118 0
-23 1116 1118 0
-23 -24 1118 0
-1118 1115 0
-22 1114 1119 0
-21 1114 1119 0
-21 -22 1119 0
-1119 1113 0
-1123 1108 1124 0
-1121 1108 1124 0
-1121 -1123 1124 0
-1124 1106 0
-1122 1106 0
-1124 -1122 1107 0
-1120 1106 0
-1124 -1120 1107 0
-1120 -1122 1107 0
-1124 -1120 -1122 0
-20 1123 1125 0
-19 1123 1125 0
-19 -20 1125 0
-1125 1122 0
-18 1121 1126 0
-17 1121 1126 0
-17 -18 1126 0
-1126 1120 0
-1132 1073 1133 0
-1129 1073 1133 0
-1129 -1132 1133 0
-1133 1071 0
-1130 1071 0
-1133 -1130 1072 0
-1131 1072 0
-1133 -1131 0
-1127 1071 0
-1133 -1127 1072 0
-1128 1072 0
-1133 -1128 0
-1127 -1130 1072 0
-1133 -1127 -1130 0
-1127 -1131 0
-1133 -1127 -1131 0
-1128 -1130 0
-1133 -1128 -1130 0
-1128 -1131 0
-1133 -1128 -1131 0
-1139 1132 1140 0
-1136 1132 1140 0
-1136 -1139 1140 0
-1140 1130 0
-1137 1130 0
-1140 -1137 1131 0
-1138 1131 0
-1140 -1138 0
-1134 1130 0
-1140 -1134 1131 0
-1135 1131 0
-1140 -1135 0
-1134 -1137 1131 0
-1140 -1134 -1137 0
-1134 -1138 0
-1140 -1134 -1138 0
-1135 -1137 0
-1140 -1135 -1137 0
-1135 -1138 0
-1140 -1135 -1138 0
-1144 1139 1145 0
-1142 1139 1145 0
-1142 -1144 1145 0
-1145 1137 0
-1143 1137 0
-1145 -1143 1138 0
-1141 1137 0
-1145 -1141 1138 0
-1141 -1143 1138 0
-1145 -1141 -1143 0
-16 1144 1146 0
-15 1144 1146 0
-15 -16 1146 0
-1146 1143 0
-14 1142 1147 0
-13 1142 1147 0
-13 -14 1147 0
-1147 1141 0
-1151 1136 1152 0
-1149 1136 1152 0
-1149 -1151 1152 0
-1152 1134 0
-1150 1134 0
-1152 -1150 1135 0
-1148 1134 0
-1152 -1148 1135 0
-1148 -1150 1135 0
-1152 -1148 -1150 0
-12 1151 1153 0
-11 1151 1153 0
-11 -12 1153 0
-1153 1150 0
-10 1149 1154 0
-9 1149 1154 0
-9 -10 1154 0
-1154 1148 0
-1160 1129 1161 0
-1157 1129 1161 0
-1157 -1160 1161 0
-1161 1127 0
-1158 1127 0
-1161 -1158 1128 0
-1159 1128 0
-1161 -1159 0
-1155 1127 0
-1161 -1155 1128 0
-1156 1128 0
-1161 -1156 0
-1155 -1158 1128 0
-1161 -1155 -1158 0
-1155 -1159 0
-1161 -1155 -1159 0
-1156 -1158 0
-1161 -1156 -1158 0
-1156 -1159 0
-1161 -1156 -1159 0
-1165 1160 1166 0
-1163 1160 1166 0
-1163 -1165 1166 0
-1166 1158 0
-1164 1158 0
-1166 -1164 1159 0
-1162 1158 0
-1166 -1162 1159 0
-1162 -1164 1159 0
-1166 -1162 -1164 0
-8 1165 1167 0
-7 1165 1167 0
-7 -8 1167 0
-1167 1164 0
-6 1163 1168 0
-5 1163 1168 0
-5 -6 1168 0
-1168 1162 0
-1172 1157 1173 0
-1170 1157 1173 0
-1170 -1172 1173 0
-1173 1155 0
-1171 1155 0
-1173 -1171 1156 0
-1169 1155 0
-1173 -1169 1156 0
-1169 -1171 1156 0
-1173 -1169 -1171 0
-4 1172 1174 0
-3 1172 1174 0
-3 -4 1174 0
-1174 1171 0
-2 1170 1175 0
-1 1170 1175 0
-1 -2 1175 0
-1175 1169 0
