p cnf 93 240
1 8 -17 0
-1 -8 -17 0
1 -8 17 0
-1 8 17 0
17 9 -18 0
-17 -9 -18 0
17 -9 18 0
-17 9 18 0
18 14 -19 0
-18 -14 -19 0
18 -14 19 0
-18 14 19 0
-19 0
1 2 -20 0
-1 -2 -20 0
1 -2 20 0
-1 2 20 0
20 10 -21 0
-20 -10 -21 0
20 -10 21 0
-20 10 21 0
21 15 -22 0
-21 -15 -22 0
21 -15 22 0
-21 15 22 0
-22 0
2 3 -23 0
-2 -3 -23 0
2 -3 23 0
-2 3 23 0
23 11 -24 0
-23 -11 -24 0
23 -11 24 0
-23 11 24 0
24 16 -25 0
-24 -16 -25 0
24 -16 25 0
-24 16 25 0
-25 0
3 4 -26 0
-3 -4 -26 0
3 -4 26 0
-3 4 26 0
26 9 -27 0
-26 -9 -27 0
26 -9 27 0
-26 9 27 0
27 12 -28 0
-27 -12 -28 0
27 -12 28 0
-27 12 28 0
-28 0
4 5 -29 0
-4 -5 -29 0
4 -5 29 0
-4 5 29 0
29 10 -30 0
-29 -10 -30 0
29 -10 30 0
-29 10 30 0
30 13 -31 0
-30 -13 -31 0
30 -13 31 0
-30 13 31 0
-31 0
5 6 -32 0
-5 -6 -32 0
5 -6 32 0
-5 6 32 0
32 11 -33 0
-32 -11 -33 0
32 -11 33 0
-32 11 33 0
33 14 -34 0
-33 -14 -34 0
33 -14 34 0
-33 14 34 0
-34 0
6 7 -35 0
-6 -7 -35 0
6 -7 35 0
-6 7 35 0
35 12 -36 0
-35 -12 -36 0
35 -12 36 0
-35 12 36 0
36 15 -37 0
-36 -15 -37 0
36 -15 37 0
-36 15 37 0
-37 0
7 8 -38 0
-7 -8 -38 0
7 -8 38 0
-7 8 38 0
38 13 -39 0
-38 -13 -39 0
38 -13 39 0
-38 13 39 0
39 16 -40 0
-39 -16 -40 0
39 -16 40 0
-39 16 40 0
-40 0
1 10 -41 0
-1 -10 -41 0
1 -10 41 0
-1 10 41 0
41 11 -42 0
-41 -11 -42 0
41 -11 42 0
-41 11 42 0
42 12 -43 0
-42 -12 -43 0
42 -12 43 0
-42 12 43 0
43 13 -44 0
-43 -13 -44 0
43 -13 44 0
-43 13 44 0
44 14 -45 0
-44 -14 -45 0
44 -14 45 0
-44 14 45 0
4 10 -46 0
-4 -10 -46 0
4 -10 46 0
-4 10 46 0
46 11 -47 0
-46 -11 -47 0
46 -11 47 0
-46 11 47 0
47 12 -48 0
-47 -12 -48 0
47 -12 48 0
-47 12 48 0
45 48 0
1 0
-54 50 55 0
-52 50 55 0
-52 -54 55 0
-55 49 0
-53 49 0
-55 -53 0
-51 49 0
-55 -51 0
-51 -53 0
-55 -51 -53 0
-59 54 60 0
-57 54 60 0
-57 -59 60 0
-60 53 0
-58 53 0
-60 -58 0
-56 53 0
-60 -56 0
-56 -58 0
-60 -56 -58 0
-64 59 65 0
-62 59 65 0
-62 -64 65 0
-65 58 0
-63 58 0
-65 -63 0
-61 58 0
-65 -61 0
-61 -63 0
-65 -61 -63 0
-16 64 66 0
-15 64 66 0
-15 -16 66 0
-66 63 0
-14 62 67 0
-13 62 67 0
-13 -14 67 0
-67 61 0
-71 57 72 0
-69 57 72 0
-69 -71 72 0
-72 56 0
-70 56 0
-72 -70 0
-68 56 0
-72 -68 0
-68 -70 0
-72 -68 -70 0
-12 71 73 0
-11 71 73 0
-11 -12 73 0
-73 70 0
-10 69 74 0
-9 69 74 0
-9 -10 74 0
-74 68 0
-78 52 79 0
-76 52 79 0
-76 -78 79 0
-79 51 0
-77 51 0
-79 -77 0
-75 51 0
-79 -75 0
-75 -77 0
-79 -75 -77 0
-83 78 84 0
-81 78 84 0
-81 -83 84 0
-84 77 0
-82 77 0
-84 -82 0
-80 77 0
-84 -80 0
-80 -82 0
-84 -80 -82 0
-8 83 85 0
-7 83 85 0
-7 -8 85 0
-85 82 0
-6 81 86 0
-5 81 86 0
-5 -6 86 0
-86 80 0
-90 76 91 0
-88 76 91 0
-88 -90 91 0
-91 75 0
-89 75 0
-91 -89 0
-87 75 0
-91 -87 0
-87 -89 0
-91 -87 -89 0
-4 90 92 0
-3 90 92 0
-3 -4 92 0
-92 89 0
-2 88 93 0
-1 88 93 0
-1 -2 93 0
-93 87 0
