p cnf 606 1873
1 32 -69 0
-1 -32 -69 0
1 -32 69 0
-1 32 69 0
69 33 -70 0
-69 -33 -70 0
69 -33 70 0
-69 33 70 0
70 34 -71 0
-70 -34 -71 0
70 -34 71 0
-70 34 71 0
71 35 -72 0
-71 -35 -72 0
71 -35 72 0
-71 35 72 0
72 59 -73 0
-72 -59 -73 0
72 -59 73 0
-72 59 73 0
73 63 -74 0
-73 -63 -74 0
73 -63 74 0
-73 63 74 0
74 65 -75 0
-74 -65 -75 0
74 -65 75 0
-74 65 75 0
-75 0
1 2 -76 0
-1 -2 -76 0
1 -2 76 0
-1 2 76 0
76 33 -77 0
-76 -33 -77 0
76 -33 77 0
-76 33 77 0
77 34 -78 0
-77 -34 -78 0
77 -34 78 0
-77 34 78 0
78 36 -79 0
-78 -36 -79 0
78 -36 79 0
-78 36 79 0
79 60 -80 0
-79 -60 -80 0
79 -60 80 0
-79 60 80 0
80 64 -81 0
-80 -64 -81 0
80 -64 81 0
-80 64 81 0
81 66 -82 0
-81 -66 -82 0
81 -66 82 0
-81 66 82 0
-82 0
1 2 -83 0
-1 -2 -83 0
1 -2 83 0
-1 2 83 0
83 3 -84 0
-83 -3 -84 0
83 -3 84 0
-83 3 84 0
84 34 -85 0
-84 -34 -85 0
84 -34 85 0
-84 34 85 0
85 37 -86 0
-85 -37 -86 0
85 -37 86 0
-85 37 86 0
86 61 -87 0
-86 -61 -87 0
86 -61 87 0
-86 61 87 0
87 65 -88 0
-87 -65 -88 0
87 -65 88 0
-87 65 88 0
88 67 -89 0
-88 -67 -89 0
88 -67 89 0
-88 67 89 0
-89 0
1 2 -90 0
-1 -2 -90 0
1 -2 90 0
-1 2 90 0
90 3 -91 0
-90 -3 -91 0
90 -3 91 0
-90 3 91 0
91 4 -92 0
-91 -4 -92 0
91 -4 92 0
-91 4 92 0
92 38 -93 0
-92 -38 -93 0
92 -38 93 0
-92 38 93 0
93 62 -94 0
-93 -62 -94 0
93 -62 94 0
-93 62 94 0
94 66 -95 0
-94 -66 -95 0
94 -66 95 0
-94 66 95 0
95 68 -96 0
-95 -68 -96 0
95 -68 96 0
-95 68 96 0
-96 0
2 3 -97 0
-2 -3 -97 0
2 -3 97 0
-2 3 97 0
97 4 -98 0
-97 -4 -98 0
97 -4 98 0
-97 4 98 0
98 5 -99 0
-98 -5 -99 0
98 -5 99 0
-98 5 99 0
99 35 -100 0
-99 -35 -100 0
99 -35 100 0
-99 35 100 0
100 39 -101 0
-100 -39 -101 0
100 -39 101 0
-100 39 101 0
101 63 -102 0
-101 -63 -102 0
101 -63 102 0
-101 63 102 0
102 67 -103 0
-102 -67 -103 0
102 -67 103 0
-102 67 103 0
-103 0
3 4 -104 0
-3 -4 -104 0
3 -4 104 0
-3 4 104 0
104 5 -105 0
-104 -5 -105 0
104 -5 105 0
-104 5 105 0
105 6 -106 0
-105 -6 -106 0
105 -6 106 0
-105 6 106 0
106 36 -107 0
-106 -36 -107 0
106 -36 107 0
-106 36 107 0
107 40 -108 0
-107 -40 -108 0
107 -40 108 0
-107 40 108 0
108 64 -109 0
-108 -64 -109 0
108 -64 109 0
-108 64 109 0
109 68 -110 0
-109 -68 -110 0
109 -68 110 0
-109 68 110 0
-110 0
4 5 -111 0
-4 -5 -111 0
4 -5 111 0
-4 5 111 0
111 6 -112 0
-111 -6 -112 0
111 -6 112 0
-111 6 112 0
112 7 -113 0
-112 -7 -113 0
112 -7 113 0
-112 7 113 0
113 35 -114 0
-113 -35 -114 0
113 -35 114 0
-113 35 114 0
114 37 -115 0
-114 -37 -115 0
114 -37 115 0
-114 37 115 0
115 41 -116 0
-115 -41 -116 0
115 -41 116 0
-115 41 116 0
116 65 -117 0
-116 -65 -117 0
116 -65 117 0
-116 65 117 0
-117 0
5 6 -118 0
-5 -6 -118 0
5 -6 118 0
-5 6 118 0
118 7 -119 0
-118 -7 -119 0
118 -7 119 0
-118 7 119 0
119 8 -120 0
-119 -8 -120 0
119 -8 120 0
-119 8 120 0
120 36 -121 0
-120 -36 -121 0
120 -36 121 0
-120 36 121 0
121 38 -122 0
-121 -38 -122 0
121 -38 122 0
-121 38 122 0
122 42 -123 0
-122 -42 -123 0
122 -42 123 0
-122 42 123 0
123 66 -124 0
-123 -66 -124 0
123 -66 124 0
-123 66 124 0
-124 0
6 7 -125 0
-6 -7 -125 0
6 -7 125 0
-6 7 125 0
125 8 -126 0
-125 -8 -126 0
125 -8 126 0
-125 8 126 0
126 9 -127 0
-126 -9 -127 0
126 -9 127 0
-126 9 127 0
127 37 -128 0
-127 -37 -128 0
127 -37 128 0
-127 37 128 0
128 39 -129 0
-128 -39 -129 0
128 -39 129 0
-128 39 129 0
129 43 -130 0
-129 -43 -130 0
129 -43 130 0
-129 43 130 0
130 67 -131 0
-130 -67 -131 0
130 -67 131 0
-130 67 131 0
-131 0
7 8 -132 0
-7 -8 -132 0
7 -8 132 0
-7 8 132 0
132 9 -133 0
-132 -9 -133 0
132 -9 133 0
-132 9 133 0
133 10 -134 0
-133 -10 -134 0
133 -10 134 0
-133 10 134 0
134 38 -135 0
-134 -38 -135 0
134 -38 135 0
-134 38 135 0
135 40 -136 0
-135 -40 -136 0
135 -40 136 0
-135 40 136 0
136 44 -137 0
-136 -44 -137 0
136 -44 137 0
-136 44 137 0
137 68 -138 0
-137 -68 -138 0
137 -68 138 0
-137 68 138 0
-138 0
8 9 -139 0
-8 -9 -139 0
8 -9 139 0
-8 9 139 0
139 10 -140 0
-139 -10 -140 0
139 -10 140 0
-139 10 140 0
140 11 -141 0
-140 -11 -141 0
140 -11 141 0
-140 11 141 0
141 35 -142 0
-141 -35 -142 0
141 -35 142 0
-141 35 142 0
142 39 -143 0
-142 -39 -143 0
142 -39 143 0
-142 39 143 0
143 41 -144 0
-143 -41 -144 0
143 -41 144 0
-143 41 144 0
144 45 -145 0
-144 -45 -145 0
144 -45 145 0
-144 45 145 0
-145 0
9 10 -146 0
-9 -10 -146 0
9 -10 146 0
-9 10 146 0
146 11 -147 0
-146 -11 -147 0
146 -11 147 0
-146 11 147 0
147 12 -148 0
-147 -12 -148 0
147 -12 148 0
-147 12 148 0
148 36 -149 0
-148 -36 -149 0
148 -36 149 0
-148 36 149 0
149 40 -150 0
-149 -40 -150 0
149 -40 150 0
-149 40 150 0
150 42 -151 0
-150 -42 -151 0
150 -42 151 0
-150 42 151 0
151 46 -152 0
-151 -46 -152 0
151 -46 152 0
-151 46 152 0
-152 0
10 11 -153 0
-10 -11 -153 0
10 -11 153 0
-10 11 153 0
153 12 -154 0
-153 -12 -154 0
153 -12 154 0
-153 12 154 0
154 13 -155 0
-154 -13 -155 0
154 -13 155 0
-154 13 155 0
155 37 -156 0
-155 -37 -156 0
155 -37 156 0
-155 37 156 0
156 41 -157 0
-156 -41 -157 0
156 -41 157 0
-156 41 157 0
157 43 -158 0
-157 -43 -158 0
157 -43 158 0
-157 43 158 0
158 47 -159 0
-158 -47 -159 0
158 -47 159 0
-158 47 159 0
-159 0
11 12 -160 0
-11 -12 -160 0
11 -12 160 0
-11 12 160 0
160 13 -161 0
-160 -13 -161 0
160 -13 161 0
-160 13 161 0
161 14 -162 0
-161 -14 -162 0
161 -14 162 0
-161 14 162 0
162 38 -163 0
-162 -38 -163 0
162 -38 163 0
-162 38 163 0
163 42 -164 0
-163 -42 -164 0
163 -42 164 0
-163 42 164 0
164 44 -165 0
-164 -44 -165 0
164 -44 165 0
-164 44 165 0
165 48 -166 0
-165 -48 -166 0
165 -48 166 0
-165 48 166 0
-166 0
12 13 -167 0
-12 -13 -167 0
12 -13 167 0
-12 13 167 0
167 14 -168 0
-167 -14 -168 0
167 -14 168 0
-167 14 168 0
168 15 -169 0
-168 -15 -169 0
168 -15 169 0
-168 15 169 0
169 39 -170 0
-169 -39 -170 0
169 -39 170 0
-169 39 170 0
170 43 -171 0
-170 -43 -171 0
170 -43 171 0
-170 43 171 0
171 45 -172 0
-171 -45 -172 0
171 -45 172 0
-171 45 172 0
172 49 -173 0
-172 -49 -173 0
172 -49 173 0
-172 49 173 0
-173 0
13 14 -174 0
-13 -14 -174 0
13 -14 174 0
-13 14 174 0
174 15 -175 0
-174 -15 -175 0
174 -15 175 0
-174 15 175 0
175 16 -176 0
-175 -16 -176 0
175 -16 176 0
-175 16 176 0
176 40 -177 0
-176 -40 -177 0
176 -40 177 0
-176 40 177 0
177 44 -178 0
-177 -44 -178 0
177 -44 178 0
-177 44 178 0
178 46 -179 0
-178 -46 -179 0
178 -46 179 0
-178 46 179 0
179 50 -180 0
-179 -50 -180 0
179 -50 180 0
-179 50 180 0
-180 0
14 15 -181 0
-14 -15 -181 0
14 -15 181 0
-14 15 181 0
181 16 -182 0
-181 -16 -182 0
181 -16 182 0
-181 16 182 0
182 17 -183 0
-182 -17 -183 0
182 -17 183 0
-182 17 183 0
183 41 -184 0
-183 -41 -184 0
183 -41 184 0
-183 41 184 0
184 45 -185 0
-184 -45 -185 0
184 -45 185 0
-184 45 185 0
185 47 -186 0
-185 -47 -186 0
185 -47 186 0
-185 47 186 0
186 51 -187 0
-186 -51 -187 0
186 -51 187 0
-186 51 187 0
-187 0
15 16 -188 0
-15 -16 -188 0
15 -16 188 0
-15 16 188 0
188 17 -189 0
-188 -17 -189 0
188 -17 189 0
-188 17 189 0
189 18 -190 0
-189 -18 -190 0
189 -18 190 0
-189 18 190 0
190 42 -191 0
-190 -42 -191 0
190 -42 191 0
-190 42 191 0
191 46 -192 0
-191 -46 -192 0
191 -46 192 0
-191 46 192 0
192 48 -193 0
-192 -48 -193 0
192 -48 193 0
-192 48 193 0
193 52 -194 0
-193 -52 -194 0
193 -52 194 0
-193 52 194 0
-194 0
16 17 -195 0
-16 -17 -195 0
16 -17 195 0
-16 17 195 0
195 18 -196 0
-195 -18 -196 0
195 -18 196 0
-195 18 196 0
196 19 -197 0
-196 -19 -197 0
196 -19 197 0
-196 19 197 0
197 43 -198 0
-197 -43 -198 0
197 -43 198 0
-197 43 198 0
198 47 -199 0
-198 -47 -199 0
198 -47 199 0
-198 47 199 0
199 49 -200 0
-199 -49 -200 0
199 -49 200 0
-199 49 200 0
200 53 -201 0
-200 -53 -201 0
200 -53 201 0
-200 53 201 0
-201 0
17 18 -202 0
-17 -18 -202 0
17 -18 202 0
-17 18 202 0
202 19 -203 0
-202 -19 -203 0
202 -19 203 0
-202 19 203 0
203 20 -204 0
-203 -20 -204 0
203 -20 204 0
-203 20 204 0
204 44 -205 0
-204 -44 -205 0
204 -44 205 0
-204 44 205 0
205 48 -206 0
-205 -48 -206 0
205 -48 206 0
-205 48 206 0
206 50 -207 0
-206 -50 -207 0
206 -50 207 0
-206 50 207 0
207 54 -208 0
-207 -54 -208 0
207 -54 208 0
-207 54 208 0
-208 0
18 19 -209 0
-18 -19 -209 0
18 -19 209 0
-18 19 209 0
209 20 -210 0
-209 -20 -210 0
209 -20 210 0
-209 20 210 0
210 21 -211 0
-210 -21 -211 0
210 -21 211 0
-210 21 211 0
211 45 -212 0
-211 -45 -212 0
211 -45 212 0
-211 45 212 0
212 49 -213 0
-212 -49 -213 0
212 -49 213 0
-212 49 213 0
213 51 -214 0
-213 -51 -214 0
213 -51 214 0
-213 51 214 0
214 55 -215 0
-214 -55 -215 0
214 -55 215 0
-214 55 215 0
-215 0
19 20 -216 0
-19 -20 -216 0
19 -20 216 0
-19 20 216 0
216 21 -217 0
-216 -21 -217 0
216 -21 217 0
-216 21 217 0
217 22 -218 0
-217 -22 -218 0
217 -22 218 0
-217 22 218 0
218 46 -219 0
-218 -46 -219 0
218 -46 219 0
-218 46 219 0
219 50 -220 0
-219 -50 -220 0
219 -50 220 0
-219 50 220 0
220 52 -221 0
-220 -52 -221 0
220 -52 221 0
-220 52 221 0
221 56 -222 0
-221 -56 -222 0
221 -56 222 0
-221 56 222 0
-222 0
20 21 -223 0
-20 -21 -223 0
20 -21 223 0
-20 21 223 0
223 22 -224 0
-223 -22 -224 0
223 -22 224 0
-223 22 224 0
224 23 -225 0
-224 -23 -225 0
224 -23 225 0
-224 23 225 0
225 47 -226 0
-225 -47 -226 0
225 -47 226 0
-225 47 226 0
226 51 -227 0
-226 -51 -227 0
226 -51 227 0
-226 51 227 0
227 53 -228 0
-227 -53 -228 0
227 -53 228 0
-227 53 228 0
228 57 -229 0
-228 -57 -229 0
228 -57 229 0
-228 57 229 0
-229 0
21 22 -230 0
-21 -22 -230 0
21 -22 230 0
-21 22 230 0
230 23 -231 0
-230 -23 -231 0
230 -23 231 0
-230 23 231 0
231 24 -232 0
-231 -24 -232 0
231 -24 232 0
-231 24 232 0
232 48 -233 0
-232 -48 -233 0
232 -48 233 0
-232 48 233 0
233 52 -234 0
-233 -52 -234 0
233 -52 234 0
-233 52 234 0
234 54 -235 0
-234 -54 -235 0
234 -54 235 0
-234 54 235 0
235 58 -236 0
-235 -58 -236 0
235 -58 236 0
-235 58 236 0
-236 0
22 23 -237 0
-22 -23 -237 0
22 -23 237 0
-22 23 237 0
237 24 -238 0
-237 -24 -238 0
237 -24 238 0
-237 24 238 0
238 25 -239 0
-238 -25 -239 0
238 -25 239 0
-238 25 239 0
239 49 -240 0
-239 -49 -240 0
239 -49 240 0
-239 49 240 0
240 53 -241 0
-240 -53 -241 0
240 -53 241 0
-240 53 241 0
241 55 -242 0
-241 -55 -242 0
241 -55 242 0
-241 55 242 0
242 59 -243 0
-242 -59 -243 0
242 -59 243 0
-242 59 243 0
-243 0
23 24 -244 0
-23 -24 -244 0
23 -24 244 0
-23 24 244 0
244 25 -245 0
-244 -25 -245 0
244 -25 245 0
-244 25 245 0
245 26 -246 0
-245 -26 -246 0
245 -26 246 0
-245 26 246 0
246 50 -247 0
-246 -50 -247 0
246 -50 247 0
-246 50 247 0
247 54 -248 0
-247 -54 -248 0
247 -54 248 0
-247 54 248 0
248 56 -249 0
-248 -56 -249 0
248 -56 249 0
-248 56 249 0
249 60 -250 0
-249 -60 -250 0
249 -60 250 0
-249 60 250 0
-250 0
24 25 -251 0
-24 -25 -251 0
24 -25 251 0
-24 25 251 0
251 26 -252 0
-251 -26 -252 0
251 -26 252 0
-251 26 252 0
252 27 -253 0
-252 -27 -253 0
252 -27 253 0
-252 27 253 0
253 51 -254 0
-253 -51 -254 0
253 -51 254 0
-253 51 254 0
254 55 -255 0
-254 -55 -255 0
254 -55 255 0
-254 55 255 0
255 57 -256 0
-255 -57 -256 0
255 -57 256 0
-255 57 256 0
256 61 -257 0
-256 -61 -257 0
256 -61 257 0
-256 61 257 0
-257 0
25 26 -258 0
-25 -26 -258 0
25 -26 258 0
-25 26 258 0
258 27 -259 0
-258 -27 -259 0
258 -27 259 0
-258 27 259 0
259 28 -260 0
-259 -28 -260 0
259 -28 260 0
-259 28 260 0
260 52 -261 0
-260 -52 -261 0
260 -52 261 0
-260 52 261 0
261 56 -262 0
-261 -56 -262 0
261 -56 262 0
-261 56 262 0
262 58 -263 0
-262 -58 -263 0
262 -58 263 0
-262 58 263 0
263 62 -264 0
-263 -62 -264 0
263 -62 264 0
-263 62 264 0
-264 0
26 27 -265 0
-26 -27 -265 0
26 -27 265 0
-26 27 265 0
265 28 -266 0
-265 -28 -266 0
265 -28 266 0
-265 28 266 0
266 29 -267 0
-266 -29 -267 0
266 -29 267 0
-266 29 267 0
267 53 -268 0
-267 -53 -268 0
267 -53 268 0
-267 53 268 0
268 57 -269 0
-268 -57 -269 0
268 -57 269 0
-268 57 269 0
269 59 -270 0
-269 -59 -270 0
269 -59 270 0
-269 59 270 0
270 63 -271 0
-270 -63 -271 0
270 -63 271 0
-270 63 271 0
-271 0
27 28 -272 0
-27 -28 -272 0
27 -28 272 0
-27 28 272 0
272 29 -273 0
-272 -29 -273 0
272 -29 273 0
-272 29 273 0
273 30 -274 0
-273 -30 -274 0
273 -30 274 0
-273 30 274 0
274 54 -275 0
-274 -54 -275 0
274 -54 275 0
-274 54 275 0
275 58 -276 0
-275 -58 -276 0
275 -58 276 0
-275 58 276 0
276 60 -277 0
-276 -60 -277 0
276 -60 277 0
-276 60 277 0
277 64 -278 0
-277 -64 -278 0
277 -64 278 0
-277 64 278 0
-278 0
28 29 -279 0
-28 -29 -279 0
28 -29 279 0
-28 29 279 0
279 30 -280 0
-279 -30 -280 0
279 -30 280 0
-279 30 280 0
280 31 -281 0
-280 -31 -281 0
280 -31 281 0
-280 31 281 0
281 55 -282 0
-281 -55 -282 0
281 -55 282 0
-281 55 282 0
282 59 -283 0
-282 -59 -283 0
282 -59 283 0
-282 59 283 0
283 61 -284 0
-283 -61 -284 0
283 -61 284 0
-283 61 284 0
284 65 -285 0
-284 -65 -285 0
284 -65 285 0
-284 65 285 0
-285 0
29 30 -286 0
-29 -30 -286 0
29 -30 286 0
-29 30 286 0
286 31 -287 0
-286 -31 -287 0
286 -31 287 0
-286 31 287 0
287 32 -288 0
-287 -32 -288 0
287 -32 288 0
-287 32 288 0
288 56 -289 0
-288 -56 -289 0
288 -56 289 0
-288 56 289 0
289 60 -290 0
-289 -60 -290 0
289 -60 290 0
-289 60 290 0
290 62 -291 0
-290 -62 -291 0
290 -62 291 0
-290 62 291 0
291 66 -292 0
-291 -66 -292 0
291 -66 292 0
-291 66 292 0
-292 0
30 31 -293 0
-30 -31 -293 0
30 -31 293 0
-30 31 293 0
293 32 -294 0
-293 -32 -294 0
293 -32 294 0
-293 32 294 0
294 33 -295 0
-294 -33 -295 0
294 -33 295 0
-294 33 295 0
295 57 -296 0
-295 -57 -296 0
295 -57 296 0
-295 57 296 0
296 61 -297 0
-296 -61 -297 0
296 -61 297 0
-296 61 297 0
297 63 -298 0
-297 -63 -298 0
297 -63 298 0
-297 63 298 0
298 67 -299 0
-298 -67 -299 0
298 -67 299 0
-298 67 299 0
-299 0
31 32 -300 0
-31 -32 -300 0
31 -32 300 0
-31 32 300 0
300 33 -301 0
-300 -33 -301 0
300 -33 301 0
-300 33 301 0
301 34 -302 0
-301 -34 -302 0
301 -34 302 0
-301 34 302 0
302 58 -303 0
-302 -58 -303 0
302 -58 303 0
-302 58 303 0
303 62 -304 0
-303 -62 -304 0
303 -62 304 0
-303 62 304 0
304 64 -305 0
-304 -64 -305 0
304 -64 305 0
-304 64 305 0
305 68 -306 0
-305 -68 -306 0
305 -68 306 0
-305 68 306 0
-306 0
1 37 -307 0
-1 -37 -307 0
1 -37 307 0
-1 37 307 0
307 39 -308 0
-307 -39 -308 0
307 -39 308 0
-307 39 308 0
308 41 -309 0
-308 -41 -309 0
308 -41 309 0
-308 41 309 0
309 43 -310 0
-309 -43 -310 0
309 -43 310 0
-309 43 310 0
310 45 -311 0
-310 -45 -311 0
310 -45 311 0
-310 45 311 0
311 47 -312 0
-311 -47 -312 0
311 -47 312 0
-311 47 312 0
312 49 -313 0
-312 -49 -313 0
312 -49 313 0
-312 49 313 0
313 51 -314 0
-313 -51 -314 0
313 -51 314 0
-313 51 314 0
314 53 -315 0
-314 -53 -315 0
314 -53 315 0
-314 53 315 0
315 55 -316 0
-315 -55 -316 0
315 -55 316 0
-315 55 316 0
316 57 -317 0
-316 -57 -317 0
316 -57 317 0
-316 57 317 0
317 59 -318 0
-317 -59 -318 0
317 -59 318 0
-317 59 318 0
318 61 -319 0
-318 -61 -319 0
318 -61 319 0
-318 61 319 0
319 62 -320 0
-319 -62 -320 0
319 -62 320 0
-319 62 320 0
320 65 -321 0
-320 -65 -321 0
320 -65 321 0
-320 65 321 0
321 67 -322 0
-321 -67 -322 0
321 -67 322 0
-321 67 322 0
322 68 -323 0
-322 -68 -323 0
322 -68 323 0
-322 68 323 0
2 37 -324 0
-2 -37 -324 0
2 -37 324 0
-2 37 324 0
324 38 -325 0
-324 -38 -325 0
324 -38 325 0
-324 38 325 0
325 39 -326 0
-325 -39 -326 0
325 -39 326 0
-325 39 326 0
326 40 -327 0
-326 -40 -327 0
326 -40 327 0
-326 40 327 0
327 41 -328 0
-327 -41 -328 0
327 -41 328 0
-327 41 328 0
328 42 -329 0
-328 -42 -329 0
328 -42 329 0
-328 42 329 0
329 43 -330 0
-329 -43 -330 0
329 -43 330 0
-329 43 330 0
330 44 -331 0
-330 -44 -331 0
330 -44 331 0
-330 44 331 0
331 45 -332 0
-331 -45 -332 0
331 -45 332 0
-331 45 332 0
332 46 -333 0
-332 -46 -333 0
332 -46 333 0
-332 46 333 0
333 47 -334 0
-333 -47 -334 0
333 -47 334 0
-333 47 334 0
334 48 -335 0
-334 -48 -335 0
334 -48 335 0
-334 48 335 0
335 49 -336 0
-335 -49 -336 0
335 -49 336 0
-335 49 336 0
336 50 -337 0
-336 -50 -337 0
336 -50 337 0
-336 50 337 0
337 51 -338 0
-337 -51 -338 0
337 -51 338 0
-337 51 338 0
338 52 -339 0
-338 -52 -339 0
338 -52 339 0
-338 52 339 0
339 53 -340 0
-339 -53 -340 0
339 -53 340 0
-339 53 340 0
340 54 -341 0
-340 -54 -341 0
340 -54 341 0
-340 54 341 0
341 55 -342 0
-341 -55 -342 0
341 -55 342 0
-341 55 342 0
342 56 -343 0
-342 -56 -343 0
342 -56 343 0
-342 56 343 0
343 57 -344 0
-343 -57 -344 0
343 -57 344 0
-343 57 344 0
344 58 -345 0
-344 -58 -345 0
344 -58 345 0
-344 58 345 0
345 59 -346 0
-345 -59 -346 0
345 -59 346 0
-345 59 346 0
346 60 -347 0
-346 -60 -347 0
346 -60 347 0
-346 60 347 0
347 61 -348 0
-347 -61 -348 0
347 -61 348 0
-347 61 348 0
348 62 -349 0
-348 -62 -349 0
348 -62 349 0
-348 62 349 0
349 65 -350 0
-349 -65 -350 0
349 -65 350 0
-349 65 350 0
350 66 -351 0
-350 -66 -351 0
350 -66 351 0
-350 66 351 0
351 67 -352 0
-351 -67 -352 0
351 -67 352 0
-351 67 352 0
352 68 -353 0
-352 -68 -353 0
352 -68 353 0
-352 68 353 0
3 37 -354 0
-3 -37 -354 0
3 -37 354 0
-3 37 354 0
354 38 -355 0
-354 -38 -355 0
354 -38 355 0
-354 38 355 0
355 40 -356 0
-355 -40 -356 0
355 -40 356 0
-355 40 356 0
356 42 -357 0
-356 -42 -357 0
356 -42 357 0
-356 42 357 0
357 44 -358 0
-357 -44 -358 0
357 -44 358 0
-357 44 358 0
358 46 -359 0
-358 -46 -359 0
358 -46 359 0
-358 46 359 0
359 48 -360 0
-359 -48 -360 0
359 -48 360 0
-359 48 360 0
360 50 -361 0
-360 -50 -361 0
360 -50 361 0
-360 50 361 0
361 52 -362 0
-361 -52 -362 0
361 -52 362 0
-361 52 362 0
362 54 -363 0
-362 -54 -363 0
362 -54 363 0
-362 54 363 0
363 56 -364 0
-363 -56 -364 0
363 -56 364 0
-363 56 364 0
364 58 -365 0
-364 -58 -365 0
364 -58 365 0
-364 58 365 0
365 60 -366 0
-365 -60 -366 0
365 -60 366 0
-365 60 366 0
366 62 -367 0
-366 -62 -367 0
366 -62 367 0
-366 62 367 0
367 65 -368 0
-367 -65 -368 0
367 -65 368 0
-367 65 368 0
368 66 -369 0
-368 -66 -369 0
368 -66 369 0
-368 66 369 0
369 68 -370 0
-369 -68 -370 0
369 -68 370 0
-369 68 370 0
5 38 -371 0
-5 -38 -371 0
5 -38 371 0
-5 38 371 0
371 39 -372 0
-371 -39 -372 0
371 -39 372 0
-371 39 372 0
372 66 -373 0
-372 -66 -373 0
372 -66 373 0
-372 66 373 0
373 67 -374 0
-373 -67 -374 0
373 -67 374 0
-373 67 374 0
323 353 370 374 0
1 0
-383 377 384 0
-380 377 384 0
-380 -383 384 0
-384 375 0
-381 375 0
-384 -381 376 0
-382 376 0
-384 -382 0
-378 375 0
-384 -378 376 0
-379 376 0
-384 -379 0
-378 -381 376 0
-384 -378 -381 0
-378 -382 0
-384 -378 -382 0
-379 -381 0
-384 -379 -381 0
-379 -382 0
-384 -379 -382 0
-390 383 391 0
-387 383 391 0
-387 -390 391 0
-391 381 0
-388 381 0
-391 -388 382 0
-389 382 0
-391 -389 0
-385 381 0
-391 -385 382 0
-386 382 0
-391 -386 0
-385 -388 382 0
-391 -385 -388 0
-385 -389 0
-391 -385 -389 0
-386 -388 0
-391 -386 -388 0
-386 -389 0
-391 -386 -389 0
-397 390 398 0
-394 390 398 0
-394 -397 398 0
-398 388 0
-395 388 0
-398 -395 389 0
-396 389 0
-398 -396 0
-392 388 0
-398 -392 389 0
-393 389 0
-398 -393 0
-392 -395 389 0
-398 -392 -395 0
-392 -396 0
-398 -392 -396 0
-393 -395 0
-398 -393 -395 0
-393 -396 0
-398 -393 -396 0
-404 397 405 0
-401 397 405 0
-401 -404 405 0
-405 395 0
-402 395 0
-405 -402 396 0
-403 396 0
-405 -403 0
-399 395 0
-405 -399 396 0
-400 396 0
-405 -400 0
-399 -402 396 0
-405 -399 -402 0
-399 -403 0
-405 -399 -403 0
-400 -402 0
-405 -400 -402 0
-400 -403 0
-405 -400 -403 0
-409 404 410 0
-407 404 410 0
-407 -409 410 0
-410 402 0
-408 402 0
-410 -408 403 0
-406 402 0
-410 -406 403 0
-406 -408 403 0
-410 -406 -408 0
-68 409 411 0
-67 409 411 0
-67 -68 411 0
-411 408 0
-66 407 412 0
-65 407 412 0
-65 -66 412 0
-412 406 0
-416 401 417 0
-414 401 417 0
-414 -416 417 0
-417 399 0
-415 399 0
-417 -415 400 0
-413 399 0
-417 -413 400 0
-413 -415 400 0
-417 -413 -415 0
-64 416 418 0
-63 416 418 0
-63 -64 418 0
-418 415 0
-62 414 419 0
-61 414 419 0
-61 -62 419 0
-419 413 0
-425 394 426 0
-422 394 426 0
-422 -425 426 0
-426 392 0
-423 392 0
-426 -423 393 0
-424 393 0
-426 -424 0
-420 392 0
-426 -420 393 0
-421 393 0
-426 -421 0
-420 -423 393 0
-426 -420 -423 0
-420 -424 0
-426 -420 -424 0
-421 -423 0
-426 -421 -423 0
-421 -424 0
-426 -421 -424 0
-430 425 431 0
-428 425 431 0
-428 -430 431 0
-431 423 0
-429 423 0
-431 -429 424 0
-427 423 0
-431 -427 424 0
-427 -429 424 0
-431 -427 -429 0
-60 430 432 0
-59 430 432 0
-59 -60 432 0
-432 429 0
-58 428 433 0
-57 428 433 0
-57 -58 433 0
-433 427 0
-437 422 438 0
-435 422 438 0
-435 -437 438 0
-438 420 0
-436 420 0
-438 -436 421 0
-434 420 0
-438 -434 421 0
-434 -436 421 0
-438 -434 -436 0
-56 437 439 0
-55 437 439 0
-55 -56 439 0
-439 436 0
-54 435 442 0
-441 435 442 0
-441 -54 442 0
-442 434 0
-440 434 0
-442 -440 0
-53 441 443 0
-52 441 443 0
-52 -53 443 0
-443 440 0
-449 387 450 0
-446 387 450 0
-446 -449 450 0
-450 385 0
-447 385 0
-450 -447 386 0
-448 386 0
-450 -448 0
-444 385 0
-450 -444 386 0
-445 386 0
-450 -445 0
-444 -447 386 0
-450 -444 -447 0
-444 -448 0
-450 -444 -448 0
-445 -447 0
-450 -445 -447 0
-445 -448 0
-450 -445 -448 0
-456 449 457 0
-453 449 457 0
-453 -456 457 0
-457 447 0
-454 447 0
-457 -454 448 0
-455 448 0
-457 -455 0
-451 447 0
-457 -451 448 0
-452 448 0
-457 -452 0
-451 -454 448 0
-457 -451 -454 0
-451 -455 0
-457 -451 -455 0
-452 -454 0
-457 -452 -454 0
-452 -455 0
-457 -452 -455 0
-461 456 462 0
-459 456 462 0
-459 -461 462 0
-462 454 0
-460 454 0
-462 -460 455 0
-458 454 0
-462 -458 455 0
-458 -460 455 0
-462 -458 -460 0
-51 461 463 0
-50 461 463 0
-50 -51 463 0
-463 460 0
-49 459 464 0
-48 459 464 0
-48 -49 464 0
-464 458 0
-468 453 469 0
-466 453 469 0
-466 -468 469 0
-469 451 0
-467 451 0
-469 -467 452 0
-465 451 0
-469 -465 452 0
-465 -467 452 0
-469 -465 -467 0
-47 468 470 0
-46 468 470 0
-46 -47 470 0
-470 467 0
-45 466 471 0
-44 466 471 0
-44 -45 471 0
-471 465 0
-477 446 478 0
-474 446 478 0
-474 -477 478 0
-478 444 0
-475 444 0
-478 -475 445 0
-476 445 0
-478 -476 0
-472 444 0
-478 -472 445 0
-473 445 0
-478 -473 0
-472 -475 445 0
-478 -472 -475 0
-472 -476 0
-478 -472 -476 0
-473 -475 0
-478 -473 -475 0
-473 -476 0
-478 -473 -476 0
-482 477 483 0
-480 477 483 0
-480 -482 483 0
-483 475 0
-481 475 0
-483 -481 476 0
-479 475 0
-483 -479 476 0
-479 -481 476 0
-483 -479 -481 0
-43 482 484 0
-42 482 484 0
-42 -43 484 0
-484 481 0
-41 480 485 0
-40 480 485 0
-40 -41 485 0
-485 479 0
-489 474 490 0
-487 474 490 0
-487 -489 490 0
-490 472 0
-488 472 0
-490 -488 473 0
-486 472 0
-490 -486 473 0
-486 -488 473 0
-490 -486 -488 0
-39 489 491 0
-38 489 491 0
-38 -39 491 0
-491 488 0
-37 487 494 0
-493 487 494 0
-493 -37 494 0
-494 486 0
-492 486 0
-494 -492 0
-36 493 495 0
-35 493 495 0
-35 -36 495 0
-495 492 0
-501 380 502 0
-498 380 502 0
-498 -501 502 0
-502 378 0
-499 378 0
-502 -499 379 0
-500 379 0
-502 -500 0
-496 378 0
-502 -496 379 0
-497 379 0
-502 -497 0
-496 -499 379 0
-502 -496 -499 0
-496 -500 0
-502 -496 -500 0
-497 -499 0
-502 -497 -499 0
-497 -500 0
-502 -497 -500 0
-508 501 509 0
-505 501 509 0
-505 -508 509 0
-509 499 0
-506 499 0
-509 -506 500 0
-507 500 0
-509 -507 0
-503 499 0
-509 -503 500 0
-504 500 0
-509 -504 0
-503 -506 500 0
-509 -503 -506 0
-503 -507 0
-509 -503 -507 0
-504 -506 0
-509 -504 -506 0
-504 -507 0
-509 -504 -507 0
-515 508 516 0
-512 508 516 0
-512 -515 516 0
-516 506 0
-513 506 0
-516 -513 507 0
-514 507 0
-516 -514 0
-510 506 0
-516 -510 507 0
-511 507 0
-516 -511 0
-510 -513 507 0
-516 -510 -513 0
-510 -514 0
-516 -510 -514 0
-511 -513 0
-516 -511 -513 0
-511 -514 0
-516 -511 -514 0
-520 515 521 0
-518 515 521 0
-518 -520 521 0
-521 513 0
-519 513 0
-521 -519 514 0
-517 513 0
-521 -517 514 0
-517 -519 514 0
-521 -517 -519 0
-34 520 522 0
-33 520 522 0
-33 -34 522 0
-522 519 0
-32 518 523 0
-31 518 523 0
-31 -32 523 0
-523 517 0
-527 512 528 0
-525 512 528 0
-525 -527 528 0
-528 510 0
-526 510 0
-528 -526 511 0
-524 510 0
-528 -524 511 0
-524 -526 511 0
-528 -524 -526 0
-30 527 529 0
-29 527 529 0
-29 -30 529 0
-529 526 0
-28 525 530 0
-27 525 530 0
-27 -28 530 0
-530 524 0
-536 505 537 0
-533 505 537 0
-533 -536 537 0
-537 503 0
-534 503 0
-537 -534 504 0
-535 504 0
-537 -535 0
-531 503 0
-537 -531 504 0
-532 504 0
-537 -532 0
-531 -534 504 0
-537 -531 -534 0
-531 -535 0
-537 -531 -535 0
-532 -534 0
-537 -532 -534 0
-532 -535 0
-537 -532 -535 0
-541 536 542 0
-539 536 542 0
-539 -541 542 0
-542 534 0
-540 534 0
-542 -540 535 0
-538 534 0
-542 -538 535 0
-538 -540 535 0
-542 -538 -540 0
-26 541 543 0
-25 541 543 0
-25 -26 543 0
-543 540 0
-24 539 544 0
-23 539 544 0
-23 -24 544 0
-544 538 0
-548 533 549 0
-546 533 549 0
-546 -548 549 0
-549 531 0
-547 531 0
-549 -547 532 0
-545 531 0
-549 -545 532 0
-545 -547 532 0
-549 -545 -547 0
-22 548 550 0
-21 548 550 0
-21 -22 550 0
-550 547 0
-20 546 553 0
-552 546 553 0
-552 -20 553 0
-553 545 0
-551 545 0
-553 -551 0
-19 552 554 0
-18 552 554 0
-18 -19 554 0
-554 551 0
-560 498 561 0
-557 498 561 0
-557 -560 561 0
-561 496 0
-558 496 0
-561 -558 497 0
-559 497 0
-561 -559 0
-555 496 0
-561 -555 497 0
-556 497 0
-561 -556 0
-555 -558 497 0
-561 -555 -558 0
-555 -559 0
-561 -555 -559 0
-556 -558 0
-561 -556 -558 0
-556 -559 0
-561 -556 -559 0
-567 560 568 0
-564 560 568 0
-564 -567 568 0
-568 558 0
-565 558 0
-568 -565 559 0
-566 559 0
-568 -566 0
-562 558 0
-568 -562 559 0
-563 559 0
-568 -563 0
-562 -565 559 0
-568 -562 -565 0
-562 -566 0
-568 -562 -566 0
-563 -565 0
-568 -563 -565 0
-563 -566 0
-568 -563 -566 0
-572 567 573 0
-570 567 573 0
-570 -572 573 0
-573 565 0
-571 565 0
-573 -571 566 0
-569 565 0
-573 -569 566 0
-569 -571 566 0
-573 -569 -571 0
-17 572 574 0
-16 572 574 0
-16 -17 574 0
-574 571 0
-15 570 575 0
-14 570 575 0
-14 -15 575 0
-575 569 0
-579 564 580 0
-577 564 580 0
-577 -579 580 0
-580 562 0
-578 562 0
-580 -578 563 0
-576 562 0
-580 -576 563 0
-576 -578 563 0
-580 -576 -578 0
-13 579 581 0
-12 579 581 0
-12 -13 581 0
-581 578 0
-11 577 582 0
-10 577 582 0
-10 -11 582 0
-582 576 0
-588 557 589 0
-585 557 589 0
-585 -588 589 0
-589 555 0
-586 555 0
-589 -586 556 0
-587 556 0
-589 -587 0
-583 555 0
-589 -583 556 0
-584 556 0
-589 -584 0
-583 -586 556 0
-589 -583 -586 0
-583 -587 0
-589 -583 -587 0
-584 -586 0
-589 -584 -586 0
-584 -587 0
-589 -584 -587 0
-593 588 594 0
-591 588 594 0
-591 -593 594 0
-594 586 0
-592 586 0
-594 -592 587 0
-590 586 0
-594 -590 587 0
-590 -592 587 0
-594 -590 -592 0
-9 593 595 0
-8 593 595 0
-8 -9 595 0
-595 592 0
-7 591 596 0
-6 591 596 0
-6 -7 596 0
-596 590 0
-600 585 601 0
-598 585 601 0
-598 -600 601 0
-601 583 0
-599 583 0
-601 -599 584 0
-597 583 0
-601 -597 584 0
-597 -599 584 0
-601 -597 -599 0
-5 600 602 0
-4 600 602 0
-4 -5 602 0
-602 599 0
-3 598 605 0
-604 598 605 0
-604 -3 605 0
-605 597 0
-603 597 0
-605 -603 0
-2 604 606 0
-1 604 606 0
-1 -2 606 0
-606 603 0
-376 -377 0
