p cnf 3692 12291
1 195 -397 0
-1 -195 -397 0
1 -195 397 0
-1 195 397 0
397 196 -398 0
-397 -196 -398 0
397 -196 398 0
-397 196 398 0
398 198 -399 0
-398 -198 -399 0
398 -198 399 0
-398 198 399 0
399 199 -400 0
-399 -199 -400 0
399 -199 400 0
-399 199 400 0
400 367 -401 0
-400 -367 -401 0
400 -367 401 0
-400 367 401 0
401 379 -402 0
-401 -379 -402 0
401 -379 402 0
-401 379 402 0
402 385 -403 0
-402 -385 -403 0
402 -385 403 0
-402 385 403 0
-403 0
1 2 -404 0
-1 -2 -404 0
1 -2 404 0
-1 2 404 0
404 196 -405 0
-404 -196 -405 0
404 -196 405 0
-404 196 405 0
405 197 -406 0
-405 -197 -406 0
405 -197 406 0
-405 197 406 0
406 200 -407 0
-406 -200 -407 0
406 -200 407 0
-406 200 407 0
407 368 -408 0
-407 -368 -408 0
407 -368 408 0
-407 368 408 0
408 380 -409 0
-408 -380 -409 0
408 -380 409 0
-408 380 409 0
409 386 -410 0
-409 -386 -410 0
409 -386 410 0
-409 386 410 0
-410 0
2 3 -411 0
-2 -3 -411 0
2 -3 411 0
-2 3 411 0
411 197 -412 0
-411 -197 -412 0
411 -197 412 0
-411 197 412 0
412 198 -413 0
-412 -198 -413 0
412 -198 413 0
-412 198 413 0
413 201 -414 0
-413 -201 -414 0
413 -201 414 0
-413 201 414 0
414 369 -415 0
-414 -369 -415 0
414 -369 415 0
-414 369 415 0
415 381 -416 0
-415 -381 -416 0
415 -381 416 0
-415 381 416 0
416 387 -417 0
-416 -387 -417 0
416 -387 417 0
-416 387 417 0
-417 0
1 3 -418 0
-1 -3 -418 0
1 -3 418 0
-1 3 418 0
418 4 -419 0
-418 -4 -419 0
418 -4 419 0
-418 4 419 0
419 198 -420 0
-419 -198 -420 0
419 -198 420 0
-419 198 420 0
420 202 -421 0
-420 -202 -421 0
420 -202 421 0
-420 202 421 0
421 370 -422 0
-421 -370 -422 0
421 -370 422 0
-421 370 422 0
422 382 -423 0
-422 -382 -423 0
422 -382 423 0
-422 382 423 0
423 388 -424 0
-423 -388 -424 0
423 -388 424 0
-423 388 424 0
-424 0
1 2 -425 0
-1 -2 -425 0
1 -2 425 0
-1 2 425 0
425 4 -426 0
-425 -4 -426 0
425 -4 426 0
-425 4 426 0
426 5 -427 0
-426 -5 -427 0
426 -5 427 0
-426 5 427 0
427 203 -428 0
-427 -203 -428 0
427 -203 428 0
-427 203 428 0
428 371 -429 0
-428 -371 -429 0
428 -371 429 0
-428 371 429 0
429 383 -430 0
-429 -383 -430 0
429 -383 430 0
-429 383 430 0
430 389 -431 0
-430 -389 -431 0
430 -389 431 0
-430 389 431 0
-431 0
2 3 -432 0
-2 -3 -432 0
2 -3 432 0
-2 3 432 0
432 5 -433 0
-432 -5 -433 0
432 -5 433 0
-432 5 433 0
433 6 -434 0
-433 -6 -434 0
433 -6 434 0
-433 6 434 0
434 204 -435 0
-434 -204 -435 0
434 -204 435 0
-434 204 435 0
435 372 -436 0
-435 -372 -436 0
435 -372 436 0
-435 372 436 0
436 384 -437 0
-436 -384 -437 0
436 -384 437 0
-436 384 437 0
437 390 -438 0
-437 -390 -438 0
437 -390 438 0
-437 390 438 0
-438 0
3 4 -439 0
-3 -4 -439 0
3 -4 439 0
-3 4 439 0
439 6 -440 0
-439 -6 -440 0
439 -6 440 0
-439 6 440 0
440 7 -441 0
-440 -7 -441 0
440 -7 441 0
-440 7 441 0
441 205 -442 0
-441 -205 -442 0
441 -205 442 0
-441 205 442 0
442 373 -443 0
-442 -373 -443 0
442 -373 443 0
-442 373 443 0
443 385 -444 0
-443 -385 -444 0
443 -385 444 0
-443 385 444 0
444 391 -445 0
-444 -391 -445 0
444 -391 445 0
-444 391 445 0
-445 0
4 5 -446 0
-4 -5 -446 0
4 -5 446 0
-4 5 446 0
446 7 -447 0
-446 -7 -447 0
446 -7 447 0
-446 7 447 0
447 8 -448 0
-447 -8 -448 0
447 -8 448 0
-447 8 448 0
448 206 -449 0
-448 -206 -449 0
448 -206 449 0
-448 206 449 0
449 374 -450 0
-449 -374 -450 0
449 -374 450 0
-449 374 450 0
450 386 -451 0
-450 -386 -451 0
450 -386 451 0
-450 386 451 0
451 392 -452 0
-451 -392 -452 0
451 -392 452 0
-451 392 452 0
-452 0
5 6 -453 0
-5 -6 -453 0
5 -6 453 0
-5 6 453 0
453 8 -454 0
-453 -8 -454 0
453 -8 454 0
-453 8 454 0
454 9 -455 0
-454 -9 -455 0
454 -9 455 0
-454 9 455 0
455 207 -456 0
-455 -207 -456 0
455 -207 456 0
-455 207 456 0
456 375 -457 0
-456 -375 -457 0
456 -375 457 0
-456 375 457 0
457 387 -458 0
-457 -387 -458 0
457 -387 458 0
-457 387 458 0
458 393 -459 0
-458 -393 -459 0
458 -393 459 0
-458 393 459 0
-459 0
6 7 -460 0
-6 -7 -460 0
6 -7 460 0
-6 7 460 0
460 9 -461 0
-460 -9 -461 0
460 -9 461 0
-460 9 461 0
461 10 -462 0
-461 -10 -462 0
461 -10 462 0
-461 10 462 0
462 208 -463 0
-462 -208 -463 0
462 -208 463 0
-462 208 463 0
463 376 -464 0
-463 -376 -464 0
463 -376 464 0
-463 376 464 0
464 388 -465 0
-464 -388 -465 0
464 -388 465 0
-464 388 465 0
465 394 -466 0
-465 -394 -466 0
465 -394 466 0
-465 394 466 0
-466 0
7 8 -467 0
-7 -8 -467 0
7 -8 467 0
-7 8 467 0
467 10 -468 0
-467 -10 -468 0
467 -10 468 0
-467 10 468 0
468 11 -469 0
-468 -11 -469 0
468 -11 469 0
-468 11 469 0
469 209 -470 0
-469 -209 -470 0
469 -209 470 0
-469 209 470 0
470 377 -471 0
-470 -377 -471 0
470 -377 471 0
-470 377 471 0
471 389 -472 0
-471 -389 -472 0
471 -389 472 0
-471 389 472 0
472 395 -473 0
-472 -395 -473 0
472 -395 473 0
-472 395 473 0
-473 0
8 9 -474 0
-8 -9 -474 0
8 -9 474 0
-8 9 474 0
474 11 -475 0
-474 -11 -475 0
474 -11 475 0
-474 11 475 0
475 12 -476 0
-475 -12 -476 0
475 -12 476 0
-475 12 476 0
476 210 -477 0
-476 -210 -477 0
476 -210 477 0
-476 210 477 0
477 378 -478 0
-477 -378 -478 0
477 -378 478 0
-477 378 478 0
478 390 -479 0
-478 -390 -479 0
478 -390 479 0
-478 390 479 0
479 396 -480 0
-479 -396 -480 0
479 -396 480 0
-479 396 480 0
-480 0
9 10 -481 0
-9 -10 -481 0
9 -10 481 0
-9 10 481 0
481 12 -482 0
-481 -12 -482 0
481 -12 482 0
-481 12 482 0
482 13 -483 0
-482 -13 -483 0
482 -13 483 0
-482 13 483 0
483 199 -484 0
-483 -199 -484 0
483 -199 484 0
-483 199 484 0
484 211 -485 0
-484 -211 -485 0
484 -211 485 0
-484 211 485 0
485 379 -486 0
-485 -379 -486 0
485 -379 486 0
-485 379 486 0
486 391 -487 0
-486 -391 -487 0
486 -391 487 0
-486 391 487 0
-487 0
10 11 -488 0
-10 -11 -488 0
10 -11 488 0
-10 11 488 0
488 13 -489 0
-488 -13 -489 0
488 -13 489 0
-488 13 489 0
489 14 -490 0
-489 -14 -490 0
489 -14 490 0
-489 14 490 0
490 200 -491 0
-490 -200 -491 0
490 -200 491 0
-490 200 491 0
491 212 -492 0
-491 -212 -492 0
491 -212 492 0
-491 212 492 0
492 380 -493 0
-492 -380 -493 0
492 -380 493 0
-492 380 493 0
493 392 -494 0
-493 -392 -494 0
493 -392 494 0
-493 392 494 0
-494 0
11 12 -495 0
-11 -12 -495 0
11 -12 495 0
-11 12 495 0
495 14 -496 0
-495 -14 -496 0
495 -14 496 0
-495 14 496 0
496 15 -497 0
-496 -15 -497 0
496 -15 497 0
-496 15 497 0
497 201 -498 0
-497 -201 -498 0
497 -201 498 0
-497 201 498 0
498 213 -499 0
-498 -213 -499 0
498 -213 499 0
-498 213 499 0
499 381 -500 0
-499 -381 -500 0
499 -381 500 0
-499 381 500 0
500 393 -501 0
-500 -393 -501 0
500 -393 501 0
-500 393 501 0
-501 0
12 13 -502 0
-12 -13 -502 0
12 -13 502 0
-12 13 502 0
502 15 -503 0
-502 -15 -503 0
502 -15 503 0
-502 15 503 0
503 16 -504 0
-503 -16 -504 0
503 -16 504 0
-503 16 504 0
504 202 -505 0
-504 -202 -505 0
504 -202 505 0
-504 202 505 0
505 214 -506 0
-505 -214 -506 0
505 -214 506 0
-505 214 506 0
506 382 -507 0
-506 -382 -507 0
506 -382 507 0
-506 382 507 0
507 394 -508 0
-507 -394 -508 0
507 -394 508 0
-507 394 508 0
-508 0
13 14 -509 0
-13 -14 -509 0
13 -14 509 0
-13 14 509 0
509 16 -510 0
-509 -16 -510 0
509 -16 510 0
-509 16 510 0
510 17 -511 0
-510 -17 -511 0
510 -17 511 0
-510 17 511 0
511 203 -512 0
-511 -203 -512 0
511 -203 512 0
-511 203 512 0
512 215 -513 0
-512 -215 -513 0
512 -215 513 0
-512 215 513 0
513 383 -514 0
-513 -383 -514 0
513 -383 514 0
-513 383 514 0
514 395 -515 0
-514 -395 -515 0
514 -395 515 0
-514 395 515 0
-515 0
14 15 -516 0
-14 -15 -516 0
14 -15 516 0
-14 15 516 0
516 17 -517 0
-516 -17 -517 0
516 -17 517 0
-516 17 517 0
517 18 -518 0
-517 -18 -518 0
517 -18 518 0
-517 18 518 0
518 204 -519 0
-518 -204 -519 0
518 -204 519 0
-518 204 519 0
519 216 -520 0
-519 -216 -520 0
519 -216 520 0
-519 216 520 0
520 384 -521 0
-520 -384 -521 0
520 -384 521 0
-520 384 521 0
521 396 -522 0
-521 -396 -522 0
521 -396 522 0
-521 396 522 0
-522 0
15 16 -523 0
-15 -16 -523 0
15 -16 523 0
-15 16 523 0
523 18 -524 0
-523 -18 -524 0
523 -18 524 0
-523 18 524 0
524 19 -525 0
-524 -19 -525 0
524 -19 525 0
-524 19 525 0
525 199 -526 0
-525 -199 -526 0
525 -199 526 0
-525 199 526 0
526 205 -527 0
-526 -205 -527 0
526 -205 527 0
-526 205 527 0
527 217 -528 0
-527 -217 -528 0
527 -217 528 0
-527 217 528 0
528 385 -529 0
-528 -385 -529 0
528 -385 529 0
-528 385 529 0
-529 0
16 17 -530 0
-16 -17 -530 0
16 -17 530 0
-16 17 530 0
530 19 -531 0
-530 -19 -531 0
530 -19 531 0
-530 19 531 0
531 20 -532 0
-531 -20 -532 0
531 -20 532 0
-531 20 532 0
532 200 -533 0
-532 -200 -533 0
532 -200 533 0
-532 200 533 0
533 206 -534 0
-533 -206 -534 0
533 -206 534 0
-533 206 534 0
534 218 -535 0
-534 -218 -535 0
534 -218 535 0
-534 218 535 0
535 386 -536 0
-535 -386 -536 0
535 -386 536 0
-535 386 536 0
-536 0
17 18 -537 0
-17 -18 -537 0
17 -18 537 0
-17 18 537 0
537 20 -538 0
-537 -20 -538 0
537 -20 538 0
-537 20 538 0
538 21 -539 0
-538 -21 -539 0
538 -21 539 0
-538 21 539 0
539 201 -540 0
-539 -201 -540 0
539 -201 540 0
-539 201 540 0
540 207 -541 0
-540 -207 -541 0
540 -207 541 0
-540 207 541 0
541 219 -542 0
-541 -219 -542 0
541 -219 542 0
-541 219 542 0
542 387 -543 0
-542 -387 -543 0
542 -387 543 0
-542 387 543 0
-543 0
18 19 -544 0
-18 -19 -544 0
18 -19 544 0
-18 19 544 0
544 21 -545 0
-544 -21 -545 0
544 -21 545 0
-544 21 545 0
545 22 -546 0
-545 -22 -546 0
545 -22 546 0
-545 22 546 0
546 202 -547 0
-546 -202 -547 0
546 -202 547 0
-546 202 547 0
547 208 -548 0
-547 -208 -548 0
547 -208 548 0
-547 208 548 0
548 220 -549 0
-548 -220 -549 0
548 -220 549 0
-548 220 549 0
549 388 -550 0
-549 -388 -550 0
549 -388 550 0
-549 388 550 0
-550 0
19 20 -551 0
-19 -20 -551 0
19 -20 551 0
-19 20 551 0
551 22 -552 0
-551 -22 -552 0
551 -22 552 0
-551 22 552 0
552 23 -553 0
-552 -23 -553 0
552 -23 553 0
-552 23 553 0
553 203 -554 0
-553 -203 -554 0
553 -203 554 0
-553 203 554 0
554 209 -555 0
-554 -209 -555 0
554 -209 555 0
-554 209 555 0
555 221 -556 0
-555 -221 -556 0
555 -221 556 0
-555 221 556 0
556 389 -557 0
-556 -389 -557 0
556 -389 557 0
-556 389 557 0
-557 0
20 21 -558 0
-20 -21 -558 0
20 -21 558 0
-20 21 558 0
558 23 -559 0
-558 -23 -559 0
558 -23 559 0
-558 23 559 0
559 24 -560 0
-559 -24 -560 0
559 -24 560 0
-559 24 560 0
560 204 -561 0
-560 -204 -561 0
560 -204 561 0
-560 204 561 0
561 210 -562 0
-561 -210 -562 0
561 -210 562 0
-561 210 562 0
562 222 -563 0
-562 -222 -563 0
562 -222 563 0
-562 222 563 0
563 390 -564 0
-563 -390 -564 0
563 -390 564 0
-563 390 564 0
-564 0
21 22 -565 0
-21 -22 -565 0
21 -22 565 0
-21 22 565 0
565 24 -566 0
-565 -24 -566 0
565 -24 566 0
-565 24 566 0
566 25 -567 0
-566 -25 -567 0
566 -25 567 0
-566 25 567 0
567 205 -568 0
-567 -205 -568 0
567 -205 568 0
-567 205 568 0
568 211 -569 0
-568 -211 -569 0
568 -211 569 0
-568 211 569 0
569 223 -570 0
-569 -223 -570 0
569 -223 570 0
-569 223 570 0
570 391 -571 0
-570 -391 -571 0
570 -391 571 0
-570 391 571 0
-571 0
22 23 -572 0
-22 -23 -572 0
22 -23 572 0
-22 23 572 0
572 25 -573 0
-572 -25 -573 0
572 -25 573 0
-572 25 573 0
573 26 -574 0
-573 -26 -574 0
573 -26 574 0
-573 26 574 0
574 206 -575 0
-574 -206 -575 0
574 -206 575 0
-574 206 575 0
575 212 -576 0
-575 -212 -576 0
575 -212 576 0
-575 212 576 0
576 224 -577 0
-576 -224 -577 0
576 -224 577 0
-576 224 577 0
577 392 -578 0
-577 -392 -578 0
577 -392 578 0
-577 392 578 0
-578 0
23 24 -579 0
-23 -24 -579 0
23 -24 579 0
-23 24 579 0
579 26 -580 0
-579 -26 -580 0
579 -26 580 0
-579 26 580 0
580 27 -581 0
-580 -27 -581 0
580 -27 581 0
-580 27 581 0
581 207 -582 0
-581 -207 -582 0
581 -207 582 0
-581 207 582 0
582 213 -583 0
-582 -213 -583 0
582 -213 583 0
-582 213 583 0
583 225 -584 0
-583 -225 -584 0
583 -225 584 0
-583 225 584 0
584 393 -585 0
-584 -393 -585 0
584 -393 585 0
-584 393 585 0
-585 0
24 25 -586 0
-24 -25 -586 0
24 -25 586 0
-24 25 586 0
586 27 -587 0
-586 -27 -587 0
586 -27 587 0
-586 27 587 0
587 28 -588 0
-587 -28 -588 0
587 -28 588 0
-587 28 588 0
588 208 -589 0
-588 -208 -589 0
588 -208 589 0
-588 208 589 0
589 214 -590 0
-589 -214 -590 0
589 -214 590 0
-589 214 590 0
590 226 -591 0
-590 -226 -591 0
590 -226 591 0
-590 226 591 0
591 394 -592 0
-591 -394 -592 0
591 -394 592 0
-591 394 592 0
-592 0
25 26 -593 0
-25 -26 -593 0
25 -26 593 0
-25 26 593 0
593 28 -594 0
-593 -28 -594 0
593 -28 594 0
-593 28 594 0
594 29 -595 0
-594 -29 -595 0
594 -29 595 0
-594 29 595 0
595 209 -596 0
-595 -209 -596 0
595 -209 596 0
-595 209 596 0
596 215 -597 0
-596 -215 -597 0
596 -215 597 0
-596 215 597 0
597 227 -598 0
-597 -227 -598 0
597 -227 598 0
-597 227 598 0
598 395 -599 0
-598 -395 -599 0
598 -395 599 0
-598 395 599 0
-599 0
26 27 -600 0
-26 -27 -600 0
26 -27 600 0
-26 27 600 0
600 29 -601 0
-600 -29 -601 0
600 -29 601 0
-600 29 601 0
601 30 -602 0
-601 -30 -602 0
601 -30 602 0
-601 30 602 0
602 210 -603 0
-602 -210 -603 0
602 -210 603 0
-602 210 603 0
603 216 -604 0
-603 -216 -604 0
603 -216 604 0
-603 216 604 0
604 228 -605 0
-604 -228 -605 0
604 -228 605 0
-604 228 605 0
605 396 -606 0
-605 -396 -606 0
605 -396 606 0
-605 396 606 0
-606 0
27 28 -607 0
-27 -28 -607 0
27 -28 607 0
-27 28 607 0
607 30 -608 0
-607 -30 -608 0
607 -30 608 0
-607 30 608 0
608 31 -609 0
-608 -31 -609 0
608 -31 609 0
-608 31 609 0
609 199 -610 0
-609 -199 -610 0
609 -199 610 0
-609 199 610 0
610 211 -611 0
-610 -211 -611 0
610 -211 611 0
-610 211 611 0
611 217 -612 0
-611 -217 -612 0
611 -217 612 0
-611 217 612 0
612 229 -613 0
-612 -229 -613 0
612 -229 613 0
-612 229 613 0
-613 0
28 29 -614 0
-28 -29 -614 0
28 -29 614 0
-28 29 614 0
614 31 -615 0
-614 -31 -615 0
614 -31 615 0
-614 31 615 0
615 32 -616 0
-615 -32 -616 0
615 -32 616 0
-615 32 616 0
616 200 -617 0
-616 -200 -617 0
616 -200 617 0
-616 200 617 0
617 212 -618 0
-617 -212 -618 0
617 -212 618 0
-617 212 618 0
618 218 -619 0
-618 -218 -619 0
618 -218 619 0
-618 218 619 0
619 230 -620 0
-619 -230 -620 0
619 -230 620 0
-619 230 620 0
-620 0
29 30 -621 0
-29 -30 -621 0
29 -30 621 0
-29 30 621 0
621 32 -622 0
-621 -32 -622 0
621 -32 622 0
-621 32 622 0
622 33 -623 0
-622 -33 -623 0
622 -33 623 0
-622 33 623 0
623 201 -624 0
-623 -201 -624 0
623 -201 624 0
-623 201 624 0
624 213 -625 0
-624 -213 -625 0
624 -213 625 0
-624 213 625 0
625 219 -626 0
-625 -219 -626 0
625 -219 626 0
-625 219 626 0
626 231 -627 0
-626 -231 -627 0
626 -231 627 0
-626 231 627 0
-627 0
30 31 -628 0
-30 -31 -628 0
30 -31 628 0
-30 31 628 0
628 33 -629 0
-628 -33 -629 0
628 -33 629 0
-628 33 629 0
629 34 -630 0
-629 -34 -630 0
629 -34 630 0
-629 34 630 0
630 202 -631 0
-630 -202 -631 0
630 -202 631 0
-630 202 631 0
631 214 -632 0
-631 -214 -632 0
631 -214 632 0
-631 214 632 0
632 220 -633 0
-632 -220 -633 0
632 -220 633 0
-632 220 633 0
633 232 -634 0
-633 -232 -634 0
633 -232 634 0
-633 232 634 0
-634 0
31 32 -635 0
-31 -32 -635 0
31 -32 635 0
-31 32 635 0
635 34 -636 0
-635 -34 -636 0
635 -34 636 0
-635 34 636 0
636 35 -637 0
-636 -35 -637 0
636 -35 637 0
-636 35 637 0
637 203 -638 0
-637 -203 -638 0
637 -203 638 0
-637 203 638 0
638 215 -639 0
-638 -215 -639 0
638 -215 639 0
-638 215 639 0
639 221 -640 0
-639 -221 -640 0
639 -221 640 0
-639 221 640 0
640 233 -641 0
-640 -233 -641 0
640 -233 641 0
-640 233 641 0
-641 0
32 33 -642 0
-32 -33 -642 0
32 -33 642 0
-32 33 642 0
642 35 -643 0
-642 -35 -643 0
642 -35 643 0
-642 35 643 0
643 36 -644 0
-643 -36 -644 0
643 -36 644 0
-643 36 644 0
644 204 -645 0
-644 -204 -645 0
644 -204 645 0
-644 204 645 0
645 216 -646 0
-645 -216 -646 0
645 -216 646 0
-645 216 646 0
646 222 -647 0
-646 -222 -647 0
646 -222 647 0
-646 222 647 0
647 234 -648 0
-647 -234 -648 0
647 -234 648 0
-647 234 648 0
-648 0
33 34 -649 0
-33 -34 -649 0
33 -34 649 0
-33 34 649 0
649 36 -650 0
-649 -36 -650 0
649 -36 650 0
-649 36 650 0
650 37 -651 0
-650 -37 -651 0
650 -37 651 0
-650 37 651 0
651 205 -652 0
-651 -205 -652 0
651 -205 652 0
-651 205 652 0
652 217 -653 0
-652 -217 -653 0
652 -217 653 0
-652 217 653 0
653 223 -654 0
-653 -223 -654 0
653 -223 654 0
-653 223 654 0
654 235 -655 0
-654 -235 -655 0
654 -235 655 0
-654 235 655 0
-655 0
34 35 -656 0
-34 -35 -656 0
34 -35 656 0
-34 35 656 0
656 37 -657 0
-656 -37 -657 0
656 -37 657 0
-656 37 657 0
657 38 -658 0
-657 -38 -658 0
657 -38 658 0
-657 38 658 0
658 206 -659 0
-658 -206 -659 0
658 -206 659 0
-658 206 659 0
659 218 -660 0
-659 -218 -660 0
659 -218 660 0
-659 218 660 0
660 224 -661 0
-660 -224 -661 0
660 -224 661 0
-660 224 661 0
661 236 -662 0
-661 -236 -662 0
661 -236 662 0
-661 236 662 0
-662 0
35 36 -663 0
-35 -36 -663 0
35 -36 663 0
-35 36 663 0
663 38 -664 0
-663 -38 -664 0
663 -38 664 0
-663 38 664 0
664 39 -665 0
-664 -39 -665 0
664 -39 665 0
-664 39 665 0
665 207 -666 0
-665 -207 -666 0
665 -207 666 0
-665 207 666 0
666 219 -667 0
-666 -219 -667 0
666 -219 667 0
-666 219 667 0
667 225 -668 0
-667 -225 -668 0
667 -225 668 0
-667 225 668 0
668 237 -669 0
-668 -237 -669 0
668 -237 669 0
-668 237 669 0
-669 0
36 37 -670 0
-36 -37 -670 0
36 -37 670 0
-36 37 670 0
670 39 -671 0
-670 -39 -671 0
670 -39 671 0
-670 39 671 0
671 40 -672 0
-671 -40 -672 0
671 -40 672 0
-671 40 672 0
672 208 -673 0
-672 -208 -673 0
672 -208 673 0
-672 208 673 0
673 220 -674 0
-673 -220 -674 0
673 -220 674 0
-673 220 674 0
674 226 -675 0
-674 -226 -675 0
674 -226 675 0
-674 226 675 0
675 238 -676 0
-675 -238 -676 0
675 -238 676 0
-675 238 676 0
-676 0
37 38 -677 0
-37 -38 -677 0
37 -38 677 0
-37 38 677 0
677 40 -678 0
-677 -40 -678 0
677 -40 678 0
-677 40 678 0
678 41 -679 0
-678 -41 -679 0
678 -41 679 0
-678 41 679 0
679 209 -680 0
-679 -209 -680 0
679 -209 680 0
-679 209 680 0
680 221 -681 0
-680 -221 -681 0
680 -221 681 0
-680 221 681 0
681 227 -682 0
-681 -227 -682 0
681 -227 682 0
-681 227 682 0
682 239 -683 0
-682 -239 -683 0
682 -239 683 0
-682 239 683 0
-683 0
38 39 -684 0
-38 -39 -684 0
38 -39 684 0
-38 39 684 0
684 41 -685 0
-684 -41 -685 0
684 -41 685 0
-684 41 685 0
685 42 -686 0
-685 -42 -686 0
685 -42 686 0
-685 42 686 0
686 210 -687 0
-686 -210 -687 0
686 -210 687 0
-686 210 687 0
687 222 -688 0
-687 -222 -688 0
687 -222 688 0
-687 222 688 0
688 228 -689 0
-688 -228 -689 0
688 -228 689 0
-688 228 689 0
689 240 -690 0
-689 -240 -690 0
689 -240 690 0
-689 240 690 0
-690 0
39 40 -691 0
-39 -40 -691 0
39 -40 691 0
-39 40 691 0
691 42 -692 0
-691 -42 -692 0
691 -42 692 0
-691 42 692 0
692 43 -693 0
-692 -43 -693 0
692 -43 693 0
-692 43 693 0
693 211 -694 0
-693 -211 -694 0
693 -211 694 0
-693 211 694 0
694 223 -695 0
-694 -223 -695 0
694 -223 695 0
-694 223 695 0
695 229 -696 0
-695 -229 -696 0
695 -229 696 0
-695 229 696 0
696 241 -697 0
-696 -241 -697 0
696 -241 697 0
-696 241 697 0
-697 0
40 41 -698 0
-40 -41 -698 0
40 -41 698 0
-40 41 698 0
698 43 -699 0
-698 -43 -699 0
698 -43 699 0
-698 43 699 0
699 44 -700 0
-699 -44 -700 0
699 -44 700 0
-699 44 700 0
700 212 -701 0
-700 -212 -701 0
700 -212 701 0
-700 212 701 0
701 224 -702 0
-701 -224 -702 0
701 -224 702 0
-701 224 702 0
702 230 -703 0
-702 -230 -703 0
702 -230 703 0
-702 230 703 0
703 242 -704 0
-703 -242 -704 0
703 -242 704 0
-703 242 704 0
-704 0
41 42 -705 0
-41 -42 -705 0
41 -42 705 0
-41 42 705 0
705 44 -706 0
-705 -44 -706 0
705 -44 706 0
-705 44 706 0
706 45 -707 0
-706 -45 -707 0
706 -45 707 0
-706 45 707 0
707 213 -708 0
-707 -213 -708 0
707 -213 708 0
-707 213 708 0
708 225 -709 0
-708 -225 -709 0
708 -225 709 0
-708 225 709 0
709 231 -710 0
-709 -231 -710 0
709 -231 710 0
-709 231 710 0
710 243 -711 0
-710 -243 -711 0
710 -243 711 0
-710 243 711 0
-711 0
42 43 -712 0
-42 -43 -712 0
42 -43 712 0
-42 43 712 0
712 45 -713 0
-712 -45 -713 0
712 -45 713 0
-712 45 713 0
713 46 -714 0
-713 -46 -714 0
713 -46 714 0
-713 46 714 0
714 214 -715 0
-714 -214 -715 0
714 -214 715 0
-714 214 715 0
715 226 -716 0
-715 -226 -716 0
715 -226 716 0
-715 226 716 0
716 232 -717 0
-716 -232 -717 0
716 -232 717 0
-716 232 717 0
717 244 -718 0
-717 -244 -718 0
717 -244 718 0
-717 244 718 0
-718 0
43 44 -719 0
-43 -44 -719 0
43 -44 719 0
-43 44 719 0
719 46 -720 0
-719 -46 -720 0
719 -46 720 0
-719 46 720 0
720 47 -721 0
-720 -47 -721 0
720 -47 721 0
-720 47 721 0
721 215 -722 0
-721 -215 -722 0
721 -215 722 0
-721 215 722 0
722 227 -723 0
-722 -227 -723 0
722 -227 723 0
-722 227 723 0
723 233 -724 0
-723 -233 -724 0
723 -233 724 0
-723 233 724 0
724 245 -725 0
-724 -245 -725 0
724 -245 725 0
-724 245 725 0
-725 0
44 45 -726 0
-44 -45 -726 0
44 -45 726 0
-44 45 726 0
726 47 -727 0
-726 -47 -727 0
726 -47 727 0
-726 47 727 0
727 48 -728 0
-727 -48 -728 0
727 -48 728 0
-727 48 728 0
728 216 -729 0
-728 -216 -729 0
728 -216 729 0
-728 216 729 0
729 228 -730 0
-729 -228 -730 0
729 -228 730 0
-729 228 730 0
730 234 -731 0
-730 -234 -731 0
730 -234 731 0
-730 234 731 0
731 246 -732 0
-731 -246 -732 0
731 -246 732 0
-731 246 732 0
-732 0
45 46 -733 0
-45 -46 -733 0
45 -46 733 0
-45 46 733 0
733 48 -734 0
-733 -48 -734 0
733 -48 734 0
-733 48 734 0
734 49 -735 0
-734 -49 -735 0
734 -49 735 0
-734 49 735 0
735 217 -736 0
-735 -217 -736 0
735 -217 736 0
-735 217 736 0
736 229 -737 0
-736 -229 -737 0
736 -229 737 0
-736 229 737 0
737 235 -738 0
-737 -235 -738 0
737 -235 738 0
-737 235 738 0
738 247 -739 0
-738 -247 -739 0
738 -247 739 0
-738 247 739 0
-739 0
46 47 -740 0
-46 -47 -740 0
46 -47 740 0
-46 47 740 0
740 49 -741 0
-740 -49 -741 0
740 -49 741 0
-740 49 741 0
741 50 -742 0
-741 -50 -742 0
741 -50 742 0
-741 50 742 0
742 218 -743 0
-742 -218 -743 0
742 -218 743 0
-742 218 743 0
743 230 -744 0
-743 -230 -744 0
743 -230 744 0
-743 230 744 0
744 236 -745 0
-744 -236 -745 0
744 -236 745 0
-744 236 745 0
745 248 -746 0
-745 -248 -746 0
745 -248 746 0
-745 248 746 0
-746 0
47 48 -747 0
-47 -48 -747 0
47 -48 747 0
-47 48 747 0
747 50 -748 0
-747 -50 -748 0
747 -50 748 0
-747 50 748 0
748 51 -749 0
-748 -51 -749 0
748 -51 749 0
-748 51 749 0
749 219 -750 0
-749 -219 -750 0
749 -219 750 0
-749 219 750 0
750 231 -751 0
-750 -231 -751 0
750 -231 751 0
-750 231 751 0
751 237 -752 0
-751 -237 -752 0
751 -237 752 0
-751 237 752 0
752 249 -753 0
-752 -249 -753 0
752 -249 753 0
-752 249 753 0
-753 0
48 49 -754 0
-48 -49 -754 0
48 -49 754 0
-48 49 754 0
754 51 -755 0
-754 -51 -755 0
754 -51 755 0
-754 51 755 0
755 52 -756 0
-755 -52 -756 0
755 -52 756 0
-755 52 756 0
756 220 -757 0
-756 -220 -757 0
756 -220 757 0
-756 220 757 0
757 232 -758 0
-757 -232 -758 0
757 -232 758 0
-757 232 758 0
758 238 -759 0
-758 -238 -759 0
758 -238 759 0
-758 238 759 0
759 250 -760 0
-759 -250 -760 0
759 -250 760 0
-759 250 760 0
-760 0
49 50 -761 0
-49 -50 -761 0
49 -50 761 0
-49 50 761 0
761 52 -762 0
-761 -52 -762 0
761 -52 762 0
-761 52 762 0
762 53 -763 0
-762 -53 -763 0
762 -53 763 0
-762 53 763 0
763 221 -764 0
-763 -221 -764 0
763 -221 764 0
-763 221 764 0
764 233 -765 0
-764 -233 -765 0
764 -233 765 0
-764 233 765 0
765 239 -766 0
-765 -239 -766 0
765 -239 766 0
-765 239 766 0
766 251 -767 0
-766 -251 -767 0
766 -251 767 0
-766 251 767 0
-767 0
50 51 -768 0
-50 -51 -768 0
50 -51 768 0
-50 51 768 0
768 53 -769 0
-768 -53 -769 0
768 -53 769 0
-768 53 769 0
769 54 -770 0
-769 -54 -770 0
769 -54 770 0
-769 54 770 0
770 222 -771 0
-770 -222 -771 0
770 -222 771 0
-770 222 771 0
771 234 -772 0
-771 -234 -772 0
771 -234 772 0
-771 234 772 0
772 240 -773 0
-772 -240 -773 0
772 -240 773 0
-772 240 773 0
773 252 -774 0
-773 -252 -774 0
773 -252 774 0
-773 252 774 0
-774 0
51 52 -775 0
-51 -52 -775 0
51 -52 775 0
-51 52 775 0
775 54 -776 0
-775 -54 -776 0
775 -54 776 0
-775 54 776 0
776 55 -777 0
-776 -55 -777 0
776 -55 777 0
-776 55 777 0
777 223 -778 0
-777 -223 -778 0
777 -223 778 0
-777 223 778 0
778 235 -779 0
-778 -235 -779 0
778 -235 779 0
-778 235 779 0
779 241 -780 0
-779 -241 -780 0
779 -241 780 0
-779 241 780 0
780 253 -781 0
-780 -253 -781 0
780 -253 781 0
-780 253 781 0
-781 0
52 53 -782 0
-52 -53 -782 0
52 -53 782 0
-52 53 782 0
782 55 -783 0
-782 -55 -783 0
782 -55 783 0
-782 55 783 0
783 56 -784 0
-783 -56 -784 0
783 -56 784 0
-783 56 784 0
784 224 -785 0
-784 -224 -785 0
784 -224 785 0
-784 224 785 0
785 236 -786 0
-785 -236 -786 0
785 -236 786 0
-785 236 786 0
786 242 -787 0
-786 -242 -787 0
786 -242 787 0
-786 242 787 0
787 254 -788 0
-787 -254 -788 0
787 -254 788 0
-787 254 788 0
-788 0
53 54 -789 0
-53 -54 -789 0
53 -54 789 0
-53 54 789 0
789 56 -790 0
-789 -56 -790 0
789 -56 790 0
-789 56 790 0
790 57 -791 0
-790 -57 -791 0
790 -57 791 0
-790 57 791 0
791 225 -792 0
-791 -225 -792 0
791 -225 792 0
-791 225 792 0
792 237 -793 0
-792 -237 -793 0
792 -237 793 0
-792 237 793 0
793 243 -794 0
-793 -243 -794 0
793 -243 794 0
-793 243 794 0
794 255 -795 0
-794 -255 -795 0
794 -255 795 0
-794 255 795 0
-795 0
54 55 -796 0
-54 -55 -796 0
54 -55 796 0
-54 55 796 0
796 57 -797 0
-796 -57 -797 0
796 -57 797 0
-796 57 797 0
797 58 -798 0
-797 -58 -798 0
797 -58 798 0
-797 58 798 0
798 226 -799 0
-798 -226 -799 0
798 -226 799 0
-798 226 799 0
799 238 -800 0
-799 -238 -800 0
799 -238 800 0
-799 238 800 0
800 244 -801 0
-800 -244 -801 0
800 -244 801 0
-800 244 801 0
801 256 -802 0
-801 -256 -802 0
801 -256 802 0
-801 256 802 0
-802 0
55 56 -803 0
-55 -56 -803 0
55 -56 803 0
-55 56 803 0
803 58 -804 0
-803 -58 -804 0
803 -58 804 0
-803 58 804 0
804 59 -805 0
-804 -59 -805 0
804 -59 805 0
-804 59 805 0
805 227 -806 0
-805 -227 -806 0
805 -227 806 0
-805 227 806 0
806 239 -807 0
-806 -239 -807 0
806 -239 807 0
-806 239 807 0
807 245 -808 0
-807 -245 -808 0
807 -245 808 0
-807 245 808 0
808 257 -809 0
-808 -257 -809 0
808 -257 809 0
-808 257 809 0
-809 0
56 57 -810 0
-56 -57 -810 0
56 -57 810 0
-56 57 810 0
810 59 -811 0
-810 -59 -811 0
810 -59 811 0
-810 59 811 0
811 60 -812 0
-811 -60 -812 0
811 -60 812 0
-811 60 812 0
812 228 -813 0
-812 -228 -813 0
812 -228 813 0
-812 228 813 0
813 240 -814 0
-813 -240 -814 0
813 -240 814 0
-813 240 814 0
814 246 -815 0
-814 -246 -815 0
814 -246 815 0
-814 246 815 0
815 258 -816 0
-815 -258 -816 0
815 -258 816 0
-815 258 816 0
-816 0
57 58 -817 0
-57 -58 -817 0
57 -58 817 0
-57 58 817 0
817 60 -818 0
-817 -60 -818 0
817 -60 818 0
-817 60 818 0
818 61 -819 0
-818 -61 -819 0
818 -61 819 0
-818 61 819 0
819 229 -820 0
-819 -229 -820 0
819 -229 820 0
-819 229 820 0
820 241 -821 0
-820 -241 -821 0
820 -241 821 0
-820 241 821 0
821 247 -822 0
-821 -247 -822 0
821 -247 822 0
-821 247 822 0
822 259 -823 0
-822 -259 -823 0
822 -259 823 0
-822 259 823 0
-823 0
58 59 -824 0
-58 -59 -824 0
58 -59 824 0
-58 59 824 0
824 61 -825 0
-824 -61 -825 0
824 -61 825 0
-824 61 825 0
825 62 -826 0
-825 -62 -826 0
825 -62 826 0
-825 62 826 0
826 230 -827 0
-826 -230 -827 0
826 -230 827 0
-826 230 827 0
827 242 -828 0
-827 -242 -828 0
827 -242 828 0
-827 242 828 0
828 248 -829 0
-828 -248 -829 0
828 -248 829 0
-828 248 829 0
829 260 -830 0
-829 -260 -830 0
829 -260 830 0
-829 260 830 0
-830 0
59 60 -831 0
-59 -60 -831 0
59 -60 831 0
-59 60 831 0
831 62 -832 0
-831 -62 -832 0
831 -62 832 0
-831 62 832 0
832 63 -833 0
-832 -63 -833 0
832 -63 833 0
-832 63 833 0
833 231 -834 0
-833 -231 -834 0
833 -231 834 0
-833 231 834 0
834 243 -835 0
-834 -243 -835 0
834 -243 835 0
-834 243 835 0
835 249 -836 0
-835 -249 -836 0
835 -249 836 0
-835 249 836 0
836 261 -837 0
-836 -261 -837 0
836 -261 837 0
-836 261 837 0
-837 0
60 61 -838 0
-60 -61 -838 0
60 -61 838 0
-60 61 838 0
838 63 -839 0
-838 -63 -839 0
838 -63 839 0
-838 63 839 0
839 64 -840 0
-839 -64 -840 0
839 -64 840 0
-839 64 840 0
840 232 -841 0
-840 -232 -841 0
840 -232 841 0
-840 232 841 0
841 244 -842 0
-841 -244 -842 0
841 -244 842 0
-841 244 842 0
842 250 -843 0
-842 -250 -843 0
842 -250 843 0
-842 250 843 0
843 262 -844 0
-843 -262 -844 0
843 -262 844 0
-843 262 844 0
-844 0
61 62 -845 0
-61 -62 -845 0
61 -62 845 0
-61 62 845 0
845 64 -846 0
-845 -64 -846 0
845 -64 846 0
-845 64 846 0
846 65 -847 0
-846 -65 -847 0
846 -65 847 0
-846 65 847 0
847 233 -848 0
-847 -233 -848 0
847 -233 848 0
-847 233 848 0
848 245 -849 0
-848 -245 -849 0
848 -245 849 0
-848 245 849 0
849 251 -850 0
-849 -251 -850 0
849 -251 850 0
-849 251 850 0
850 263 -851 0
-850 -263 -851 0
850 -263 851 0
-850 263 851 0
-851 0
62 63 -852 0
-62 -63 -852 0
62 -63 852 0
-62 63 852 0
852 65 -853 0
-852 -65 -853 0
852 -65 853 0
-852 65 853 0
853 66 -854 0
-853 -66 -854 0
853 -66 854 0
-853 66 854 0
854 234 -855 0
-854 -234 -855 0
854 -234 855 0
-854 234 855 0
855 246 -856 0
-855 -246 -856 0
855 -246 856 0
-855 246 856 0
856 252 -857 0
-856 -252 -857 0
856 -252 857 0
-856 252 857 0
857 264 -858 0
-857 -264 -858 0
857 -264 858 0
-857 264 858 0
-858 0
63 64 -859 0
-63 -64 -859 0
63 -64 859 0
-63 64 859 0
859 66 -860 0
-859 -66 -860 0
859 -66 860 0
-859 66 860 0
860 67 -861 0
-860 -67 -861 0
860 -67 861 0
-860 67 861 0
861 235 -862 0
-861 -235 -862 0
861 -235 862 0
-861 235 862 0
862 247 -863 0
-862 -247 -863 0
862 -247 863 0
-862 247 863 0
863 253 -864 0
-863 -253 -864 0
863 -253 864 0
-863 253 864 0
864 265 -865 0
-864 -265 -865 0
864 -265 865 0
-864 265 865 0
-865 0
64 65 -866 0
-64 -65 -866 0
64 -65 866 0
-64 65 866 0
866 67 -867 0
-866 -67 -867 0
866 -67 867 0
-866 67 867 0
867 68 -868 0
-867 -68 -868 0
867 -68 868 0
-867 68 868 0
868 236 -869 0
-868 -236 -869 0
868 -236 869 0
-868 236 869 0
869 248 -870 0
-869 -248 -870 0
869 -248 870 0
-869 248 870 0
870 254 -871 0
-870 -254 -871 0
870 -254 871 0
-870 254 871 0
871 266 -872 0
-871 -266 -872 0
871 -266 872 0
-871 266 872 0
-872 0
65 66 -873 0
-65 -66 -873 0
65 -66 873 0
-65 66 873 0
873 68 -874 0
-873 -68 -874 0
873 -68 874 0
-873 68 874 0
874 69 -875 0
-874 -69 -875 0
874 -69 875 0
-874 69 875 0
875 237 -876 0
-875 -237 -876 0
875 -237 876 0
-875 237 876 0
876 249 -877 0
-876 -249 -877 0
876 -249 877 0
-876 249 877 0
877 255 -878 0
-877 -255 -878 0
877 -255 878 0
-877 255 878 0
878 267 -879 0
-878 -267 -879 0
878 -267 879 0
-878 267 879 0
-879 0
66 67 -880 0
-66 -67 -880 0
66 -67 880 0
-66 67 880 0
880 69 -881 0
-880 -69 -881 0
880 -69 881 0
-880 69 881 0
881 70 -882 0
-881 -70 -882 0
881 -70 882 0
-881 70 882 0
882 238 -883 0
-882 -238 -883 0
882 -238 883 0
-882 238 883 0
883 250 -884 0
-883 -250 -884 0
883 -250 884 0
-883 250 884 0
884 256 -885 0
-884 -256 -885 0
884 -256 885 0
-884 256 885 0
885 268 -886 0
-885 -268 -886 0
885 -268 886 0
-885 268 886 0
-886 0
67 68 -887 0
-67 -68 -887 0
67 -68 887 0
-67 68 887 0
887 70 -888 0
-887 -70 -888 0
887 -70 888 0
-887 70 888 0
888 71 -889 0
-888 -71 -889 0
888 -71 889 0
-888 71 889 0
889 239 -890 0
-889 -239 -890 0
889 -239 890 0
-889 239 890 0
890 251 -891 0
-890 -251 -891 0
890 -251 891 0
-890 251 891 0
891 257 -892 0
-891 -257 -892 0
891 -257 892 0
-891 257 892 0
892 269 -893 0
-892 -269 -893 0
892 -269 893 0
-892 269 893 0
-893 0
68 69 -894 0
-68 -69 -894 0
68 -69 894 0
-68 69 894 0
894 71 -895 0
-894 -71 -895 0
894 -71 895 0
-894 71 895 0
895 72 -896 0
-895 -72 -896 0
895 -72 896 0
-895 72 896 0
896 240 -897 0
-896 -240 -897 0
896 -240 897 0
-896 240 897 0
897 252 -898 0
-897 -252 -898 0
897 -252 898 0
-897 252 898 0
898 258 -899 0
-898 -258 -899 0
898 -258 899 0
-898 258 899 0
899 270 -900 0
-899 -270 -900 0
899 -270 900 0
-899 270 900 0
-900 0
69 70 -901 0
-69 -70 -901 0
69 -70 901 0
-69 70 901 0
901 72 -902 0
-901 -72 -902 0
901 -72 902 0
-901 72 902 0
902 73 -903 0
-902 -73 -903 0
902 -73 903 0
-902 73 903 0
903 241 -904 0
-903 -241 -904 0
903 -241 904 0
-903 241 904 0
904 253 -905 0
-904 -253 -905 0
904 -253 905 0
-904 253 905 0
905 259 -906 0
-905 -259 -906 0
905 -259 906 0
-905 259 906 0
906 271 -907 0
-906 -271 -907 0
906 -271 907 0
-906 271 907 0
-907 0
70 71 -908 0
-70 -71 -908 0
70 -71 908 0
-70 71 908 0
908 73 -909 0
-908 -73 -909 0
908 -73 909 0
-908 73 909 0
909 74 -910 0
-909 -74 -910 0
909 -74 910 0
-909 74 910 0
910 242 -911 0
-910 -242 -911 0
910 -242 911 0
-910 242 911 0
911 254 -912 0
-911 -254 -912 0
911 -254 912 0
-911 254 912 0
912 260 -913 0
-912 -260 -913 0
912 -260 913 0
-912 260 913 0
913 272 -914 0
-913 -272 -914 0
913 -272 914 0
-913 272 914 0
-914 0
71 72 -915 0
-71 -72 -915 0
71 -72 915 0
-71 72 915 0
915 74 -916 0
-915 -74 -916 0
915 -74 916 0
-915 74 916 0
916 75 -917 0
-916 -75 -917 0
916 -75 917 0
-916 75 917 0
917 243 -918 0
-917 -243 -918 0
917 -243 918 0
-917 243 918 0
918 255 -919 0
-918 -255 -919 0
918 -255 919 0
-918 255 919 0
919 261 -920 0
-919 -261 -920 0
919 -261 920 0
-919 261 920 0
920 273 -921 0
-920 -273 -921 0
920 -273 921 0
-920 273 921 0
-921 0
72 73 -922 0
-72 -73 -922 0
72 -73 922 0
-72 73 922 0
922 75 -923 0
-922 -75 -923 0
922 -75 923 0
-922 75 923 0
923 76 -924 0
-923 -76 -924 0
923 -76 924 0
-923 76 924 0
924 244 -925 0
-924 -244 -925 0
924 -244 925 0
-924 244 925 0
925 256 -926 0
-925 -256 -926 0
925 -256 926 0
-925 256 926 0
926 262 -927 0
-926 -262 -927 0
926 -262 927 0
-926 262 927 0
927 274 -928 0
-927 -274 -928 0
927 -274 928 0
-927 274 928 0
-928 0
73 74 -929 0
-73 -74 -929 0
73 -74 929 0
-73 74 929 0
929 76 -930 0
-929 -76 -930 0
929 -76 930 0
-929 76 930 0
930 77 -931 0
-930 -77 -931 0
930 -77 931 0
-930 77 931 0
931 245 -932 0
-931 -245 -932 0
931 -245 932 0
-931 245 932 0
932 257 -933 0
-932 -257 -933 0
932 -257 933 0
-932 257 933 0
933 263 -934 0
-933 -263 -934 0
933 -263 934 0
-933 263 934 0
934 275 -935 0
-934 -275 -935 0
934 -275 935 0
-934 275 935 0
-935 0
74 75 -936 0
-74 -75 -936 0
74 -75 936 0
-74 75 936 0
936 77 -937 0
-936 -77 -937 0
936 -77 937 0
-936 77 937 0
937 78 -938 0
-937 -78 -938 0
937 -78 938 0
-937 78 938 0
938 246 -939 0
-938 -246 -939 0
938 -246 939 0
-938 246 939 0
939 258 -940 0
-939 -258 -940 0
939 -258 940 0
-939 258 940 0
940 264 -941 0
-940 -264 -941 0
940 -264 941 0
-940 264 941 0
941 276 -942 0
-941 -276 -942 0
941 -276 942 0
-941 276 942 0
-942 0
75 76 -943 0
-75 -76 -943 0
75 -76 943 0
-75 76 943 0
943 78 -944 0
-943 -78 -944 0
943 -78 944 0
-943 78 944 0
944 79 -945 0
-944 -79 -945 0
944 -79 945 0
-944 79 945 0
945 247 -946 0
-945 -247 -946 0
945 -247 946 0
-945 247 946 0
946 259 -947 0
-946 -259 -947 0
946 -259 947 0
-946 259 947 0
947 265 -948 0
-947 -265 -948 0
947 -265 948 0
-947 265 948 0
948 277 -949 0
-948 -277 -949 0
948 -277 949 0
-948 277 949 0
-949 0
76 77 -950 0
-76 -77 -950 0
76 -77 950 0
-76 77 950 0
950 79 -951 0
-950 -79 -951 0
950 -79 951 0
-950 79 951 0
951 80 -952 0
-951 -80 -952 0
951 -80 952 0
-951 80 952 0
952 248 -953 0
-952 -248 -953 0
952 -248 953 0
-952 248 953 0
953 260 -954 0
-953 -260 -954 0
953 -260 954 0
-953 260 954 0
954 266 -955 0
-954 -266 -955 0
954 -266 955 0
-954 266 955 0
955 278 -956 0
-955 -278 -956 0
955 -278 956 0
-955 278 956 0
-956 0
77 78 -957 0
-77 -78 -957 0
77 -78 957 0
-77 78 957 0
957 80 -958 0
-957 -80 -958 0
957 -80 958 0
-957 80 958 0
958 81 -959 0
-958 -81 -959 0
958 -81 959 0
-958 81 959 0
959 249 -960 0
-959 -249 -960 0
959 -249 960 0
-959 249 960 0
960 261 -961 0
-960 -261 -961 0
960 -261 961 0
-960 261 961 0
961 267 -962 0
-961 -267 -962 0
961 -267 962 0
-961 267 962 0
962 279 -963 0
-962 -279 -963 0
962 -279 963 0
-962 279 963 0
-963 0
78 79 -964 0
-78 -79 -964 0
78 -79 964 0
-78 79 964 0
964 81 -965 0
-964 -81 -965 0
964 -81 965 0
-964 81 965 0
965 82 -966 0
-965 -82 -966 0
965 -82 966 0
-965 82 966 0
966 250 -967 0
-966 -250 -967 0
966 -250 967 0
-966 250 967 0
967 262 -968 0
-967 -262 -968 0
967 -262 968 0
-967 262 968 0
968 268 -969 0
-968 -268 -969 0
968 -268 969 0
-968 268 969 0
969 280 -970 0
-969 -280 -970 0
969 -280 970 0
-969 280 970 0
-970 0
79 80 -971 0
-79 -80 -971 0
79 -80 971 0
-79 80 971 0
971 82 -972 0
-971 -82 -972 0
971 -82 972 0
-971 82 972 0
972 83 -973 0
-972 -83 -973 0
972 -83 973 0
-972 83 973 0
973 251 -974 0
-973 -251 -974 0
973 -251 974 0
-973 251 974 0
974 263 -975 0
-974 -263 -975 0
974 -263 975 0
-974 263 975 0
975 269 -976 0
-975 -269 -976 0
975 -269 976 0
-975 269 976 0
976 281 -977 0
-976 -281 -977 0
976 -281 977 0
-976 281 977 0
-977 0
80 81 -978 0
-80 -81 -978 0
80 -81 978 0
-80 81 978 0
978 83 -979 0
-978 -83 -979 0
978 -83 979 0
-978 83 979 0
979 84 -980 0
-979 -84 -980 0
979 -84 980 0
-979 84 980 0
980 252 -981 0
-980 -252 -981 0
980 -252 981 0
-980 252 981 0
981 264 -982 0
-981 -264 -982 0
981 -264 982 0
-981 264 982 0
982 270 -983 0
-982 -270 -983 0
982 -270 983 0
-982 270 983 0
983 282 -984 0
-983 -282 -984 0
983 -282 984 0
-983 282 984 0
-984 0
81 82 -985 0
-81 -82 -985 0
81 -82 985 0
-81 82 985 0
985 84 -986 0
-985 -84 -986 0
985 -84 986 0
-985 84 986 0
986 85 -987 0
-986 -85 -987 0
986 -85 987 0
-986 85 987 0
987 253 -988 0
-987 -253 -988 0
987 -253 988 0
-987 253 988 0
988 265 -989 0
-988 -265 -989 0
988 -265 989 0
-988 265 989 0
989 271 -990 0
-989 -271 -990 0
989 -271 990 0
-989 271 990 0
990 283 -991 0
-990 -283 -991 0
990 -283 991 0
-990 283 991 0
-991 0
82 83 -992 0
-82 -83 -992 0
82 -83 992 0
-82 83 992 0
992 85 -993 0
-992 -85 -993 0
992 -85 993 0
-992 85 993 0
993 86 -994 0
-993 -86 -994 0
993 -86 994 0
-993 86 994 0
994 254 -995 0
-994 -254 -995 0
994 -254 995 0
-994 254 995 0
995 266 -996 0
-995 -266 -996 0
995 -266 996 0
-995 266 996 0
996 272 -997 0
-996 -272 -997 0
996 -272 997 0
-996 272 997 0
997 284 -998 0
-997 -284 -998 0
997 -284 998 0
-997 284 998 0
-998 0
83 84 -999 0
-83 -84 -999 0
83 -84 999 0
-83 84 999 0
999 86 -1000 0
-999 -86 -1000 0
999 -86 1000 0
-999 86 1000 0
1000 87 -1001 0
-1000 -87 -1001 0
1000 -87 1001 0
-1000 87 1001 0
1001 255 -1002 0
-1001 -255 -1002 0
1001 -255 1002 0
-1001 255 1002 0
1002 267 -1003 0
-1002 -267 -1003 0
1002 -267 1003 0
-1002 267 1003 0
1003 273 -1004 0
-1003 -273 -1004 0
1003 -273 1004 0
-1003 273 1004 0
1004 285 -1005 0
-1004 -285 -1005 0
1004 -285 1005 0
-1004 285 1005 0
-1005 0
84 85 -1006 0
-84 -85 -1006 0
84 -85 1006 0
-84 85 1006 0
1006 87 -1007 0
-1006 -87 -1007 0
1006 -87 1007 0
-1006 87 1007 0
1007 88 -1008 0
-1007 -88 -1008 0
1007 -88 1008 0
-1007 88 1008 0
1008 256 -1009 0
-1008 -256 -1009 0
1008 -256 1009 0
-1008 256 1009 0
1009 268 -1010 0
-1009 -268 -1010 0
1009 -268 1010 0
-1009 268 1010 0
1010 274 -1011 0
-1010 -274 -1011 0
1010 -274 1011 0
-1010 274 1011 0
1011 286 -1012 0
-1011 -286 -1012 0
1011 -286 1012 0
-1011 286 1012 0
-1012 0
85 86 -1013 0
-85 -86 -1013 0
85 -86 1013 0
-85 86 1013 0
1013 88 -1014 0
-1013 -88 -1014 0
1013 -88 1014 0
-1013 88 1014 0
1014 89 -1015 0
-1014 -89 -1015 0
1014 -89 1015 0
-1014 89 1015 0
1015 257 -1016 0
-1015 -257 -1016 0
1015 -257 1016 0
-1015 257 1016 0
1016 269 -1017 0
-1016 -269 -1017 0
1016 -269 1017 0
-1016 269 1017 0
1017 275 -1018 0
-1017 -275 -1018 0
1017 -275 1018 0
-1017 275 1018 0
1018 287 -1019 0
-1018 -287 -1019 0
1018 -287 1019 0
-1018 287 1019 0
-1019 0
86 87 -1020 0
-86 -87 -1020 0
86 -87 1020 0
-86 87 1020 0
1020 89 -1021 0
-1020 -89 -1021 0
1020 -89 1021 0
-1020 89 1021 0
1021 90 -1022 0
-1021 -90 -1022 0
1021 -90 1022 0
-1021 90 1022 0
1022 258 -1023 0
-1022 -258 -1023 0
1022 -258 1023 0
-1022 258 1023 0
1023 270 -1024 0
-1023 -270 -1024 0
1023 -270 1024 0
-1023 270 1024 0
1024 276 -1025 0
-1024 -276 -1025 0
1024 -276 1025 0
-1024 276 1025 0
1025 288 -1026 0
-1025 -288 -1026 0
1025 -288 1026 0
-1025 288 1026 0
-1026 0
87 88 -1027 0
-87 -88 -1027 0
87 -88 1027 0
-87 88 1027 0
1027 90 -1028 0
-1027 -90 -1028 0
1027 -90 1028 0
-1027 90 1028 0
1028 91 -1029 0
-1028 -91 -1029 0
1028 -91 1029 0
-1028 91 1029 0
1029 259 -1030 0
-1029 -259 -1030 0
1029 -259 1030 0
-1029 259 1030 0
1030 271 -1031 0
-1030 -271 -1031 0
1030 -271 1031 0
-1030 271 1031 0
1031 277 -1032 0
-1031 -277 -1032 0
1031 -277 1032 0
-1031 277 1032 0
1032 289 -1033 0
-1032 -289 -1033 0
1032 -289 1033 0
-1032 289 1033 0
-1033 0
88 89 -1034 0
-88 -89 -1034 0
88 -89 1034 0
-88 89 1034 0
1034 91 -1035 0
-1034 -91 -1035 0
1034 -91 1035 0
-1034 91 1035 0
1035 92 -1036 0
-1035 -92 -1036 0
1035 -92 1036 0
-1035 92 1036 0
1036 260 -1037 0
-1036 -260 -1037 0
1036 -260 1037 0
-1036 260 1037 0
1037 272 -1038 0
-1037 -272 -1038 0
1037 -272 1038 0
-1037 272 1038 0
1038 278 -1039 0
-1038 -278 -1039 0
1038 -278 1039 0
-1038 278 1039 0
1039 290 -1040 0
-1039 -290 -1040 0
1039 -290 1040 0
-1039 290 1040 0
-1040 0
89 90 -1041 0
-89 -90 -1041 0
89 -90 1041 0
-89 90 1041 0
1041 92 -1042 0
-1041 -92 -1042 0
1041 -92 1042 0
-1041 92 1042 0
1042 93 -1043 0
-1042 -93 -1043 0
1042 -93 1043 0
-1042 93 1043 0
1043 261 -1044 0
-1043 -261 -1044 0
1043 -261 1044 0
-1043 261 1044 0
1044 273 -1045 0
-1044 -273 -1045 0
1044 -273 1045 0
-1044 273 1045 0
1045 279 -1046 0
-1045 -279 -1046 0
1045 -279 1046 0
-1045 279 1046 0
1046 291 -1047 0
-1046 -291 -1047 0
1046 -291 1047 0
-1046 291 1047 0
-1047 0
90 91 -1048 0
-90 -91 -1048 0
90 -91 1048 0
-90 91 1048 0
1048 93 -1049 0
-1048 -93 -1049 0
1048 -93 1049 0
-1048 93 1049 0
1049 94 -1050 0
-1049 -94 -1050 0
1049 -94 1050 0
-1049 94 1050 0
1050 262 -1051 0
-1050 -262 -1051 0
1050 -262 1051 0
-1050 262 1051 0
1051 274 -1052 0
-1051 -274 -1052 0
1051 -274 1052 0
-1051 274 1052 0
1052 280 -1053 0
-1052 -280 -1053 0
1052 -280 1053 0
-1052 280 1053 0
1053 292 -1054 0
-1053 -292 -1054 0
1053 -292 1054 0
-1053 292 1054 0
-1054 0
91 92 -1055 0
-91 -92 -1055 0
91 -92 1055 0
-91 92 1055 0
1055 94 -1056 0
-1055 -94 -1056 0
1055 -94 1056 0
-1055 94 1056 0
1056 95 -1057 0
-1056 -95 -1057 0
1056 -95 1057 0
-1056 95 1057 0
1057 263 -1058 0
-1057 -263 -1058 0
1057 -263 1058 0
-1057 263 1058 0
1058 275 -1059 0
-1058 -275 -1059 0
1058 -275 1059 0
-1058 275 1059 0
1059 281 -1060 0
-1059 -281 -1060 0
1059 -281 1060 0
-1059 281 1060 0
1060 293 -1061 0
-1060 -293 -1061 0
1060 -293 1061 0
-1060 293 1061 0
-1061 0
92 93 -1062 0
-92 -93 -1062 0
92 -93 1062 0
-92 93 1062 0
1062 95 -1063 0
-1062 -95 -1063 0
1062 -95 1063 0
-1062 95 1063 0
1063 96 -1064 0
-1063 -96 -1064 0
1063 -96 1064 0
-1063 96 1064 0
1064 264 -1065 0
-1064 -264 -1065 0
1064 -264 1065 0
-1064 264 1065 0
1065 276 -1066 0
-1065 -276 -1066 0
1065 -276 1066 0
-1065 276 1066 0
1066 282 -1067 0
-1066 -282 -1067 0
1066 -282 1067 0
-1066 282 1067 0
1067 294 -1068 0
-1067 -294 -1068 0
1067 -294 1068 0
-1067 294 1068 0
-1068 0
93 94 -1069 0
-93 -94 -1069 0
93 -94 1069 0
-93 94 1069 0
1069 96 -1070 0
-1069 -96 -1070 0
1069 -96 1070 0
-1069 96 1070 0
1070 97 -1071 0
-1070 -97 -1071 0
1070 -97 1071 0
-1070 97 1071 0
1071 265 -1072 0
-1071 -265 -1072 0
1071 -265 1072 0
-1071 265 1072 0
1072 277 -1073 0
-1072 -277 -1073 0
1072 -277 1073 0
-1072 277 1073 0
1073 283 -1074 0
-1073 -283 -1074 0
1073 -283 1074 0
-1073 283 1074 0
1074 295 -1075 0
-1074 -295 -1075 0
1074 -295 1075 0
-1074 295 1075 0
-1075 0
94 95 -1076 0
-94 -95 -1076 0
94 -95 1076 0
-94 95 1076 0
1076 97 -1077 0
-1076 -97 -1077 0
1076 -97 1077 0
-1076 97 1077 0
1077 98 -1078 0
-1077 -98 -1078 0
1077 -98 1078 0
-1077 98 1078 0
1078 266 -1079 0
-1078 -266 -1079 0
1078 -266 1079 0
-1078 266 1079 0
1079 278 -1080 0
-1079 -278 -1080 0
1079 -278 1080 0
-1079 278 1080 0
1080 284 -1081 0
-1080 -284 -1081 0
1080 -284 1081 0
-1080 284 1081 0
1081 296 -1082 0
-1081 -296 -1082 0
1081 -296 1082 0
-1081 296 1082 0
-1082 0
95 96 -1083 0
-95 -96 -1083 0
95 -96 1083 0
-95 96 1083 0
1083 98 -1084 0
-1083 -98 -1084 0
1083 -98 1084 0
-1083 98 1084 0
1084 99 -1085 0
-1084 -99 -1085 0
1084 -99 1085 0
-1084 99 1085 0
1085 267 -1086 0
-1085 -267 -1086 0
1085 -267 1086 0
-1085 267 1086 0
1086 279 -1087 0
-1086 -279 -1087 0
1086 -279 1087 0
-1086 279 1087 0
1087 285 -1088 0
-1087 -285 -1088 0
1087 -285 1088 0
-1087 285 1088 0
1088 297 -1089 0
-1088 -297 -1089 0
1088 -297 1089 0
-1088 297 1089 0
-1089 0
96 97 -1090 0
-96 -97 -1090 0
96 -97 1090 0
-96 97 1090 0
1090 99 -1091 0
-1090 -99 -1091 0
1090 -99 1091 0
-1090 99 1091 0
1091 100 -1092 0
-1091 -100 -1092 0
1091 -100 1092 0
-1091 100 1092 0
1092 268 -1093 0
-1092 -268 -1093 0
1092 -268 1093 0
-1092 268 1093 0
1093 280 -1094 0
-1093 -280 -1094 0
1093 -280 1094 0
-1093 280 1094 0
1094 286 -1095 0
-1094 -286 -1095 0
1094 -286 1095 0
-1094 286 1095 0
1095 298 -1096 0
-1095 -298 -1096 0
1095 -298 1096 0
-1095 298 1096 0
-1096 0
97 98 -1097 0
-97 -98 -1097 0
97 -98 1097 0
-97 98 1097 0
1097 100 -1098 0
-1097 -100 -1098 0
1097 -100 1098 0
-1097 100 1098 0
1098 101 -1099 0
-1098 -101 -1099 0
1098 -101 1099 0
-1098 101 1099 0
1099 269 -1100 0
-1099 -269 -1100 0
1099 -269 1100 0
-1099 269 1100 0
1100 281 -1101 0
-1100 -281 -1101 0
1100 -281 1101 0
-1100 281 1101 0
1101 287 -1102 0
-1101 -287 -1102 0
1101 -287 1102 0
-1101 287 1102 0
1102 299 -1103 0
-1102 -299 -1103 0
1102 -299 1103 0
-1102 299 1103 0
-1103 0
98 99 -1104 0
-98 -99 -1104 0
98 -99 1104 0
-98 99 1104 0
1104 101 -1105 0
-1104 -101 -1105 0
1104 -101 1105 0
-1104 101 1105 0
1105 102 -1106 0
-1105 -102 -1106 0
1105 -102 1106 0
-1105 102 1106 0
1106 270 -1107 0
-1106 -270 -1107 0
1106 -270 1107 0
-1106 270 1107 0
1107 282 -1108 0
-1107 -282 -1108 0
1107 -282 1108 0
-1107 282 1108 0
1108 288 -1109 0
-1108 -288 -1109 0
1108 -288 1109 0
-1108 288 1109 0
1109 300 -1110 0
-1109 -300 -1110 0
1109 -300 1110 0
-1109 300 1110 0
-1110 0
99 100 -1111 0
-99 -100 -1111 0
99 -100 1111 0
-99 100 1111 0
1111 102 -1112 0
-1111 -102 -1112 0
1111 -102 1112 0
-1111 102 1112 0
1112 103 -1113 0
-1112 -103 -1113 0
1112 -103 1113 0
-1112 103 1113 0
1113 271 -1114 0
-1113 -271 -1114 0
1113 -271 1114 0
-1113 271 1114 0
1114 283 -1115 0
-1114 -283 -1115 0
1114 -283 1115 0
-1114 283 1115 0
1115 289 -1116 0
-1115 -289 -1116 0
1115 -289 1116 0
-1115 289 1116 0
1116 301 -1117 0
-1116 -301 -1117 0
1116 -301 1117 0
-1116 301 1117 0
-1117 0
100 101 -1118 0
-100 -101 -1118 0
100 -101 1118 0
-100 101 1118 0
1118 103 -1119 0
-1118 -103 -1119 0
1118 -103 1119 0
-1118 103 1119 0
1119 104 -1120 0
-1119 -104 -1120 0
1119 -104 1120 0
-1119 104 1120 0
1120 272 -1121 0
-1120 -272 -1121 0
1120 -272 1121 0
-1120 272 1121 0
1121 284 -1122 0
-1121 -284 -1122 0
1121 -284 1122 0
-1121 284 1122 0
1122 290 -1123 0
-1122 -290 -1123 0
1122 -290 1123 0
-1122 290 1123 0
1123 302 -1124 0
-1123 -302 -1124 0
1123 -302 1124 0
-1123 302 1124 0
-1124 0
101 102 -1125 0
-101 -102 -1125 0
101 -102 1125 0
-101 102 1125 0
1125 104 -1126 0
-1125 -104 -1126 0
1125 -104 1126 0
-1125 104 1126 0
1126 105 -1127 0
-1126 -105 -1127 0
1126 -105 1127 0
-1126 105 1127 0
1127 273 -1128 0
-1127 -273 -1128 0
1127 -273 1128 0
-1127 273 1128 0
1128 285 -1129 0
-1128 -285 -1129 0
1128 -285 1129 0
-1128 285 1129 0
1129 291 -1130 0
-1129 -291 -1130 0
1129 -291 1130 0
-1129 291 1130 0
1130 303 -1131 0
-1130 -303 -1131 0
1130 -303 1131 0
-1130 303 1131 0
-1131 0
102 103 -1132 0
-102 -103 -1132 0
102 -103 1132 0
-102 103 1132 0
1132 105 -1133 0
-1132 -105 -1133 0
1132 -105 1133 0
-1132 105 1133 0
1133 106 -1134 0
-1133 -106 -1134 0
1133 -106 1134 0
-1133 106 1134 0
1134 274 -1135 0
-1134 -274 -1135 0
1134 -274 1135 0
-1134 274 1135 0
1135 286 -1136 0
-1135 -286 -1136 0
1135 -286 1136 0
-1135 286 1136 0
1136 292 -1137 0
-1136 -292 -1137 0
1136 -292 1137 0
-1136 292 1137 0
1137 304 -1138 0
-1137 -304 -1138 0
1137 -304 1138 0
-1137 304 1138 0
-1138 0
103 104 -1139 0
-103 -104 -1139 0
103 -104 1139 0
-103 104 1139 0
1139 106 -1140 0
-1139 -106 -1140 0
1139 -106 1140 0
-1139 106 1140 0
1140 107 -1141 0
-1140 -107 -1141 0
1140 -107 1141 0
-1140 107 1141 0
1141 275 -1142 0
-1141 -275 -1142 0
1141 -275 1142 0
-1141 275 1142 0
1142 287 -1143 0
-1142 -287 -1143 0
1142 -287 1143 0
-1142 287 1143 0
1143 293 -1144 0
-1143 -293 -1144 0
1143 -293 1144 0
-1143 293 1144 0
1144 305 -1145 0
-1144 -305 -1145 0
1144 -305 1145 0
-1144 305 1145 0
-1145 0
104 105 -1146 0
-104 -105 -1146 0
104 -105 1146 0
-104 105 1146 0
1146 107 -1147 0
-1146 -107 -1147 0
1146 -107 1147 0
-1146 107 1147 0
1147 108 -1148 0
-1147 -108 -1148 0
1147 -108 1148 0
-1147 108 1148 0
1148 276 -1149 0
-1148 -276 -1149 0
1148 -276 1149 0
-1148 276 1149 0
1149 288 -1150 0
-1149 -288 -1150 0
1149 -288 1150 0
-1149 288 1150 0
1150 294 -1151 0
-1150 -294 -1151 0
1150 -294 1151 0
-1150 294 1151 0
1151 306 -1152 0
-1151 -306 -1152 0
1151 -306 1152 0
-1151 306 1152 0
-1152 0
105 106 -1153 0
-105 -106 -1153 0
105 -106 1153 0
-105 106 1153 0
1153 108 -1154 0
-1153 -108 -1154 0
1153 -108 1154 0
-1153 108 1154 0
1154 109 -1155 0
-1154 -109 -1155 0
1154 -109 1155 0
-1154 109 1155 0
1155 277 -1156 0
-1155 -277 -1156 0
1155 -277 1156 0
-1155 277 1156 0
1156 289 -1157 0
-1156 -289 -1157 0
1156 -289 1157 0
-1156 289 1157 0
1157 295 -1158 0
-1157 -295 -1158 0
1157 -295 1158 0
-1157 295 1158 0
1158 307 -1159 0
-1158 -307 -1159 0
1158 -307 1159 0
-1158 307 1159 0
-1159 0
106 107 -1160 0
-106 -107 -1160 0
106 -107 1160 0
-106 107 1160 0
1160 109 -1161 0
-1160 -109 -1161 0
1160 -109 1161 0
-1160 109 1161 0
1161 110 -1162 0
-1161 -110 -1162 0
1161 -110 1162 0
-1161 110 1162 0
1162 278 -1163 0
-1162 -278 -1163 0
1162 -278 1163 0
-1162 278 1163 0
1163 290 -1164 0
-1163 -290 -1164 0
1163 -290 1164 0
-1163 290 1164 0
1164 296 -1165 0
-1164 -296 -1165 0
1164 -296 1165 0
-1164 296 1165 0
1165 308 -1166 0
-1165 -308 -1166 0
1165 -308 1166 0
-1165 308 1166 0
-1166 0
107 108 -1167 0
-107 -108 -1167 0
107 -108 1167 0
-107 108 1167 0
1167 110 -1168 0
-1167 -110 -1168 0
1167 -110 1168 0
-1167 110 1168 0
1168 111 -1169 0
-1168 -111 -1169 0
1168 -111 1169 0
-1168 111 1169 0
1169 279 -1170 0
-1169 -279 -1170 0
1169 -279 1170 0
-1169 279 1170 0
1170 291 -1171 0
-1170 -291 -1171 0
1170 -291 1171 0
-1170 291 1171 0
1171 297 -1172 0
-1171 -297 -1172 0
1171 -297 1172 0
-1171 297 1172 0
1172 309 -1173 0
-1172 -309 -1173 0
1172 -309 1173 0
-1172 309 1173 0
-1173 0
108 109 -1174 0
-108 -109 -1174 0
108 -109 1174 0
-108 109 1174 0
1174 111 -1175 0
-1174 -111 -1175 0
1174 -111 1175 0
-1174 111 1175 0
1175 112 -1176 0
-1175 -112 -1176 0
1175 -112 1176 0
-1175 112 1176 0
1176 280 -1177 0
-1176 -280 -1177 0
1176 -280 1177 0
-1176 280 1177 0
1177 292 -1178 0
-1177 -292 -1178 0
1177 -292 1178 0
-1177 292 1178 0
1178 298 -1179 0
-1178 -298 -1179 0
1178 -298 1179 0
-1178 298 1179 0
1179 310 -1180 0
-1179 -310 -1180 0
1179 -310 1180 0
-1179 310 1180 0
-1180 0
109 110 -1181 0
-109 -110 -1181 0
109 -110 1181 0
-109 110 1181 0
1181 112 -1182 0
-1181 -112 -1182 0
1181 -112 1182 0
-1181 112 1182 0
1182 113 -1183 0
-1182 -113 -1183 0
1182 -113 1183 0
-1182 113 1183 0
1183 281 -1184 0
-1183 -281 -1184 0
1183 -281 1184 0
-1183 281 1184 0
1184 293 -1185 0
-1184 -293 -1185 0
1184 -293 1185 0
-1184 293 1185 0
1185 299 -1186 0
-1185 -299 -1186 0
1185 -299 1186 0
-1185 299 1186 0
1186 311 -1187 0
-1186 -311 -1187 0
1186 -311 1187 0
-1186 311 1187 0
-1187 0
110 111 -1188 0
-110 -111 -1188 0
110 -111 1188 0
-110 111 1188 0
1188 113 -1189 0
-1188 -113 -1189 0
1188 -113 1189 0
-1188 113 1189 0
1189 114 -1190 0
-1189 -114 -1190 0
1189 -114 1190 0
-1189 114 1190 0
1190 282 -1191 0
-1190 -282 -1191 0
1190 -282 1191 0
-1190 282 1191 0
1191 294 -1192 0
-1191 -294 -1192 0
1191 -294 1192 0
-1191 294 1192 0
1192 300 -1193 0
-1192 -300 -1193 0
1192 -300 1193 0
-1192 300 1193 0
1193 312 -1194 0
-1193 -312 -1194 0
1193 -312 1194 0
-1193 312 1194 0
-1194 0
111 112 -1195 0
-111 -112 -1195 0
111 -112 1195 0
-111 112 1195 0
1195 114 -1196 0
-1195 -114 -1196 0
1195 -114 1196 0
-1195 114 1196 0
1196 115 -1197 0
-1196 -115 -1197 0
1196 -115 1197 0
-1196 115 1197 0
1197 283 -1198 0
-1197 -283 -1198 0
1197 -283 1198 0
-1197 283 1198 0
1198 295 -1199 0
-1198 -295 -1199 0
1198 -295 1199 0
-1198 295 1199 0
1199 301 -1200 0
-1199 -301 -1200 0
1199 -301 1200 0
-1199 301 1200 0
1200 313 -1201 0
-1200 -313 -1201 0
1200 -313 1201 0
-1200 313 1201 0
-1201 0
112 113 -1202 0
-112 -113 -1202 0
112 -113 1202 0
-112 113 1202 0
1202 115 -1203 0
-1202 -115 -1203 0
1202 -115 1203 0
-1202 115 1203 0
1203 116 -1204 0
-1203 -116 -1204 0
1203 -116 1204 0
-1203 116 1204 0
1204 284 -1205 0
-1204 -284 -1205 0
1204 -284 1205 0
-1204 284 1205 0
1205 296 -1206 0
-1205 -296 -1206 0
1205 -296 1206 0
-1205 296 1206 0
1206 302 -1207 0
-1206 -302 -1207 0
1206 -302 1207 0
-1206 302 1207 0
1207 314 -1208 0
-1207 -314 -1208 0
1207 -314 1208 0
-1207 314 1208 0
-1208 0
113 114 -1209 0
-113 -114 -1209 0
113 -114 1209 0
-113 114 1209 0
1209 116 -1210 0
-1209 -116 -1210 0
1209 -116 1210 0
-1209 116 1210 0
1210 117 -1211 0
-1210 -117 -1211 0
1210 -117 1211 0
-1210 117 1211 0
1211 285 -1212 0
-1211 -285 -1212 0
1211 -285 1212 0
-1211 285 1212 0
1212 297 -1213 0
-1212 -297 -1213 0
1212 -297 1213 0
-1212 297 1213 0
1213 303 -1214 0
-1213 -303 -1214 0
1213 -303 1214 0
-1213 303 1214 0
1214 315 -1215 0
-1214 -315 -1215 0
1214 -315 1215 0
-1214 315 1215 0
-1215 0
114 115 -1216 0
-114 -115 -1216 0
114 -115 1216 0
-114 115 1216 0
1216 117 -1217 0
-1216 -117 -1217 0
1216 -117 1217 0
-1216 117 1217 0
1217 118 -1218 0
-1217 -118 -1218 0
1217 -118 1218 0
-1217 118 1218 0
1218 286 -1219 0
-1218 -286 -1219 0
1218 -286 1219 0
-1218 286 1219 0
1219 298 -1220 0
-1219 -298 -1220 0
1219 -298 1220 0
-1219 298 1220 0
1220 304 -1221 0
-1220 -304 -1221 0
1220 -304 1221 0
-1220 304 1221 0
1221 316 -1222 0
-1221 -316 -1222 0
1221 -316 1222 0
-1221 316 1222 0
-1222 0
115 116 -1223 0
-115 -116 -1223 0
115 -116 1223 0
-115 116 1223 0
1223 118 -1224 0
-1223 -118 -1224 0
1223 -118 1224 0
-1223 118 1224 0
1224 119 -1225 0
-1224 -119 -1225 0
1224 -119 1225 0
-1224 119 1225 0
1225 287 -1226 0
-1225 -287 -1226 0
1225 -287 1226 0
-1225 287 1226 0
1226 299 -1227 0
-1226 -299 -1227 0
1226 -299 1227 0
-1226 299 1227 0
1227 305 -1228 0
-1227 -305 -1228 0
1227 -305 1228 0
-1227 305 1228 0
1228 317 -1229 0
-1228 -317 -1229 0
1228 -317 1229 0
-1228 317 1229 0
-1229 0
116 117 -1230 0
-116 -117 -1230 0
116 -117 1230 0
-116 117 1230 0
1230 119 -1231 0
-1230 -119 -1231 0
1230 -119 1231 0
-1230 119 1231 0
1231 120 -1232 0
-1231 -120 -1232 0
1231 -120 1232 0
-1231 120 1232 0
1232 288 -1233 0
-1232 -288 -1233 0
1232 -288 1233 0
-1232 288 1233 0
1233 300 -1234 0
-1233 -300 -1234 0
1233 -300 1234 0
-1233 300 1234 0
1234 306 -1235 0
-1234 -306 -1235 0
1234 -306 1235 0
-1234 306 1235 0
1235 318 -1236 0
-1235 -318 -1236 0
1235 -318 1236 0
-1235 318 1236 0
-1236 0
117 118 -1237 0
-117 -118 -1237 0
117 -118 1237 0
-117 118 1237 0
1237 120 -1238 0
-1237 -120 -1238 0
1237 -120 1238 0
-1237 120 1238 0
1238 121 -1239 0
-1238 -121 -1239 0
1238 -121 1239 0
-1238 121 1239 0
1239 289 -1240 0
-1239 -289 -1240 0
1239 -289 1240 0
-1239 289 1240 0
1240 301 -1241 0
-1240 -301 -1241 0
1240 -301 1241 0
-1240 301 1241 0
1241 307 -1242 0
-1241 -307 -1242 0
1241 -307 1242 0
-1241 307 1242 0
1242 319 -1243 0
-1242 -319 -1243 0
1242 -319 1243 0
-1242 319 1243 0
-1243 0
118 119 -1244 0
-118 -119 -1244 0
118 -119 1244 0
-118 119 1244 0
1244 121 -1245 0
-1244 -121 -1245 0
1244 -121 1245 0
-1244 121 1245 0
1245 122 -1246 0
-1245 -122 -1246 0
1245 -122 1246 0
-1245 122 1246 0
1246 290 -1247 0
-1246 -290 -1247 0
1246 -290 1247 0
-1246 290 1247 0
1247 302 -1248 0
-1247 -302 -1248 0
1247 -302 1248 0
-1247 302 1248 0
1248 308 -1249 0
-1248 -308 -1249 0
1248 -308 1249 0
-1248 308 1249 0
1249 320 -1250 0
-1249 -320 -1250 0
1249 -320 1250 0
-1249 320 1250 0
-1250 0
119 120 -1251 0
-119 -120 -1251 0
119 -120 1251 0
-119 120 1251 0
1251 122 -1252 0
-1251 -122 -1252 0
1251 -122 1252 0
-1251 122 1252 0
1252 123 -1253 0
-1252 -123 -1253 0
1252 -123 1253 0
-1252 123 1253 0
1253 291 -1254 0
-1253 -291 -1254 0
1253 -291 1254 0
-1253 291 1254 0
1254 303 -1255 0
-1254 -303 -1255 0
1254 -303 1255 0
-1254 303 1255 0
1255 309 -1256 0
-1255 -309 -1256 0
1255 -309 1256 0
-1255 309 1256 0
1256 321 -1257 0
-1256 -321 -1257 0
1256 -321 1257 0
-1256 321 1257 0
-1257 0
120 121 -1258 0
-120 -121 -1258 0
120 -121 1258 0
-120 121 1258 0
1258 123 -1259 0
-1258 -123 -1259 0
1258 -123 1259 0
-1258 123 1259 0
1259 124 -1260 0
-1259 -124 -1260 0
1259 -124 1260 0
-1259 124 1260 0
1260 292 -1261 0
-1260 -292 -1261 0
1260 -292 1261 0
-1260 292 1261 0
1261 304 -1262 0
-1261 -304 -1262 0
1261 -304 1262 0
-1261 304 1262 0
1262 310 -1263 0
-1262 -310 -1263 0
1262 -310 1263 0
-1262 310 1263 0
1263 322 -1264 0
-1263 -322 -1264 0
1263 -322 1264 0
-1263 322 1264 0
-1264 0
121 122 -1265 0
-121 -122 -1265 0
121 -122 1265 0
-121 122 1265 0
1265 124 -1266 0
-1265 -124 -1266 0
1265 -124 1266 0
-1265 124 1266 0
1266 125 -1267 0
-1266 -125 -1267 0
1266 -125 1267 0
-1266 125 1267 0
1267 293 -1268 0
-1267 -293 -1268 0
1267 -293 1268 0
-1267 293 1268 0
1268 305 -1269 0
-1268 -305 -1269 0
1268 -305 1269 0
-1268 305 1269 0
1269 311 -1270 0
-1269 -311 -1270 0
1269 -311 1270 0
-1269 311 1270 0
1270 323 -1271 0
-1270 -323 -1271 0
1270 -323 1271 0
-1270 323 1271 0
-1271 0
122 123 -1272 0
-122 -123 -1272 0
122 -123 1272 0
-122 123 1272 0
1272 125 -1273 0
-1272 -125 -1273 0
1272 -125 1273 0
-1272 125 1273 0
1273 126 -1274 0
-1273 -126 -1274 0
1273 -126 1274 0
-1273 126 1274 0
1274 294 -1275 0
-1274 -294 -1275 0
1274 -294 1275 0
-1274 294 1275 0
1275 306 -1276 0
-1275 -306 -1276 0
1275 -306 1276 0
-1275 306 1276 0
1276 312 -1277 0
-1276 -312 -1277 0
1276 -312 1277 0
-1276 312 1277 0
1277 324 -1278 0
-1277 -324 -1278 0
1277 -324 1278 0
-1277 324 1278 0
-1278 0
123 124 -1279 0
-123 -124 -1279 0
123 -124 1279 0
-123 124 1279 0
1279 126 -1280 0
-1279 -126 -1280 0
1279 -126 1280 0
-1279 126 1280 0
1280 127 -1281 0
-1280 -127 -1281 0
1280 -127 1281 0
-1280 127 1281 0
1281 295 -1282 0
-1281 -295 -1282 0
1281 -295 1282 0
-1281 295 1282 0
1282 307 -1283 0
-1282 -307 -1283 0
1282 -307 1283 0
-1282 307 1283 0
1283 313 -1284 0
-1283 -313 -1284 0
1283 -313 1284 0
-1283 313 1284 0
1284 325 -1285 0
-1284 -325 -1285 0
1284 -325 1285 0
-1284 325 1285 0
-1285 0
124 125 -1286 0
-124 -125 -1286 0
124 -125 1286 0
-124 125 1286 0
1286 127 -1287 0
-1286 -127 -1287 0
1286 -127 1287 0
-1286 127 1287 0
1287 128 -1288 0
-1287 -128 -1288 0
1287 -128 1288 0
-1287 128 1288 0
1288 296 -1289 0
-1288 -296 -1289 0
1288 -296 1289 0
-1288 296 1289 0
1289 308 -1290 0
-1289 -308 -1290 0
1289 -308 1290 0
-1289 308 1290 0
1290 314 -1291 0
-1290 -314 -1291 0
1290 -314 1291 0
-1290 314 1291 0
1291 326 -1292 0
-1291 -326 -1292 0
1291 -326 1292 0
-1291 326 1292 0
-1292 0
125 126 -1293 0
-125 -126 -1293 0
125 -126 1293 0
-125 126 1293 0
1293 128 -1294 0
-1293 -128 -1294 0
1293 -128 1294 0
-1293 128 1294 0
1294 129 -1295 0
-1294 -129 -1295 0
1294 -129 1295 0
-1294 129 1295 0
1295 297 -1296 0
-1295 -297 -1296 0
1295 -297 1296 0
-1295 297 1296 0
1296 309 -1297 0
-1296 -309 -1297 0
1296 -309 1297 0
-1296 309 1297 0
1297 315 -1298 0
-1297 -315 -1298 0
1297 -315 1298 0
-1297 315 1298 0
1298 327 -1299 0
-1298 -327 -1299 0
1298 -327 1299 0
-1298 327 1299 0
-1299 0
126 127 -1300 0
-126 -127 -1300 0
126 -127 1300 0
-126 127 1300 0
1300 129 -1301 0
-1300 -129 -1301 0
1300 -129 1301 0
-1300 129 1301 0
1301 130 -1302 0
-1301 -130 -1302 0
1301 -130 1302 0
-1301 130 1302 0
1302 298 -1303 0
-1302 -298 -1303 0
1302 -298 1303 0
-1302 298 1303 0
1303 310 -1304 0
-1303 -310 -1304 0
1303 -310 1304 0
-1303 310 1304 0
1304 316 -1305 0
-1304 -316 -1305 0
1304 -316 1305 0
-1304 316 1305 0
1305 328 -1306 0
-1305 -328 -1306 0
1305 -328 1306 0
-1305 328 1306 0
-1306 0
127 128 -1307 0
-127 -128 -1307 0
127 -128 1307 0
-127 128 1307 0
1307 130 -1308 0
-1307 -130 -1308 0
1307 -130 1308 0
-1307 130 1308 0
1308 131 -1309 0
-1308 -131 -1309 0
1308 -131 1309 0
-1308 131 1309 0
1309 299 -1310 0
-1309 -299 -1310 0
1309 -299 1310 0
-1309 299 1310 0
1310 311 -1311 0
-1310 -311 -1311 0
1310 -311 1311 0
-1310 311 1311 0
1311 317 -1312 0
-1311 -317 -1312 0
1311 -317 1312 0
-1311 317 1312 0
1312 329 -1313 0
-1312 -329 -1313 0
1312 -329 1313 0
-1312 329 1313 0
-1313 0
128 129 -1314 0
-128 -129 -1314 0
128 -129 1314 0
-128 129 1314 0
1314 131 -1315 0
-1314 -131 -1315 0
1314 -131 1315 0
-1314 131 1315 0
1315 132 -1316 0
-1315 -132 -1316 0
1315 -132 1316 0
-1315 132 1316 0
1316 300 -1317 0
-1316 -300 -1317 0
1316 -300 1317 0
-1316 300 1317 0
1317 312 -1318 0
-1317 -312 -1318 0
1317 -312 1318 0
-1317 312 1318 0
1318 318 -1319 0
-1318 -318 -1319 0
1318 -318 1319 0
-1318 318 1319 0
1319 330 -1320 0
-1319 -330 -1320 0
1319 -330 1320 0
-1319 330 1320 0
-1320 0
129 130 -1321 0
-129 -130 -1321 0
129 -130 1321 0
-129 130 1321 0
1321 132 -1322 0
-1321 -132 -1322 0
1321 -132 1322 0
-1321 132 1322 0
1322 133 -1323 0
-1322 -133 -1323 0
1322 -133 1323 0
-1322 133 1323 0
1323 301 -1324 0
-1323 -301 -1324 0
1323 -301 1324 0
-1323 301 1324 0
1324 313 -1325 0
-1324 -313 -1325 0
1324 -313 1325 0
-1324 313 1325 0
1325 319 -1326 0
-1325 -319 -1326 0
1325 -319 1326 0
-1325 319 1326 0
1326 331 -1327 0
-1326 -331 -1327 0
1326 -331 1327 0
-1326 331 1327 0
-1327 0
130 131 -1328 0
-130 -131 -1328 0
130 -131 1328 0
-130 131 1328 0
1328 133 -1329 0
-1328 -133 -1329 0
1328 -133 1329 0
-1328 133 1329 0
1329 134 -1330 0
-1329 -134 -1330 0
1329 -134 1330 0
-1329 134 1330 0
1330 302 -1331 0
-1330 -302 -1331 0
1330 -302 1331 0
-1330 302 1331 0
1331 314 -1332 0
-1331 -314 -1332 0
1331 -314 1332 0
-1331 314 1332 0
1332 320 -1333 0
-1332 -320 -1333 0
1332 -320 1333 0
-1332 320 1333 0
1333 332 -1334 0
-1333 -332 -1334 0
1333 -332 1334 0
-1333 332 1334 0
-1334 0
131 132 -1335 0
-131 -132 -1335 0
131 -132 1335 0
-131 132 1335 0
1335 134 -1336 0
-1335 -134 -1336 0
1335 -134 1336 0
-1335 134 1336 0
1336 135 -1337 0
-1336 -135 -1337 0
1336 -135 1337 0
-1336 135 1337 0
1337 303 -1338 0
-1337 -303 -1338 0
1337 -303 1338 0
-1337 303 1338 0
1338 315 -1339 0
-1338 -315 -1339 0
1338 -315 1339 0
-1338 315 1339 0
1339 321 -1340 0
-1339 -321 -1340 0
1339 -321 1340 0
-1339 321 1340 0
1340 333 -1341 0
-1340 -333 -1341 0
1340 -333 1341 0
-1340 333 1341 0
-1341 0
132 133 -1342 0
-132 -133 -1342 0
132 -133 1342 0
-132 133 1342 0
1342 135 -1343 0
-1342 -135 -1343 0
1342 -135 1343 0
-1342 135 1343 0
1343 136 -1344 0
-1343 -136 -1344 0
1343 -136 1344 0
-1343 136 1344 0
1344 304 -1345 0
-1344 -304 -1345 0
1344 -304 1345 0
-1344 304 1345 0
1345 316 -1346 0
-1345 -316 -1346 0
1345 -316 1346 0
-1345 316 1346 0
1346 322 -1347 0
-1346 -322 -1347 0
1346 -322 1347 0
-1346 322 1347 0
1347 334 -1348 0
-1347 -334 -1348 0
1347 -334 1348 0
-1347 334 1348 0
-1348 0
133 134 -1349 0
-133 -134 -1349 0
133 -134 1349 0
-133 134 1349 0
1349 136 -1350 0
-1349 -136 -1350 0
1349 -136 1350 0
-1349 136 1350 0
1350 137 -1351 0
-1350 -137 -1351 0
1350 -137 1351 0
-1350 137 1351 0
1351 305 -1352 0
-1351 -305 -1352 0
1351 -305 1352 0
-1351 305 1352 0
1352 317 -1353 0
-1352 -317 -1353 0
1352 -317 1353 0
-1352 317 1353 0
1353 323 -1354 0
-1353 -323 -1354 0
1353 -323 1354 0
-1353 323 1354 0
1354 335 -1355 0
-1354 -335 -1355 0
1354 -335 1355 0
-1354 335 1355 0
-1355 0
134 135 -1356 0
-134 -135 -1356 0
134 -135 1356 0
-134 135 1356 0
1356 137 -1357 0
-1356 -137 -1357 0
1356 -137 1357 0
-1356 137 1357 0
1357 138 -1358 0
-1357 -138 -1358 0
1357 -138 1358 0
-1357 138 1358 0
1358 306 -1359 0
-1358 -306 -1359 0
1358 -306 1359 0
-1358 306 1359 0
1359 318 -1360 0
-1359 -318 -1360 0
1359 -318 1360 0
-1359 318 1360 0
1360 324 -1361 0
-1360 -324 -1361 0
1360 -324 1361 0
-1360 324 1361 0
1361 336 -1362 0
-1361 -336 -1362 0
1361 -336 1362 0
-1361 336 1362 0
-1362 0
135 136 -1363 0
-135 -136 -1363 0
135 -136 1363 0
-135 136 1363 0
1363 138 -1364 0
-1363 -138 -1364 0
1363 -138 1364 0
-1363 138 1364 0
1364 139 -1365 0
-1364 -139 -1365 0
1364 -139 1365 0
-1364 139 1365 0
1365 307 -1366 0
-1365 -307 -1366 0
1365 -307 1366 0
-1365 307 1366 0
1366 319 -1367 0
-1366 -319 -1367 0
1366 -319 1367 0
-1366 319 1367 0
1367 325 -1368 0
-1367 -325 -1368 0
1367 -325 1368 0
-1367 325 1368 0
1368 337 -1369 0
-1368 -337 -1369 0
1368 -337 1369 0
-1368 337 1369 0
-1369 0
136 137 -1370 0
-136 -137 -1370 0
136 -137 1370 0
-136 137 1370 0
1370 139 -1371 0
-1370 -139 -1371 0
1370 -139 1371 0
-1370 139 1371 0
1371 140 -1372 0
-1371 -140 -1372 0
1371 -140 1372 0
-1371 140 1372 0
1372 308 -1373 0
-1372 -308 -1373 0
1372 -308 1373 0
-1372 308 1373 0
1373 320 -1374 0
-1373 -320 -1374 0
1373 -320 1374 0
-1373 320 1374 0
1374 326 -1375 0
-1374 -326 -1375 0
1374 -326 1375 0
-1374 326 1375 0
1375 338 -1376 0
-1375 -338 -1376 0
1375 -338 1376 0
-1375 338 1376 0
-1376 0
137 138 -1377 0
-137 -138 -1377 0
137 -138 1377 0
-137 138 1377 0
1377 140 -1378 0
-1377 -140 -1378 0
1377 -140 1378 0
-1377 140 1378 0
1378 141 -1379 0
-1378 -141 -1379 0
1378 -141 1379 0
-1378 141 1379 0
1379 309 -1380 0
-1379 -309 -1380 0
1379 -309 1380 0
-1379 309 1380 0
1380 321 -1381 0
-1380 -321 -1381 0
1380 -321 1381 0
-1380 321 1381 0
1381 327 -1382 0
-1381 -327 -1382 0
1381 -327 1382 0
-1381 327 1382 0
1382 339 -1383 0
-1382 -339 -1383 0
1382 -339 1383 0
-1382 339 1383 0
-1383 0
138 139 -1384 0
-138 -139 -1384 0
138 -139 1384 0
-138 139 1384 0
1384 141 -1385 0
-1384 -141 -1385 0
1384 -141 1385 0
-1384 141 1385 0
1385 142 -1386 0
-1385 -142 -1386 0
1385 -142 1386 0
-1385 142 1386 0
1386 310 -1387 0
-1386 -310 -1387 0
1386 -310 1387 0
-1386 310 1387 0
1387 322 -1388 0
-1387 -322 -1388 0
1387 -322 1388 0
-1387 322 1388 0
1388 328 -1389 0
-1388 -328 -1389 0
1388 -328 1389 0
-1388 328 1389 0
1389 340 -1390 0
-1389 -340 -1390 0
1389 -340 1390 0
-1389 340 1390 0
-1390 0
139 140 -1391 0
-139 -140 -1391 0
139 -140 1391 0
-139 140 1391 0
1391 142 -1392 0
-1391 -142 -1392 0
1391 -142 1392 0
-1391 142 1392 0
1392 143 -1393 0
-1392 -143 -1393 0
1392 -143 1393 0
-1392 143 1393 0
1393 311 -1394 0
-1393 -311 -1394 0
1393 -311 1394 0
-1393 311 1394 0
1394 323 -1395 0
-1394 -323 -1395 0
1394 -323 1395 0
-1394 323 1395 0
1395 329 -1396 0
-1395 -329 -1396 0
1395 -329 1396 0
-1395 329 1396 0
1396 341 -1397 0
-1396 -341 -1397 0
1396 -341 1397 0
-1396 341 1397 0
-1397 0
140 141 -1398 0
-140 -141 -1398 0
140 -141 1398 0
-140 141 1398 0
1398 143 -1399 0
-1398 -143 -1399 0
1398 -143 1399 0
-1398 143 1399 0
1399 144 -1400 0
-1399 -144 -1400 0
1399 -144 1400 0
-1399 144 1400 0
1400 312 -1401 0
-1400 -312 -1401 0
1400 -312 1401 0
-1400 312 1401 0
1401 324 -1402 0
-1401 -324 -1402 0
1401 -324 1402 0
-1401 324 1402 0
1402 330 -1403 0
-1402 -330 -1403 0
1402 -330 1403 0
-1402 330 1403 0
1403 342 -1404 0
-1403 -342 -1404 0
1403 -342 1404 0
-1403 342 1404 0
-1404 0
141 142 -1405 0
-141 -142 -1405 0
141 -142 1405 0
-141 142 1405 0
1405 144 -1406 0
-1405 -144 -1406 0
1405 -144 1406 0
-1405 144 1406 0
1406 145 -1407 0
-1406 -145 -1407 0
1406 -145 1407 0
-1406 145 1407 0
1407 313 -1408 0
-1407 -313 -1408 0
1407 -313 1408 0
-1407 313 1408 0
1408 325 -1409 0
-1408 -325 -1409 0
1408 -325 1409 0
-1408 325 1409 0
1409 331 -1410 0
-1409 -331 -1410 0
1409 -331 1410 0
-1409 331 1410 0
1410 343 -1411 0
-1410 -343 -1411 0
1410 -343 1411 0
-1410 343 1411 0
-1411 0
142 143 -1412 0
-142 -143 -1412 0
142 -143 1412 0
-142 143 1412 0
1412 145 -1413 0
-1412 -145 -1413 0
1412 -145 1413 0
-1412 145 1413 0
1413 146 -1414 0
-1413 -146 -1414 0
1413 -146 1414 0
-1413 146 1414 0
1414 314 -1415 0
-1414 -314 -1415 0
1414 -314 1415 0
-1414 314 1415 0
1415 326 -1416 0
-1415 -326 -1416 0
1415 -326 1416 0
-1415 326 1416 0
1416 332 -1417 0
-1416 -332 -1417 0
1416 -332 1417 0
-1416 332 1417 0
1417 344 -1418 0
-1417 -344 -1418 0
1417 -344 1418 0
-1417 344 1418 0
-1418 0
143 144 -1419 0
-143 -144 -1419 0
143 -144 1419 0
-143 144 1419 0
1419 146 -1420 0
-1419 -146 -1420 0
1419 -146 1420 0
-1419 146 1420 0
1420 147 -1421 0
-1420 -147 -1421 0
1420 -147 1421 0
-1420 147 1421 0
1421 315 -1422 0
-1421 -315 -1422 0
1421 -315 1422 0
-1421 315 1422 0
1422 327 -1423 0
-1422 -327 -1423 0
1422 -327 1423 0
-1422 327 1423 0
1423 333 -1424 0
-1423 -333 -1424 0
1423 -333 1424 0
-1423 333 1424 0
1424 345 -1425 0
-1424 -345 -1425 0
1424 -345 1425 0
-1424 345 1425 0
-1425 0
144 145 -1426 0
-144 -145 -1426 0
144 -145 1426 0
-144 145 1426 0
1426 147 -1427 0
-1426 -147 -1427 0
1426 -147 1427 0
-1426 147 1427 0
1427 148 -1428 0
-1427 -148 -1428 0
1427 -148 1428 0
-1427 148 1428 0
1428 316 -1429 0
-1428 -316 -1429 0
1428 -316 1429 0
-1428 316 1429 0
1429 328 -1430 0
-1429 -328 -1430 0
1429 -328 1430 0
-1429 328 1430 0
1430 334 -1431 0
-1430 -334 -1431 0
1430 -334 1431 0
-1430 334 1431 0
1431 346 -1432 0
-1431 -346 -1432 0
1431 -346 1432 0
-1431 346 1432 0
-1432 0
145 146 -1433 0
-145 -146 -1433 0
145 -146 1433 0
-145 146 1433 0
1433 148 -1434 0
-1433 -148 -1434 0
1433 -148 1434 0
-1433 148 1434 0
1434 149 -1435 0
-1434 -149 -1435 0
1434 -149 1435 0
-1434 149 1435 0
1435 317 -1436 0
-1435 -317 -1436 0
1435 -317 1436 0
-1435 317 1436 0
1436 329 -1437 0
-1436 -329 -1437 0
1436 -329 1437 0
-1436 329 1437 0
1437 335 -1438 0
-1437 -335 -1438 0
1437 -335 1438 0
-1437 335 1438 0
1438 347 -1439 0
-1438 -347 -1439 0
1438 -347 1439 0
-1438 347 1439 0
-1439 0
146 147 -1440 0
-146 -147 -1440 0
146 -147 1440 0
-146 147 1440 0
1440 149 -1441 0
-1440 -149 -1441 0
1440 -149 1441 0
-1440 149 1441 0
1441 150 -1442 0
-1441 -150 -1442 0
1441 -150 1442 0
-1441 150 1442 0
1442 318 -1443 0
-1442 -318 -1443 0
1442 -318 1443 0
-1442 318 1443 0
1443 330 -1444 0
-1443 -330 -1444 0
1443 -330 1444 0
-1443 330 1444 0
1444 336 -1445 0
-1444 -336 -1445 0
1444 -336 1445 0
-1444 336 1445 0
1445 348 -1446 0
-1445 -348 -1446 0
1445 -348 1446 0
-1445 348 1446 0
-1446 0
147 148 -1447 0
-147 -148 -1447 0
147 -148 1447 0
-147 148 1447 0
1447 150 -1448 0
-1447 -150 -1448 0
1447 -150 1448 0
-1447 150 1448 0
1448 151 -1449 0
-1448 -151 -1449 0
1448 -151 1449 0
-1448 151 1449 0
1449 319 -1450 0
-1449 -319 -1450 0
1449 -319 1450 0
-1449 319 1450 0
1450 331 -1451 0
-1450 -331 -1451 0
1450 -331 1451 0
-1450 331 1451 0
1451 337 -1452 0
-1451 -337 -1452 0
1451 -337 1452 0
-1451 337 1452 0
1452 349 -1453 0
-1452 -349 -1453 0
1452 -349 1453 0
-1452 349 1453 0
-1453 0
148 149 -1454 0
-148 -149 -1454 0
148 -149 1454 0
-148 149 1454 0
1454 151 -1455 0
-1454 -151 -1455 0
1454 -151 1455 0
-1454 151 1455 0
1455 152 -1456 0
-1455 -152 -1456 0
1455 -152 1456 0
-1455 152 1456 0
1456 320 -1457 0
-1456 -320 -1457 0
1456 -320 1457 0
-1456 320 1457 0
1457 332 -1458 0
-1457 -332 -1458 0
1457 -332 1458 0
-1457 332 1458 0
1458 338 -1459 0
-1458 -338 -1459 0
1458 -338 1459 0
-1458 338 1459 0
1459 350 -1460 0
-1459 -350 -1460 0
1459 -350 1460 0
-1459 350 1460 0
-1460 0
149 150 -1461 0
-149 -150 -1461 0
149 -150 1461 0
-149 150 1461 0
1461 152 -1462 0
-1461 -152 -1462 0
1461 -152 1462 0
-1461 152 1462 0
1462 153 -1463 0
-1462 -153 -1463 0
1462 -153 1463 0
-1462 153 1463 0
1463 321 -1464 0
-1463 -321 -1464 0
1463 -321 1464 0
-1463 321 1464 0
1464 333 -1465 0
-1464 -333 -1465 0
1464 -333 1465 0
-1464 333 1465 0
1465 339 -1466 0
-1465 -339 -1466 0
1465 -339 1466 0
-1465 339 1466 0
1466 351 -1467 0
-1466 -351 -1467 0
1466 -351 1467 0
-1466 351 1467 0
-1467 0
150 151 -1468 0
-150 -151 -1468 0
150 -151 1468 0
-150 151 1468 0
1468 153 -1469 0
-1468 -153 -1469 0
1468 -153 1469 0
-1468 153 1469 0
1469 154 -1470 0
-1469 -154 -1470 0
1469 -154 1470 0
-1469 154 1470 0
1470 322 -1471 0
-1470 -322 -1471 0
1470 -322 1471 0
-1470 322 1471 0
1471 334 -1472 0
-1471 -334 -1472 0
1471 -334 1472 0
-1471 334 1472 0
1472 340 -1473 0
-1472 -340 -1473 0
1472 -340 1473 0
-1472 340 1473 0
1473 352 -1474 0
-1473 -352 -1474 0
1473 -352 1474 0
-1473 352 1474 0
-1474 0
151 152 -1475 0
-151 -152 -1475 0
151 -152 1475 0
-151 152 1475 0
1475 154 -1476 0
-1475 -154 -1476 0
1475 -154 1476 0
-1475 154 1476 0
1476 155 -1477 0
-1476 -155 -1477 0
1476 -155 1477 0
-1476 155 1477 0
1477 323 -1478 0
-1477 -323 -1478 0
1477 -323 1478 0
-1477 323 1478 0
1478 335 -1479 0
-1478 -335 -1479 0
1478 -335 1479 0
-1478 335 1479 0
1479 341 -1480 0
-1479 -341 -1480 0
1479 -341 1480 0
-1479 341 1480 0
1480 353 -1481 0
-1480 -353 -1481 0
1480 -353 1481 0
-1480 353 1481 0
-1481 0
152 153 -1482 0
-152 -153 -1482 0
152 -153 1482 0
-152 153 1482 0
1482 155 -1483 0
-1482 -155 -1483 0
1482 -155 1483 0
-1482 155 1483 0
1483 156 -1484 0
-1483 -156 -1484 0
1483 -156 1484 0
-1483 156 1484 0
1484 324 -1485 0
-1484 -324 -1485 0
1484 -324 1485 0
-1484 324 1485 0
1485 336 -1486 0
-1485 -336 -1486 0
1485 -336 1486 0
-1485 336 1486 0
1486 342 -1487 0
-1486 -342 -1487 0
1486 -342 1487 0
-1486 342 1487 0
1487 354 -1488 0
-1487 -354 -1488 0
1487 -354 1488 0
-1487 354 1488 0
-1488 0
153 154 -1489 0
-153 -154 -1489 0
153 -154 1489 0
-153 154 1489 0
1489 156 -1490 0
-1489 -156 -1490 0
1489 -156 1490 0
-1489 156 1490 0
1490 157 -1491 0
-1490 -157 -1491 0
1490 -157 1491 0
-1490 157 1491 0
1491 325 -1492 0
-1491 -325 -1492 0
1491 -325 1492 0
-1491 325 1492 0
1492 337 -1493 0
-1492 -337 -1493 0
1492 -337 1493 0
-1492 337 1493 0
1493 343 -1494 0
-1493 -343 -1494 0
1493 -343 1494 0
-1493 343 1494 0
1494 355 -1495 0
-1494 -355 -1495 0
1494 -355 1495 0
-1494 355 1495 0
-1495 0
154 155 -1496 0
-154 -155 -1496 0
154 -155 1496 0
-154 155 1496 0
1496 157 -1497 0
-1496 -157 -1497 0
1496 -157 1497 0
-1496 157 1497 0
1497 158 -1498 0
-1497 -158 -1498 0
1497 -158 1498 0
-1497 158 1498 0
1498 326 -1499 0
-1498 -326 -1499 0
1498 -326 1499 0
-1498 326 1499 0
1499 338 -1500 0
-1499 -338 -1500 0
1499 -338 1500 0
-1499 338 1500 0
1500 344 -1501 0
-1500 -344 -1501 0
1500 -344 1501 0
-1500 344 1501 0
1501 356 -1502 0
-1501 -356 -1502 0
1501 -356 1502 0
-1501 356 1502 0
-1502 0
155 156 -1503 0
-155 -156 -1503 0
155 -156 1503 0
-155 156 1503 0
1503 158 -1504 0
-1503 -158 -1504 0
1503 -158 1504 0
-1503 158 1504 0
1504 159 -1505 0
-1504 -159 -1505 0
1504 -159 1505 0
-1504 159 1505 0
1505 327 -1506 0
-1505 -327 -1506 0
1505 -327 1506 0
-1505 327 1506 0
1506 339 -1507 0
-1506 -339 -1507 0
1506 -339 1507 0
-1506 339 1507 0
1507 345 -1508 0
-1507 -345 -1508 0
1507 -345 1508 0
-1507 345 1508 0
1508 357 -1509 0
-1508 -357 -1509 0
1508 -357 1509 0
-1508 357 1509 0
-1509 0
156 157 -1510 0
-156 -157 -1510 0
156 -157 1510 0
-156 157 1510 0
1510 159 -1511 0
-1510 -159 -1511 0
1510 -159 1511 0
-1510 159 1511 0
1511 160 -1512 0
-1511 -160 -1512 0
1511 -160 1512 0
-1511 160 1512 0
1512 328 -1513 0
-1512 -328 -1513 0
1512 -328 1513 0
-1512 328 1513 0
1513 340 -1514 0
-1513 -340 -1514 0
1513 -340 1514 0
-1513 340 1514 0
1514 346 -1515 0
-1514 -346 -1515 0
1514 -346 1515 0
-1514 346 1515 0
1515 358 -1516 0
-1515 -358 -1516 0
1515 -358 1516 0
-1515 358 1516 0
-1516 0
157 158 -1517 0
-157 -158 -1517 0
157 -158 1517 0
-157 158 1517 0
1517 160 -1518 0
-1517 -160 -1518 0
1517 -160 1518 0
-1517 160 1518 0
1518 161 -1519 0
-1518 -161 -1519 0
1518 -161 1519 0
-1518 161 1519 0
1519 329 -1520 0
-1519 -329 -1520 0
1519 -329 1520 0
-1519 329 1520 0
1520 341 -1521 0
-1520 -341 -1521 0
1520 -341 1521 0
-1520 341 1521 0
1521 347 -1522 0
-1521 -347 -1522 0
1521 -347 1522 0
-1521 347 1522 0
1522 359 -1523 0
-1522 -359 -1523 0
1522 -359 1523 0
-1522 359 1523 0
-1523 0
158 159 -1524 0
-158 -159 -1524 0
158 -159 1524 0
-158 159 1524 0
1524 161 -1525 0
-1524 -161 -1525 0
1524 -161 1525 0
-1524 161 1525 0
1525 162 -1526 0
-1525 -162 -1526 0
1525 -162 1526 0
-1525 162 1526 0
1526 330 -1527 0
-1526 -330 -1527 0
1526 -330 1527 0
-1526 330 1527 0
1527 342 -1528 0
-1527 -342 -1528 0
1527 -342 1528 0
-1527 342 1528 0
1528 348 -1529 0
-1528 -348 -1529 0
1528 -348 1529 0
-1528 348 1529 0
1529 360 -1530 0
-1529 -360 -1530 0
1529 -360 1530 0
-1529 360 1530 0
-1530 0
159 160 -1531 0
-159 -160 -1531 0
159 -160 1531 0
-159 160 1531 0
1531 162 -1532 0
-1531 -162 -1532 0
1531 -162 1532 0
-1531 162 1532 0
1532 163 -1533 0
-1532 -163 -1533 0
1532 -163 1533 0
-1532 163 1533 0
1533 331 -1534 0
-1533 -331 -1534 0
1533 -331 1534 0
-1533 331 1534 0
1534 343 -1535 0
-1534 -343 -1535 0
1534 -343 1535 0
-1534 343 1535 0
1535 349 -1536 0
-1535 -349 -1536 0
1535 -349 1536 0
-1535 349 1536 0
1536 361 -1537 0
-1536 -361 -1537 0
1536 -361 1537 0
-1536 361 1537 0
-1537 0
160 161 -1538 0
-160 -161 -1538 0
160 -161 1538 0
-160 161 1538 0
1538 163 -1539 0
-1538 -163 -1539 0
1538 -163 1539 0
-1538 163 1539 0
1539 164 -1540 0
-1539 -164 -1540 0
1539 -164 1540 0
-1539 164 1540 0
1540 332 -1541 0
-1540 -332 -1541 0
1540 -332 1541 0
-1540 332 1541 0
1541 344 -1542 0
-1541 -344 -1542 0
1541 -344 1542 0
-1541 344 1542 0
1542 350 -1543 0
-1542 -350 -1543 0
1542 -350 1543 0
-1542 350 1543 0
1543 362 -1544 0
-1543 -362 -1544 0
1543 -362 1544 0
-1543 362 1544 0
-1544 0
161 162 -1545 0
-161 -162 -1545 0
161 -162 1545 0
-161 162 1545 0
1545 164 -1546 0
-1545 -164 -1546 0
1545 -164 1546 0
-1545 164 1546 0
1546 165 -1547 0
-1546 -165 -1547 0
1546 -165 1547 0
-1546 165 1547 0
1547 333 -1548 0
-1547 -333 -1548 0
1547 -333 1548 0
-1547 333 1548 0
1548 345 -1549 0
-1548 -345 -1549 0
1548 -345 1549 0
-1548 345 1549 0
1549 351 -1550 0
-1549 -351 -1550 0
1549 -351 1550 0
-1549 351 1550 0
1550 363 -1551 0
-1550 -363 -1551 0
1550 -363 1551 0
-1550 363 1551 0
-1551 0
162 163 -1552 0
-162 -163 -1552 0
162 -163 1552 0
-162 163 1552 0
1552 165 -1553 0
-1552 -165 -1553 0
1552 -165 1553 0
-1552 165 1553 0
1553 166 -1554 0
-1553 -166 -1554 0
1553 -166 1554 0
-1553 166 1554 0
1554 334 -1555 0
-1554 -334 -1555 0
1554 -334 1555 0
-1554 334 1555 0
1555 346 -1556 0
-1555 -346 -1556 0
1555 -346 1556 0
-1555 346 1556 0
1556 352 -1557 0
-1556 -352 -1557 0
1556 -352 1557 0
-1556 352 1557 0
1557 364 -1558 0
-1557 -364 -1558 0
1557 -364 1558 0
-1557 364 1558 0
-1558 0
163 164 -1559 0
-163 -164 -1559 0
163 -164 1559 0
-163 164 1559 0
1559 166 -1560 0
-1559 -166 -1560 0
1559 -166 1560 0
-1559 166 1560 0
1560 167 -1561 0
-1560 -167 -1561 0
1560 -167 1561 0
-1560 167 1561 0
1561 335 -1562 0
-1561 -335 -1562 0
1561 -335 1562 0
-1561 335 1562 0
1562 347 -1563 0
-1562 -347 -1563 0
1562 -347 1563 0
-1562 347 1563 0
1563 353 -1564 0
-1563 -353 -1564 0
1563 -353 1564 0
-1563 353 1564 0
1564 365 -1565 0
-1564 -365 -1565 0
1564 -365 1565 0
-1564 365 1565 0
-1565 0
164 165 -1566 0
-164 -165 -1566 0
164 -165 1566 0
-164 165 1566 0
1566 167 -1567 0
-1566 -167 -1567 0
1566 -167 1567 0
-1566 167 1567 0
1567 168 -1568 0
-1567 -168 -1568 0
1567 -168 1568 0
-1567 168 1568 0
1568 336 -1569 0
-1568 -336 -1569 0
1568 -336 1569 0
-1568 336 1569 0
1569 348 -1570 0
-1569 -348 -1570 0
1569 -348 1570 0
-1569 348 1570 0
1570 354 -1571 0
-1570 -354 -1571 0
1570 -354 1571 0
-1570 354 1571 0
1571 366 -1572 0
-1571 -366 -1572 0
1571 -366 1572 0
-1571 366 1572 0
-1572 0
165 166 -1573 0
-165 -166 -1573 0
165 -166 1573 0
-165 166 1573 0
1573 168 -1574 0
-1573 -168 -1574 0
1573 -168 1574 0
-1573 168 1574 0
1574 169 -1575 0
-1574 -169 -1575 0
1574 -169 1575 0
-1574 169 1575 0
1575 337 -1576 0
-1575 -337 -1576 0
1575 -337 1576 0
-1575 337 1576 0
1576 349 -1577 0
-1576 -349 -1577 0
1576 -349 1577 0
-1576 349 1577 0
1577 355 -1578 0
-1577 -355 -1578 0
1577 -355 1578 0
-1577 355 1578 0
1578 367 -1579 0
-1578 -367 -1579 0
1578 -367 1579 0
-1578 367 1579 0
-1579 0
166 167 -1580 0
-166 -167 -1580 0
166 -167 1580 0
-166 167 1580 0
1580 169 -1581 0
-1580 -169 -1581 0
1580 -169 1581 0
-1580 169 1581 0
1581 170 -1582 0
-1581 -170 -1582 0
1581 -170 1582 0
-1581 170 1582 0
1582 338 -1583 0
-1582 -338 -1583 0
1582 -338 1583 0
-1582 338 1583 0
1583 350 -1584 0
-1583 -350 -1584 0
1583 -350 1584 0
-1583 350 1584 0
1584 356 -1585 0
-1584 -356 -1585 0
1584 -356 1585 0
-1584 356 1585 0
1585 368 -1586 0
-1585 -368 -1586 0
1585 -368 1586 0
-1585 368 1586 0
-1586 0
167 168 -1587 0
-167 -168 -1587 0
167 -168 1587 0
-167 168 1587 0
1587 170 -1588 0
-1587 -170 -1588 0
1587 -170 1588 0
-1587 170 1588 0
1588 171 -1589 0
-1588 -171 -1589 0
1588 -171 1589 0
-1588 171 1589 0
1589 339 -1590 0
-1589 -339 -1590 0
1589 -339 1590 0
-1589 339 1590 0
1590 351 -1591 0
-1590 -351 -1591 0
1590 -351 1591 0
-1590 351 1591 0
1591 357 -1592 0
-1591 -357 -1592 0
1591 -357 1592 0
-1591 357 1592 0
1592 369 -1593 0
-1592 -369 -1593 0
1592 -369 1593 0
-1592 369 1593 0
-1593 0
168 169 -1594 0
-168 -169 -1594 0
168 -169 1594 0
-168 169 1594 0
1594 171 -1595 0
-1594 -171 -1595 0
1594 -171 1595 0
-1594 171 1595 0
1595 172 -1596 0
-1595 -172 -1596 0
1595 -172 1596 0
-1595 172 1596 0
1596 340 -1597 0
-1596 -340 -1597 0
1596 -340 1597 0
-1596 340 1597 0
1597 352 -1598 0
-1597 -352 -1598 0
1597 -352 1598 0
-1597 352 1598 0
1598 358 -1599 0
-1598 -358 -1599 0
1598 -358 1599 0
-1598 358 1599 0
1599 370 -1600 0
-1599 -370 -1600 0
1599 -370 1600 0
-1599 370 1600 0
-1600 0
169 170 -1601 0
-169 -170 -1601 0
169 -170 1601 0
-169 170 1601 0
1601 172 -1602 0
-1601 -172 -1602 0
1601 -172 1602 0
-1601 172 1602 0
1602 173 -1603 0
-1602 -173 -1603 0
1602 -173 1603 0
-1602 173 1603 0
1603 341 -1604 0
-1603 -341 -1604 0
1603 -341 1604 0
-1603 341 1604 0
1604 353 -1605 0
-1604 -353 -1605 0
1604 -353 1605 0
-1604 353 1605 0
1605 359 -1606 0
-1605 -359 -1606 0
1605 -359 1606 0
-1605 359 1606 0
1606 371 -1607 0
-1606 -371 -1607 0
1606 -371 1607 0
-1606 371 1607 0
-1607 0
170 171 -1608 0
-170 -171 -1608 0
170 -171 1608 0
-170 171 1608 0
1608 173 -1609 0
-1608 -173 -1609 0
1608 -173 1609 0
-1608 173 1609 0
1609 174 -1610 0
-1609 -174 -1610 0
1609 -174 1610 0
-1609 174 1610 0
1610 342 -1611 0
-1610 -342 -1611 0
1610 -342 1611 0
-1610 342 1611 0
1611 354 -1612 0
-1611 -354 -1612 0
1611 -354 1612 0
-1611 354 1612 0
1612 360 -1613 0
-1612 -360 -1613 0
1612 -360 1613 0
-1612 360 1613 0
1613 372 -1614 0
-1613 -372 -1614 0
1613 -372 1614 0
-1613 372 1614 0
-1614 0
171 172 -1615 0
-171 -172 -1615 0
171 -172 1615 0
-171 172 1615 0
1615 174 -1616 0
-1615 -174 -1616 0
1615 -174 1616 0
-1615 174 1616 0
1616 175 -1617 0
-1616 -175 -1617 0
1616 -175 1617 0
-1616 175 1617 0
1617 343 -1618 0
-1617 -343 -1618 0
1617 -343 1618 0
-1617 343 1618 0
1618 355 -1619 0
-1618 -355 -1619 0
1618 -355 1619 0
-1618 355 1619 0
1619 361 -1620 0
-1619 -361 -1620 0
1619 -361 1620 0
-1619 361 1620 0
1620 373 -1621 0
-1620 -373 -1621 0
1620 -373 1621 0
-1620 373 1621 0
-1621 0
172 173 -1622 0
-172 -173 -1622 0
172 -173 1622 0
-172 173 1622 0
1622 175 -1623 0
-1622 -175 -1623 0
1622 -175 1623 0
-1622 175 1623 0
1623 176 -1624 0
-1623 -176 -1624 0
1623 -176 1624 0
-1623 176 1624 0
1624 344 -1625 0
-1624 -344 -1625 0
1624 -344 1625 0
-1624 344 1625 0
1625 356 -1626 0
-1625 -356 -1626 0
1625 -356 1626 0
-1625 356 1626 0
1626 362 -1627 0
-1626 -362 -1627 0
1626 -362 1627 0
-1626 362 1627 0
1627 374 -1628 0
-1627 -374 -1628 0
1627 -374 1628 0
-1627 374 1628 0
-1628 0
173 174 -1629 0
-173 -174 -1629 0
173 -174 1629 0
-173 174 1629 0
1629 176 -1630 0
-1629 -176 -1630 0
1629 -176 1630 0
-1629 176 1630 0
1630 177 -1631 0
-1630 -177 -1631 0
1630 -177 1631 0
-1630 177 1631 0
1631 345 -1632 0
-1631 -345 -1632 0
1631 -345 1632 0
-1631 345 1632 0
1632 357 -1633 0
-1632 -357 -1633 0
1632 -357 1633 0
-1632 357 1633 0
1633 363 -1634 0
-1633 -363 -1634 0
1633 -363 1634 0
-1633 363 1634 0
1634 375 -1635 0
-1634 -375 -1635 0
1634 -375 1635 0
-1634 375 1635 0
-1635 0
174 175 -1636 0
-174 -175 -1636 0
174 -175 1636 0
-174 175 1636 0
1636 177 -1637 0
-1636 -177 -1637 0
1636 -177 1637 0
-1636 177 1637 0
1637 178 -1638 0
-1637 -178 -1638 0
1637 -178 1638 0
-1637 178 1638 0
1638 346 -1639 0
-1638 -346 -1639 0
1638 -346 1639 0
-1638 346 1639 0
1639 358 -1640 0
-1639 -358 -1640 0
1639 -358 1640 0
-1639 358 1640 0
1640 364 -1641 0
-1640 -364 -1641 0
1640 -364 1641 0
-1640 364 1641 0
1641 376 -1642 0
-1641 -376 -1642 0
1641 -376 1642 0
-1641 376 1642 0
-1642 0
175 176 -1643 0
-175 -176 -1643 0
175 -176 1643 0
-175 176 1643 0
1643 178 -1644 0
-1643 -178 -1644 0
1643 -178 1644 0
-1643 178 1644 0
1644 179 -1645 0
-1644 -179 -1645 0
1644 -179 1645 0
-1644 179 1645 0
1645 347 -1646 0
-1645 -347 -1646 0
1645 -347 1646 0
-1645 347 1646 0
1646 359 -1647 0
-1646 -359 -1647 0
1646 -359 1647 0
-1646 359 1647 0
1647 365 -1648 0
-1647 -365 -1648 0
1647 -365 1648 0
-1647 365 1648 0
1648 377 -1649 0
-1648 -377 -1649 0
1648 -377 1649 0
-1648 377 1649 0
-1649 0
176 177 -1650 0
-176 -177 -1650 0
176 -177 1650 0
-176 177 1650 0
1650 179 -1651 0
-1650 -179 -1651 0
1650 -179 1651 0
-1650 179 1651 0
1651 180 -1652 0
-1651 -180 -1652 0
1651 -180 1652 0
-1651 180 1652 0
1652 348 -1653 0
-1652 -348 -1653 0
1652 -348 1653 0
-1652 348 1653 0
1653 360 -1654 0
-1653 -360 -1654 0
1653 -360 1654 0
-1653 360 1654 0
1654 366 -1655 0
-1654 -366 -1655 0
1654 -366 1655 0
-1654 366 1655 0
1655 378 -1656 0
-1655 -378 -1656 0
1655 -378 1656 0
-1655 378 1656 0
-1656 0
177 178 -1657 0
-177 -178 -1657 0
177 -178 1657 0
-177 178 1657 0
1657 180 -1658 0
-1657 -180 -1658 0
1657 -180 1658 0
-1657 180 1658 0
1658 181 -1659 0
-1658 -181 -1659 0
1658 -181 1659 0
-1658 181 1659 0
1659 349 -1660 0
-1659 -349 -1660 0
1659 -349 1660 0
-1659 349 1660 0
1660 361 -1661 0
-1660 -361 -1661 0
1660 -361 1661 0
-1660 361 1661 0
1661 367 -1662 0
-1661 -367 -1662 0
1661 -367 1662 0
-1661 367 1662 0
1662 379 -1663 0
-1662 -379 -1663 0
1662 -379 1663 0
-1662 379 1663 0
-1663 0
178 179 -1664 0
-178 -179 -1664 0
178 -179 1664 0
-178 179 1664 0
1664 181 -1665 0
-1664 -181 -1665 0
1664 -181 1665 0
-1664 181 1665 0
1665 182 -1666 0
-1665 -182 -1666 0
1665 -182 1666 0
-1665 182 1666 0
1666 350 -1667 0
-1666 -350 -1667 0
1666 -350 1667 0
-1666 350 1667 0
1667 362 -1668 0
-1667 -362 -1668 0
1667 -362 1668 0
-1667 362 1668 0
1668 368 -1669 0
-1668 -368 -1669 0
1668 -368 1669 0
-1668 368 1669 0
1669 380 -1670 0
-1669 -380 -1670 0
1669 -380 1670 0
-1669 380 1670 0
-1670 0
179 180 -1671 0
-179 -180 -1671 0
179 -180 1671 0
-179 180 1671 0
1671 182 -1672 0
-1671 -182 -1672 0
1671 -182 1672 0
-1671 182 1672 0
1672 183 -1673 0
-1672 -183 -1673 0
1672 -183 1673 0
-1672 183 1673 0
1673 351 -1674 0
-1673 -351 -1674 0
1673 -351 1674 0
-1673 351 1674 0
1674 363 -1675 0
-1674 -363 -1675 0
1674 -363 1675 0
-1674 363 1675 0
1675 369 -1676 0
-1675 -369 -1676 0
1675 -369 1676 0
-1675 369 1676 0
1676 381 -1677 0
-1676 -381 -1677 0
1676 -381 1677 0
-1676 381 1677 0
-1677 0
180 181 -1678 0
-180 -181 -1678 0
180 -181 1678 0
-180 181 1678 0
1678 183 -1679 0
-1678 -183 -1679 0
1678 -183 1679 0
-1678 183 1679 0
1679 184 -1680 0
-1679 -184 -1680 0
1679 -184 1680 0
-1679 184 1680 0
1680 352 -1681 0
-1680 -352 -1681 0
1680 -352 1681 0
-1680 352 1681 0
1681 364 -1682 0
-1681 -364 -1682 0
1681 -364 1682 0
-1681 364 1682 0
1682 370 -1683 0
-1682 -370 -1683 0
1682 -370 1683 0
-1682 370 1683 0
1683 382 -1684 0
-1683 -382 -1684 0
1683 -382 1684 0
-1683 382 1684 0
-1684 0
181 182 -1685 0
-181 -182 -1685 0
181 -182 1685 0
-181 182 1685 0
1685 184 -1686 0
-1685 -184 -1686 0
1685 -184 1686 0
-1685 184 1686 0
1686 185 -1687 0
-1686 -185 -1687 0
1686 -185 1687 0
-1686 185 1687 0
1687 353 -1688 0
-1687 -353 -1688 0
1687 -353 1688 0
-1687 353 1688 0
1688 365 -1689 0
-1688 -365 -1689 0
1688 -365 1689 0
-1688 365 1689 0
1689 371 -1690 0
-1689 -371 -1690 0
1689 -371 1690 0
-1689 371 1690 0
1690 383 -1691 0
-1690 -383 -1691 0
1690 -383 1691 0
-1690 383 1691 0
-1691 0
182 183 -1692 0
-182 -183 -1692 0
182 -183 1692 0
-182 183 1692 0
1692 185 -1693 0
-1692 -185 -1693 0
1692 -185 1693 0
-1692 185 1693 0
1693 186 -1694 0
-1693 -186 -1694 0
1693 -186 1694 0
-1693 186 1694 0
1694 354 -1695 0
-1694 -354 -1695 0
1694 -354 1695 0
-1694 354 1695 0
1695 366 -1696 0
-1695 -366 -1696 0
1695 -366 1696 0
-1695 366 1696 0
1696 372 -1697 0
-1696 -372 -1697 0
1696 -372 1697 0
-1696 372 1697 0
1697 384 -1698 0
-1697 -384 -1698 0
1697 -384 1698 0
-1697 384 1698 0
-1698 0
183 184 -1699 0
-183 -184 -1699 0
183 -184 1699 0
-183 184 1699 0
1699 186 -1700 0
-1699 -186 -1700 0
1699 -186 1700 0
-1699 186 1700 0
1700 187 -1701 0
-1700 -187 -1701 0
1700 -187 1701 0
-1700 187 1701 0
1701 355 -1702 0
-1701 -355 -1702 0
1701 -355 1702 0
-1701 355 1702 0
1702 367 -1703 0
-1702 -367 -1703 0
1702 -367 1703 0
-1702 367 1703 0
1703 373 -1704 0
-1703 -373 -1704 0
1703 -373 1704 0
-1703 373 1704 0
1704 385 -1705 0
-1704 -385 -1705 0
1704 -385 1705 0
-1704 385 1705 0
-1705 0
184 185 -1706 0
-184 -185 -1706 0
184 -185 1706 0
-184 185 1706 0
1706 187 -1707 0
-1706 -187 -1707 0
1706 -187 1707 0
-1706 187 1707 0
1707 188 -1708 0
-1707 -188 -1708 0
1707 -188 1708 0
-1707 188 1708 0
1708 356 -1709 0
-1708 -356 -1709 0
1708 -356 1709 0
-1708 356 1709 0
1709 368 -1710 0
-1709 -368 -1710 0
1709 -368 1710 0
-1709 368 1710 0
1710 374 -1711 0
-1710 -374 -1711 0
1710 -374 1711 0
-1710 374 1711 0
1711 386 -1712 0
-1711 -386 -1712 0
1711 -386 1712 0
-1711 386 1712 0
-1712 0
185 186 -1713 0
-185 -186 -1713 0
185 -186 1713 0
-185 186 1713 0
1713 188 -1714 0
-1713 -188 -1714 0
1713 -188 1714 0
-1713 188 1714 0
1714 189 -1715 0
-1714 -189 -1715 0
1714 -189 1715 0
-1714 189 1715 0
1715 357 -1716 0
-1715 -357 -1716 0
1715 -357 1716 0
-1715 357 1716 0
1716 369 -1717 0
-1716 -369 -1717 0
1716 -369 1717 0
-1716 369 1717 0
1717 375 -1718 0
-1717 -375 -1718 0
1717 -375 1718 0
-1717 375 1718 0
1718 387 -1719 0
-1718 -387 -1719 0
1718 -387 1719 0
-1718 387 1719 0
-1719 0
186 187 -1720 0
-186 -187 -1720 0
186 -187 1720 0
-186 187 1720 0
1720 189 -1721 0
-1720 -189 -1721 0
1720 -189 1721 0
-1720 189 1721 0
1721 190 -1722 0
-1721 -190 -1722 0
1721 -190 1722 0
-1721 190 1722 0
1722 358 -1723 0
-1722 -358 -1723 0
1722 -358 1723 0
-1722 358 1723 0
1723 370 -1724 0
-1723 -370 -1724 0
1723 -370 1724 0
-1723 370 1724 0
1724 376 -1725 0
-1724 -376 -1725 0
1724 -376 1725 0
-1724 376 1725 0
1725 388 -1726 0
-1725 -388 -1726 0
1725 -388 1726 0
-1725 388 1726 0
-1726 0
187 188 -1727 0
-187 -188 -1727 0
187 -188 1727 0
-187 188 1727 0
1727 190 -1728 0
-1727 -190 -1728 0
1727 -190 1728 0
-1727 190 1728 0
1728 191 -1729 0
-1728 -191 -1729 0
1728 -191 1729 0
-1728 191 1729 0
1729 359 -1730 0
-1729 -359 -1730 0
1729 -359 1730 0
-1729 359 1730 0
1730 371 -1731 0
-1730 -371 -1731 0
1730 -371 1731 0
-1730 371 1731 0
1731 377 -1732 0
-1731 -377 -1732 0
1731 -377 1732 0
-1731 377 1732 0
1732 389 -1733 0
-1732 -389 -1733 0
1732 -389 1733 0
-1732 389 1733 0
-1733 0
188 189 -1734 0
-188 -189 -1734 0
188 -189 1734 0
-188 189 1734 0
1734 191 -1735 0
-1734 -191 -1735 0
1734 -191 1735 0
-1734 191 1735 0
1735 192 -1736 0
-1735 -192 -1736 0
1735 -192 1736 0
-1735 192 1736 0
1736 360 -1737 0
-1736 -360 -1737 0
1736 -360 1737 0
-1736 360 1737 0
1737 372 -1738 0
-1737 -372 -1738 0
1737 -372 1738 0
-1737 372 1738 0
1738 378 -1739 0
-1738 -378 -1739 0
1738 -378 1739 0
-1738 378 1739 0
1739 390 -1740 0
-1739 -390 -1740 0
1739 -390 1740 0
-1739 390 1740 0
-1740 0
189 190 -1741 0
-189 -190 -1741 0
189 -190 1741 0
-189 190 1741 0
1741 192 -1742 0
-1741 -192 -1742 0
1741 -192 1742 0
-1741 192 1742 0
1742 193 -1743 0
-1742 -193 -1743 0
1742 -193 1743 0
-1742 193 1743 0
1743 361 -1744 0
-1743 -361 -1744 0
1743 -361 1744 0
-1743 361 1744 0
1744 373 -1745 0
-1744 -373 -1745 0
1744 -373 1745 0
-1744 373 1745 0
1745 379 -1746 0
-1745 -379 -1746 0
1745 -379 1746 0
-1745 379 1746 0
1746 391 -1747 0
-1746 -391 -1747 0
1746 -391 1747 0
-1746 391 1747 0
-1747 0
190 191 -1748 0
-190 -191 -1748 0
190 -191 1748 0
-190 191 1748 0
1748 193 -1749 0
-1748 -193 -1749 0
1748 -193 1749 0
-1748 193 1749 0
1749 194 -1750 0
-1749 -194 -1750 0
1749 -194 1750 0
-1749 194 1750 0
1750 362 -1751 0
-1750 -362 -1751 0
1750 -362 1751 0
-1750 362 1751 0
1751 374 -1752 0
-1751 -374 -1752 0
1751 -374 1752 0
-1751 374 1752 0
1752 380 -1753 0
-1752 -380 -1753 0
1752 -380 1753 0
-1752 380 1753 0
1753 392 -1754 0
-1753 -392 -1754 0
1753 -392 1754 0
-1753 392 1754 0
-1754 0
191 192 -1755 0
-191 -192 -1755 0
191 -192 1755 0
-191 192 1755 0
1755 194 -1756 0
-1755 -194 -1756 0
1755 -194 1756 0
-1755 194 1756 0
1756 195 -1757 0
-1756 -195 -1757 0
1756 -195 1757 0
-1756 195 1757 0
1757 363 -1758 0
-1757 -363 -1758 0
1757 -363 1758 0
-1757 363 1758 0
1758 375 -1759 0
-1758 -375 -1759 0
1758 -375 1759 0
-1758 375 1759 0
1759 381 -1760 0
-1759 -381 -1760 0
1759 -381 1760 0
-1759 381 1760 0
1760 393 -1761 0
-1760 -393 -1761 0
1760 -393 1761 0
-1760 393 1761 0
-1761 0
192 193 -1762 0
-192 -193 -1762 0
192 -193 1762 0
-192 193 1762 0
1762 195 -1763 0
-1762 -195 -1763 0
1762 -195 1763 0
-1762 195 1763 0
1763 196 -1764 0
-1763 -196 -1764 0
1763 -196 1764 0
-1763 196 1764 0
1764 364 -1765 0
-1764 -364 -1765 0
1764 -364 1765 0
-1764 364 1765 0
1765 376 -1766 0
-1765 -376 -1766 0
1765 -376 1766 0
-1765 376 1766 0
1766 382 -1767 0
-1766 -382 -1767 0
1766 -382 1767 0
-1766 382 1767 0
1767 394 -1768 0
-1767 -394 -1768 0
1767 -394 1768 0
-1767 394 1768 0
-1768 0
193 194 -1769 0
-193 -194 -1769 0
193 -194 1769 0
-193 194 1769 0
1769 196 -1770 0
-1769 -196 -1770 0
1769 -196 1770 0
-1769 196 1770 0
1770 197 -1771 0
-1770 -197 -1771 0
1770 -197 1771 0
-1770 197 1771 0
1771 365 -1772 0
-1771 -365 -1772 0
1771 -365 1772 0
-1771 365 1772 0
1772 377 -1773 0
-1772 -377 -1773 0
1772 -377 1773 0
-1772 377 1773 0
1773 383 -1774 0
-1773 -383 -1774 0
1773 -383 1774 0
-1773 383 1774 0
1774 395 -1775 0
-1774 -395 -1775 0
1774 -395 1775 0
-1774 395 1775 0
-1775 0
194 195 -1776 0
-194 -195 -1776 0
194 -195 1776 0
-194 195 1776 0
1776 197 -1777 0
-1776 -197 -1777 0
1776 -197 1777 0
-1776 197 1777 0
1777 198 -1778 0
-1777 -198 -1778 0
1777 -198 1778 0
-1777 198 1778 0
1778 366 -1779 0
-1778 -366 -1779 0
1778 -366 1779 0
-1778 366 1779 0
1779 378 -1780 0
-1779 -378 -1780 0
1779 -378 1780 0
-1779 378 1780 0
1780 384 -1781 0
-1780 -384 -1781 0
1780 -384 1781 0
-1780 384 1781 0
1781 396 -1782 0
-1781 -396 -1782 0
1781 -396 1782 0
-1781 396 1782 0
-1782 0
1 203 -1783 0
-1 -203 -1783 0
1 -203 1783 0
-1 203 1783 0
1783 204 -1784 0
-1783 -204 -1784 0
1783 -204 1784 0
-1783 204 1784 0
1784 205 -1785 0
-1784 -205 -1785 0
1784 -205 1785 0
-1784 205 1785 0
1785 209 -1786 0
-1785 -209 -1786 0
1785 -209 1786 0
-1785 209 1786 0
1786 210 -1787 0
-1786 -210 -1787 0
1786 -210 1787 0
-1786 210 1787 0
1787 211 -1788 0
-1787 -211 -1788 0
1787 -211 1788 0
-1787 211 1788 0
1788 215 -1789 0
-1788 -215 -1789 0
1788 -215 1789 0
-1788 215 1789 0
1789 216 -1790 0
-1789 -216 -1790 0
1789 -216 1790 0
-1789 216 1790 0
1790 217 -1791 0
-1790 -217 -1791 0
1790 -217 1791 0
-1790 217 1791 0
1791 221 -1792 0
-1791 -221 -1792 0
1791 -221 1792 0
-1791 221 1792 0
1792 222 -1793 0
-1792 -222 -1793 0
1792 -222 1793 0
-1792 222 1793 0
1793 223 -1794 0
-1793 -223 -1794 0
1793 -223 1794 0
-1793 223 1794 0
1794 227 -1795 0
-1794 -227 -1795 0
1794 -227 1795 0
-1794 227 1795 0
1795 228 -1796 0
-1795 -228 -1796 0
1795 -228 1796 0
-1795 228 1796 0
1796 229 -1797 0
-1796 -229 -1797 0
1796 -229 1797 0
-1796 229 1797 0
1797 233 -1798 0
-1797 -233 -1798 0
1797 -233 1798 0
-1797 233 1798 0
1798 234 -1799 0
-1798 -234 -1799 0
1798 -234 1799 0
-1798 234 1799 0
1799 235 -1800 0
-1799 -235 -1800 0
1799 -235 1800 0
-1799 235 1800 0
1800 239 -1801 0
-1800 -239 -1801 0
1800 -239 1801 0
-1800 239 1801 0
1801 240 -1802 0
-1801 -240 -1802 0
1801 -240 1802 0
-1801 240 1802 0
1802 241 -1803 0
-1802 -241 -1803 0
1802 -241 1803 0
-1802 241 1803 0
1803 245 -1804 0
-1803 -245 -1804 0
1803 -245 1804 0
-1803 245 1804 0
1804 246 -1805 0
-1804 -246 -1805 0
1804 -246 1805 0
-1804 246 1805 0
1805 247 -1806 0
-1805 -247 -1806 0
1805 -247 1806 0
-1805 247 1806 0
1806 251 -1807 0
-1806 -251 -1807 0
1806 -251 1807 0
-1806 251 1807 0
1807 252 -1808 0
-1807 -252 -1808 0
1807 -252 1808 0
-1807 252 1808 0
1808 253 -1809 0
-1808 -253 -1809 0
1808 -253 1809 0
-1808 253 1809 0
1809 257 -1810 0
-1809 -257 -1810 0
1809 -257 1810 0
-1809 257 1810 0
1810 258 -1811 0
-1810 -258 -1811 0
1810 -258 1811 0
-1810 258 1811 0
1811 259 -1812 0
-1811 -259 -1812 0
1811 -259 1812 0
-1811 259 1812 0
1812 263 -1813 0
-1812 -263 -1813 0
1812 -263 1813 0
-1812 263 1813 0
1813 264 -1814 0
-1813 -264 -1814 0
1813 -264 1814 0
-1813 264 1814 0
1814 265 -1815 0
-1814 -265 -1815 0
1814 -265 1815 0
-1814 265 1815 0
1815 269 -1816 0
-1815 -269 -1816 0
1815 -269 1816 0
-1815 269 1816 0
1816 270 -1817 0
-1816 -270 -1817 0
1816 -270 1817 0
-1816 270 1817 0
1817 271 -1818 0
-1817 -271 -1818 0
1817 -271 1818 0
-1817 271 1818 0
1818 275 -1819 0
-1818 -275 -1819 0
1818 -275 1819 0
-1818 275 1819 0
1819 276 -1820 0
-1819 -276 -1820 0
1819 -276 1820 0
-1819 276 1820 0
1820 277 -1821 0
-1820 -277 -1821 0
1820 -277 1821 0
-1820 277 1821 0
1821 281 -1822 0
-1821 -281 -1822 0
1821 -281 1822 0
-1821 281 1822 0
1822 282 -1823 0
-1822 -282 -1823 0
1822 -282 1823 0
-1822 282 1823 0
1823 283 -1824 0
-1823 -283 -1824 0
1823 -283 1824 0
-1823 283 1824 0
1824 287 -1825 0
-1824 -287 -1825 0
1824 -287 1825 0
-1824 287 1825 0
1825 288 -1826 0
-1825 -288 -1826 0
1825 -288 1826 0
-1825 288 1826 0
1826 289 -1827 0
-1826 -289 -1827 0
1826 -289 1827 0
-1826 289 1827 0
1827 293 -1828 0
-1827 -293 -1828 0
1827 -293 1828 0
-1827 293 1828 0
1828 294 -1829 0
-1828 -294 -1829 0
1828 -294 1829 0
-1828 294 1829 0
1829 295 -1830 0
-1829 -295 -1830 0
1829 -295 1830 0
-1829 295 1830 0
1830 299 -1831 0
-1830 -299 -1831 0
1830 -299 1831 0
-1830 299 1831 0
1831 300 -1832 0
-1831 -300 -1832 0
1831 -300 1832 0
-1831 300 1832 0
1832 301 -1833 0
-1832 -301 -1833 0
1832 -301 1833 0
-1832 301 1833 0
1833 305 -1834 0
-1833 -305 -1834 0
1833 -305 1834 0
-1833 305 1834 0
1834 306 -1835 0
-1834 -306 -1835 0
1834 -306 1835 0
-1834 306 1835 0
1835 307 -1836 0
-1835 -307 -1836 0
1835 -307 1836 0
-1835 307 1836 0
1836 311 -1837 0
-1836 -311 -1837 0
1836 -311 1837 0
-1836 311 1837 0
1837 312 -1838 0
-1837 -312 -1838 0
1837 -312 1838 0
-1837 312 1838 0
1838 313 -1839 0
-1838 -313 -1839 0
1838 -313 1839 0
-1838 313 1839 0
1839 317 -1840 0
-1839 -317 -1840 0
1839 -317 1840 0
-1839 317 1840 0
1840 318 -1841 0
-1840 -318 -1841 0
1840 -318 1841 0
-1840 318 1841 0
1841 319 -1842 0
-1841 -319 -1842 0
1841 -319 1842 0
-1841 319 1842 0
1842 323 -1843 0
-1842 -323 -1843 0
1842 -323 1843 0
-1842 323 1843 0
1843 324 -1844 0
-1843 -324 -1844 0
1843 -324 1844 0
-1843 324 1844 0
1844 325 -1845 0
-1844 -325 -1845 0
1844 -325 1845 0
-1844 325 1845 0
1845 329 -1846 0
-1845 -329 -1846 0
1845 -329 1846 0
-1845 329 1846 0
1846 330 -1847 0
-1846 -330 -1847 0
1846 -330 1847 0
-1846 330 1847 0
1847 331 -1848 0
-1847 -331 -1848 0
1847 -331 1848 0
-1847 331 1848 0
1848 335 -1849 0
-1848 -335 -1849 0
1848 -335 1849 0
-1848 335 1849 0
1849 336 -1850 0
-1849 -336 -1850 0
1849 -336 1850 0
-1849 336 1850 0
1850 337 -1851 0
-1850 -337 -1851 0
1850 -337 1851 0
-1850 337 1851 0
1851 341 -1852 0
-1851 -341 -1852 0
1851 -341 1852 0
-1851 341 1852 0
1852 342 -1853 0
-1852 -342 -1853 0
1852 -342 1853 0
-1852 342 1853 0
1853 343 -1854 0
-1853 -343 -1854 0
1853 -343 1854 0
-1853 343 1854 0
1854 347 -1855 0
-1854 -347 -1855 0
1854 -347 1855 0
-1854 347 1855 0
1855 348 -1856 0
-1855 -348 -1856 0
1855 -348 1856 0
-1855 348 1856 0
1856 349 -1857 0
-1856 -349 -1857 0
1856 -349 1857 0
-1856 349 1857 0
1857 353 -1858 0
-1857 -353 -1858 0
1857 -353 1858 0
-1857 353 1858 0
1858 354 -1859 0
-1858 -354 -1859 0
1858 -354 1859 0
-1858 354 1859 0
1859 355 -1860 0
-1859 -355 -1860 0
1859 -355 1860 0
-1859 355 1860 0
1860 359 -1861 0
-1860 -359 -1861 0
1860 -359 1861 0
-1860 359 1861 0
1861 360 -1862 0
-1861 -360 -1862 0
1861 -360 1862 0
-1861 360 1862 0
1862 361 -1863 0
-1862 -361 -1863 0
1862 -361 1863 0
-1862 361 1863 0
1863 365 -1864 0
-1863 -365 -1864 0
1863 -365 1864 0
-1863 365 1864 0
1864 366 -1865 0
-1864 -366 -1865 0
1864 -366 1865 0
-1864 366 1865 0
1865 367 -1866 0
-1865 -367 -1866 0
1865 -367 1866 0
-1865 367 1866 0
1866 383 -1867 0
-1866 -383 -1867 0
1866 -383 1867 0
-1866 383 1867 0
1867 384 -1868 0
-1867 -384 -1868 0
1867 -384 1868 0
-1867 384 1868 0
1868 385 -1869 0
-1868 -385 -1869 0
1868 -385 1869 0
-1868 385 1869 0
2 204 -1870 0
-2 -204 -1870 0
2 -204 1870 0
-2 204 1870 0
1870 205 -1871 0
-1870 -205 -1871 0
1870 -205 1871 0
-1870 205 1871 0
1871 206 -1872 0
-1871 -206 -1872 0
1871 -206 1872 0
-1871 206 1872 0
1872 210 -1873 0
-1872 -210 -1873 0
1872 -210 1873 0
-1872 210 1873 0
1873 211 -1874 0
-1873 -211 -1874 0
1873 -211 1874 0
-1873 211 1874 0
1874 212 -1875 0
-1874 -212 -1875 0
1874 -212 1875 0
-1874 212 1875 0
1875 216 -1876 0
-1875 -216 -1876 0
1875 -216 1876 0
-1875 216 1876 0
1876 217 -1877 0
-1876 -217 -1877 0
1876 -217 1877 0
-1876 217 1877 0
1877 218 -1878 0
-1877 -218 -1878 0
1877 -218 1878 0
-1877 218 1878 0
1878 222 -1879 0
-1878 -222 -1879 0
1878 -222 1879 0
-1878 222 1879 0
1879 223 -1880 0
-1879 -223 -1880 0
1879 -223 1880 0
-1879 223 1880 0
1880 224 -1881 0
-1880 -224 -1881 0
1880 -224 1881 0
-1880 224 1881 0
1881 228 -1882 0
-1881 -228 -1882 0
1881 -228 1882 0
-1881 228 1882 0
1882 229 -1883 0
-1882 -229 -1883 0
1882 -229 1883 0
-1882 229 1883 0
1883 230 -1884 0
-1883 -230 -1884 0
1883 -230 1884 0
-1883 230 1884 0
1884 234 -1885 0
-1884 -234 -1885 0
1884 -234 1885 0
-1884 234 1885 0
1885 235 -1886 0
-1885 -235 -1886 0
1885 -235 1886 0
-1885 235 1886 0
1886 236 -1887 0
-1886 -236 -1887 0
1886 -236 1887 0
-1886 236 1887 0
1887 240 -1888 0
-1887 -240 -1888 0
1887 -240 1888 0
-1887 240 1888 0
1888 241 -1889 0
-1888 -241 -1889 0
1888 -241 1889 0
-1888 241 1889 0
1889 242 -1890 0
-1889 -242 -1890 0
1889 -242 1890 0
-1889 242 1890 0
1890 246 -1891 0
-1890 -246 -1891 0
1890 -246 1891 0
-1890 246 1891 0
1891 247 -1892 0
-1891 -247 -1892 0
1891 -247 1892 0
-1891 247 1892 0
1892 248 -1893 0
-1892 -248 -1893 0
1892 -248 1893 0
-1892 248 1893 0
1893 252 -1894 0
-1893 -252 -1894 0
1893 -252 1894 0
-1893 252 1894 0
1894 253 -1895 0
-1894 -253 -1895 0
1894 -253 1895 0
-1894 253 1895 0
1895 254 -1896 0
-1895 -254 -1896 0
1895 -254 1896 0
-1895 254 1896 0
1896 258 -1897 0
-1896 -258 -1897 0
1896 -258 1897 0
-1896 258 1897 0
1897 259 -1898 0
-1897 -259 -1898 0
1897 -259 1898 0
-1897 259 1898 0
1898 260 -1899 0
-1898 -260 -1899 0
1898 -260 1899 0
-1898 260 1899 0
1899 264 -1900 0
-1899 -264 -1900 0
1899 -264 1900 0
-1899 264 1900 0
1900 265 -1901 0
-1900 -265 -1901 0
1900 -265 1901 0
-1900 265 1901 0
1901 266 -1902 0
-1901 -266 -1902 0
1901 -266 1902 0
-1901 266 1902 0
1902 270 -1903 0
-1902 -270 -1903 0
1902 -270 1903 0
-1902 270 1903 0
1903 271 -1904 0
-1903 -271 -1904 0
1903 -271 1904 0
-1903 271 1904 0
1904 272 -1905 0
-1904 -272 -1905 0
1904 -272 1905 0
-1904 272 1905 0
1905 276 -1906 0
-1905 -276 -1906 0
1905 -276 1906 0
-1905 276 1906 0
1906 277 -1907 0
-1906 -277 -1907 0
1906 -277 1907 0
-1906 277 1907 0
1907 278 -1908 0
-1907 -278 -1908 0
1907 -278 1908 0
-1907 278 1908 0
1908 282 -1909 0
-1908 -282 -1909 0
1908 -282 1909 0
-1908 282 1909 0
1909 283 -1910 0
-1909 -283 -1910 0
1909 -283 1910 0
-1909 283 1910 0
1910 284 -1911 0
-1910 -284 -1911 0
1910 -284 1911 0
-1910 284 1911 0
1911 288 -1912 0
-1911 -288 -1912 0
1911 -288 1912 0
-1911 288 1912 0
1912 289 -1913 0
-1912 -289 -1913 0
1912 -289 1913 0
-1912 289 1913 0
1913 290 -1914 0
-1913 -290 -1914 0
1913 -290 1914 0
-1913 290 1914 0
1914 294 -1915 0
-1914 -294 -1915 0
1914 -294 1915 0
-1914 294 1915 0
1915 295 -1916 0
-1915 -295 -1916 0
1915 -295 1916 0
-1915 295 1916 0
1916 296 -1917 0
-1916 -296 -1917 0
1916 -296 1917 0
-1916 296 1917 0
1917 300 -1918 0
-1917 -300 -1918 0
1917 -300 1918 0
-1917 300 1918 0
1918 301 -1919 0
-1918 -301 -1919 0
1918 -301 1919 0
-1918 301 1919 0
1919 302 -1920 0
-1919 -302 -1920 0
1919 -302 1920 0
-1919 302 1920 0
1920 306 -1921 0
-1920 -306 -1921 0
1920 -306 1921 0
-1920 306 1921 0
1921 307 -1922 0
-1921 -307 -1922 0
1921 -307 1922 0
-1921 307 1922 0
1922 308 -1923 0
-1922 -308 -1923 0
1922 -308 1923 0
-1922 308 1923 0
1923 312 -1924 0
-1923 -312 -1924 0
1923 -312 1924 0
-1923 312 1924 0
1924 313 -1925 0
-1924 -313 -1925 0
1924 -313 1925 0
-1924 313 1925 0
1925 314 -1926 0
-1925 -314 -1926 0
1925 -314 1926 0
-1925 314 1926 0
1926 318 -1927 0
-1926 -318 -1927 0
1926 -318 1927 0
-1926 318 1927 0
1927 319 -1928 0
-1927 -319 -1928 0
1927 -319 1928 0
-1927 319 1928 0
1928 320 -1929 0
-1928 -320 -1929 0
1928 -320 1929 0
-1928 320 1929 0
1929 324 -1930 0
-1929 -324 -1930 0
1929 -324 1930 0
-1929 324 1930 0
1930 325 -1931 0
-1930 -325 -1931 0
1930 -325 1931 0
-1930 325 1931 0
1931 326 -1932 0
-1931 -326 -1932 0
1931 -326 1932 0
-1931 326 1932 0
1932 330 -1933 0
-1932 -330 -1933 0
1932 -330 1933 0
-1932 330 1933 0
1933 331 -1934 0
-1933 -331 -1934 0
1933 -331 1934 0
-1933 331 1934 0
1934 332 -1935 0
-1934 -332 -1935 0
1934 -332 1935 0
-1934 332 1935 0
1935 336 -1936 0
-1935 -336 -1936 0
1935 -336 1936 0
-1935 336 1936 0
1936 337 -1937 0
-1936 -337 -1937 0
1936 -337 1937 0
-1936 337 1937 0
1937 338 -1938 0
-1937 -338 -1938 0
1937 -338 1938 0
-1937 338 1938 0
1938 342 -1939 0
-1938 -342 -1939 0
1938 -342 1939 0
-1938 342 1939 0
1939 343 -1940 0
-1939 -343 -1940 0
1939 -343 1940 0
-1939 343 1940 0
1940 344 -1941 0
-1940 -344 -1941 0
1940 -344 1941 0
-1940 344 1941 0
1941 348 -1942 0
-1941 -348 -1942 0
1941 -348 1942 0
-1941 348 1942 0
1942 349 -1943 0
-1942 -349 -1943 0
1942 -349 1943 0
-1942 349 1943 0
1943 350 -1944 0
-1943 -350 -1944 0
1943 -350 1944 0
-1943 350 1944 0
1944 354 -1945 0
-1944 -354 -1945 0
1944 -354 1945 0
-1944 354 1945 0
1945 355 -1946 0
-1945 -355 -1946 0
1945 -355 1946 0
-1945 355 1946 0
1946 356 -1947 0
-1946 -356 -1947 0
1946 -356 1947 0
-1946 356 1947 0
1947 360 -1948 0
-1947 -360 -1948 0
1947 -360 1948 0
-1947 360 1948 0
1948 361 -1949 0
-1948 -361 -1949 0
1948 -361 1949 0
-1948 361 1949 0
1949 362 -1950 0
-1949 -362 -1950 0
1949 -362 1950 0
-1949 362 1950 0
1950 366 -1951 0
-1950 -366 -1951 0
1950 -366 1951 0
-1950 366 1951 0
1951 367 -1952 0
-1951 -367 -1952 0
1951 -367 1952 0
-1951 367 1952 0
1952 368 -1953 0
-1952 -368 -1953 0
1952 -368 1953 0
-1952 368 1953 0
1953 384 -1954 0
-1953 -384 -1954 0
1953 -384 1954 0
-1953 384 1954 0
1954 385 -1955 0
-1954 -385 -1955 0
1954 -385 1955 0
-1954 385 1955 0
1955 386 -1956 0
-1955 -386 -1956 0
1955 -386 1956 0
-1955 386 1956 0
3 205 -1957 0
-3 -205 -1957 0
3 -205 1957 0
-3 205 1957 0
1957 206 -1958 0
-1957 -206 -1958 0
1957 -206 1958 0
-1957 206 1958 0
1958 207 -1959 0
-1958 -207 -1959 0
1958 -207 1959 0
-1958 207 1959 0
1959 211 -1960 0
-1959 -211 -1960 0
1959 -211 1960 0
-1959 211 1960 0
1960 212 -1961 0
-1960 -212 -1961 0
1960 -212 1961 0
-1960 212 1961 0
1961 213 -1962 0
-1961 -213 -1962 0
1961 -213 1962 0
-1961 213 1962 0
1962 217 -1963 0
-1962 -217 -1963 0
1962 -217 1963 0
-1962 217 1963 0
1963 218 -1964 0
-1963 -218 -1964 0
1963 -218 1964 0
-1963 218 1964 0
1964 219 -1965 0
-1964 -219 -1965 0
1964 -219 1965 0
-1964 219 1965 0
1965 223 -1966 0
-1965 -223 -1966 0
1965 -223 1966 0
-1965 223 1966 0
1966 224 -1967 0
-1966 -224 -1967 0
1966 -224 1967 0
-1966 224 1967 0
1967 225 -1968 0
-1967 -225 -1968 0
1967 -225 1968 0
-1967 225 1968 0
1968 229 -1969 0
-1968 -229 -1969 0
1968 -229 1969 0
-1968 229 1969 0
1969 230 -1970 0
-1969 -230 -1970 0
1969 -230 1970 0
-1969 230 1970 0
1970 231 -1971 0
-1970 -231 -1971 0
1970 -231 1971 0
-1970 231 1971 0
1971 235 -1972 0
-1971 -235 -1972 0
1971 -235 1972 0
-1971 235 1972 0
1972 236 -1973 0
-1972 -236 -1973 0
1972 -236 1973 0
-1972 236 1973 0
1973 237 -1974 0
-1973 -237 -1974 0
1973 -237 1974 0
-1973 237 1974 0
1974 241 -1975 0
-1974 -241 -1975 0
1974 -241 1975 0
-1974 241 1975 0
1975 242 -1976 0
-1975 -242 -1976 0
1975 -242 1976 0
-1975 242 1976 0
1976 243 -1977 0
-1976 -243 -1977 0
1976 -243 1977 0
-1976 243 1977 0
1977 247 -1978 0
-1977 -247 -1978 0
1977 -247 1978 0
-1977 247 1978 0
1978 248 -1979 0
-1978 -248 -1979 0
1978 -248 1979 0
-1978 248 1979 0
1979 249 -1980 0
-1979 -249 -1980 0
1979 -249 1980 0
-1979 249 1980 0
1980 253 -1981 0
-1980 -253 -1981 0
1980 -253 1981 0
-1980 253 1981 0
1981 254 -1982 0
-1981 -254 -1982 0
1981 -254 1982 0
-1981 254 1982 0
1982 255 -1983 0
-1982 -255 -1983 0
1982 -255 1983 0
-1982 255 1983 0
1983 259 -1984 0
-1983 -259 -1984 0
1983 -259 1984 0
-1983 259 1984 0
1984 260 -1985 0
-1984 -260 -1985 0
1984 -260 1985 0
-1984 260 1985 0
1985 261 -1986 0
-1985 -261 -1986 0
1985 -261 1986 0
-1985 261 1986 0
1986 265 -1987 0
-1986 -265 -1987 0
1986 -265 1987 0
-1986 265 1987 0
1987 266 -1988 0
-1987 -266 -1988 0
1987 -266 1988 0
-1987 266 1988 0
1988 267 -1989 0
-1988 -267 -1989 0
1988 -267 1989 0
-1988 267 1989 0
1989 271 -1990 0
-1989 -271 -1990 0
1989 -271 1990 0
-1989 271 1990 0
1990 272 -1991 0
-1990 -272 -1991 0
1990 -272 1991 0
-1990 272 1991 0
1991 273 -1992 0
-1991 -273 -1992 0
1991 -273 1992 0
-1991 273 1992 0
1992 277 -1993 0
-1992 -277 -1993 0
1992 -277 1993 0
-1992 277 1993 0
1993 278 -1994 0
-1993 -278 -1994 0
1993 -278 1994 0
-1993 278 1994 0
1994 279 -1995 0
-1994 -279 -1995 0
1994 -279 1995 0
-1994 279 1995 0
1995 283 -1996 0
-1995 -283 -1996 0
1995 -283 1996 0
-1995 283 1996 0
1996 284 -1997 0
-1996 -284 -1997 0
1996 -284 1997 0
-1996 284 1997 0
1997 285 -1998 0
-1997 -285 -1998 0
1997 -285 1998 0
-1997 285 1998 0
1998 289 -1999 0
-1998 -289 -1999 0
1998 -289 1999 0
-1998 289 1999 0
1999 290 -2000 0
-1999 -290 -2000 0
1999 -290 2000 0
-1999 290 2000 0
2000 291 -2001 0
-2000 -291 -2001 0
2000 -291 2001 0
-2000 291 2001 0
2001 295 -2002 0
-2001 -295 -2002 0
2001 -295 2002 0
-2001 295 2002 0
2002 296 -2003 0
-2002 -296 -2003 0
2002 -296 2003 0
-2002 296 2003 0
2003 297 -2004 0
-2003 -297 -2004 0
2003 -297 2004 0
-2003 297 2004 0
2004 301 -2005 0
-2004 -301 -2005 0
2004 -301 2005 0
-2004 301 2005 0
2005 302 -2006 0
-2005 -302 -2006 0
2005 -302 2006 0
-2005 302 2006 0
2006 303 -2007 0
-2006 -303 -2007 0
2006 -303 2007 0
-2006 303 2007 0
2007 307 -2008 0
-2007 -307 -2008 0
2007 -307 2008 0
-2007 307 2008 0
2008 308 -2009 0
-2008 -308 -2009 0
2008 -308 2009 0
-2008 308 2009 0
2009 309 -2010 0
-2009 -309 -2010 0
2009 -309 2010 0
-2009 309 2010 0
2010 313 -2011 0
-2010 -313 -2011 0
2010 -313 2011 0
-2010 313 2011 0
2011 314 -2012 0
-2011 -314 -2012 0
2011 -314 2012 0
-2011 314 2012 0
2012 315 -2013 0
-2012 -315 -2013 0
2012 -315 2013 0
-2012 315 2013 0
2013 319 -2014 0
-2013 -319 -2014 0
2013 -319 2014 0
-2013 319 2014 0
2014 320 -2015 0
-2014 -320 -2015 0
2014 -320 2015 0
-2014 320 2015 0
2015 321 -2016 0
-2015 -321 -2016 0
2015 -321 2016 0
-2015 321 2016 0
2016 325 -2017 0
-2016 -325 -2017 0
2016 -325 2017 0
-2016 325 2017 0
2017 326 -2018 0
-2017 -326 -2018 0
2017 -326 2018 0
-2017 326 2018 0
2018 327 -2019 0
-2018 -327 -2019 0
2018 -327 2019 0
-2018 327 2019 0
2019 331 -2020 0
-2019 -331 -2020 0
2019 -331 2020 0
-2019 331 2020 0
2020 332 -2021 0
-2020 -332 -2021 0
2020 -332 2021 0
-2020 332 2021 0
2021 333 -2022 0
-2021 -333 -2022 0
2021 -333 2022 0
-2021 333 2022 0
2022 337 -2023 0
-2022 -337 -2023 0
2022 -337 2023 0
-2022 337 2023 0
2023 338 -2024 0
-2023 -338 -2024 0
2023 -338 2024 0
-2023 338 2024 0
2024 339 -2025 0
-2024 -339 -2025 0
2024 -339 2025 0
-2024 339 2025 0
2025 343 -2026 0
-2025 -343 -2026 0
2025 -343 2026 0
-2025 343 2026 0
2026 344 -2027 0
-2026 -344 -2027 0
2026 -344 2027 0
-2026 344 2027 0
2027 345 -2028 0
-2027 -345 -2028 0
2027 -345 2028 0
-2027 345 2028 0
2028 349 -2029 0
-2028 -349 -2029 0
2028 -349 2029 0
-2028 349 2029 0
2029 350 -2030 0
-2029 -350 -2030 0
2029 -350 2030 0
-2029 350 2030 0
2030 351 -2031 0
-2030 -351 -2031 0
2030 -351 2031 0
-2030 351 2031 0
2031 355 -2032 0
-2031 -355 -2032 0
2031 -355 2032 0
-2031 355 2032 0
2032 356 -2033 0
-2032 -356 -2033 0
2032 -356 2033 0
-2032 356 2033 0
2033 357 -2034 0
-2033 -357 -2034 0
2033 -357 2034 0
-2033 357 2034 0
2034 361 -2035 0
-2034 -361 -2035 0
2034 -361 2035 0
-2034 361 2035 0
2035 362 -2036 0
-2035 -362 -2036 0
2035 -362 2036 0
-2035 362 2036 0
2036 363 -2037 0
-2036 -363 -2037 0
2036 -363 2037 0
-2036 363 2037 0
2037 367 -2038 0
-2037 -367 -2038 0
2037 -367 2038 0
-2037 367 2038 0
2038 368 -2039 0
-2038 -368 -2039 0
2038 -368 2039 0
-2038 368 2039 0
2039 369 -2040 0
-2039 -369 -2040 0
2039 -369 2040 0
-2039 369 2040 0
2040 385 -2041 0
-2040 -385 -2041 0
2040 -385 2041 0
-2040 385 2041 0
2041 386 -2042 0
-2041 -386 -2042 0
2041 -386 2042 0
-2041 386 2042 0
2042 387 -2043 0
-2042 -387 -2043 0
2042 -387 2043 0
-2042 387 2043 0
4 206 -2044 0
-4 -206 -2044 0
4 -206 2044 0
-4 206 2044 0
2044 207 -2045 0
-2044 -207 -2045 0
2044 -207 2045 0
-2044 207 2045 0
2045 208 -2046 0
-2045 -208 -2046 0
2045 -208 2046 0
-2045 208 2046 0
2046 212 -2047 0
-2046 -212 -2047 0
2046 -212 2047 0
-2046 212 2047 0
2047 213 -2048 0
-2047 -213 -2048 0
2047 -213 2048 0
-2047 213 2048 0
2048 214 -2049 0
-2048 -214 -2049 0
2048 -214 2049 0
-2048 214 2049 0
2049 218 -2050 0
-2049 -218 -2050 0
2049 -218 2050 0
-2049 218 2050 0
2050 219 -2051 0
-2050 -219 -2051 0
2050 -219 2051 0
-2050 219 2051 0
2051 220 -2052 0
-2051 -220 -2052 0
2051 -220 2052 0
-2051 220 2052 0
2052 224 -2053 0
-2052 -224 -2053 0
2052 -224 2053 0
-2052 224 2053 0
2053 225 -2054 0
-2053 -225 -2054 0
2053 -225 2054 0
-2053 225 2054 0
2054 226 -2055 0
-2054 -226 -2055 0
2054 -226 2055 0
-2054 226 2055 0
2055 230 -2056 0
-2055 -230 -2056 0
2055 -230 2056 0
-2055 230 2056 0
2056 231 -2057 0
-2056 -231 -2057 0
2056 -231 2057 0
-2056 231 2057 0
2057 232 -2058 0
-2057 -232 -2058 0
2057 -232 2058 0
-2057 232 2058 0
2058 236 -2059 0
-2058 -236 -2059 0
2058 -236 2059 0
-2058 236 2059 0
2059 237 -2060 0
-2059 -237 -2060 0
2059 -237 2060 0
-2059 237 2060 0
2060 238 -2061 0
-2060 -238 -2061 0
2060 -238 2061 0
-2060 238 2061 0
2061 242 -2062 0
-2061 -242 -2062 0
2061 -242 2062 0
-2061 242 2062 0
2062 243 -2063 0
-2062 -243 -2063 0
2062 -243 2063 0
-2062 243 2063 0
2063 244 -2064 0
-2063 -244 -2064 0
2063 -244 2064 0
-2063 244 2064 0
2064 248 -2065 0
-2064 -248 -2065 0
2064 -248 2065 0
-2064 248 2065 0
2065 249 -2066 0
-2065 -249 -2066 0
2065 -249 2066 0
-2065 249 2066 0
2066 250 -2067 0
-2066 -250 -2067 0
2066 -250 2067 0
-2066 250 2067 0
2067 254 -2068 0
-2067 -254 -2068 0
2067 -254 2068 0
-2067 254 2068 0
2068 255 -2069 0
-2068 -255 -2069 0
2068 -255 2069 0
-2068 255 2069 0
2069 256 -2070 0
-2069 -256 -2070 0
2069 -256 2070 0
-2069 256 2070 0
2070 260 -2071 0
-2070 -260 -2071 0
2070 -260 2071 0
-2070 260 2071 0
2071 261 -2072 0
-2071 -261 -2072 0
2071 -261 2072 0
-2071 261 2072 0
2072 262 -2073 0
-2072 -262 -2073 0
2072 -262 2073 0
-2072 262 2073 0
2073 266 -2074 0
-2073 -266 -2074 0
2073 -266 2074 0
-2073 266 2074 0
2074 267 -2075 0
-2074 -267 -2075 0
2074 -267 2075 0
-2074 267 2075 0
2075 268 -2076 0
-2075 -268 -2076 0
2075 -268 2076 0
-2075 268 2076 0
2076 272 -2077 0
-2076 -272 -2077 0
2076 -272 2077 0
-2076 272 2077 0
2077 273 -2078 0
-2077 -273 -2078 0
2077 -273 2078 0
-2077 273 2078 0
2078 274 -2079 0
-2078 -274 -2079 0
2078 -274 2079 0
-2078 274 2079 0
2079 278 -2080 0
-2079 -278 -2080 0
2079 -278 2080 0
-2079 278 2080 0
2080 279 -2081 0
-2080 -279 -2081 0
2080 -279 2081 0
-2080 279 2081 0
2081 280 -2082 0
-2081 -280 -2082 0
2081 -280 2082 0
-2081 280 2082 0
2082 284 -2083 0
-2082 -284 -2083 0
2082 -284 2083 0
-2082 284 2083 0
2083 285 -2084 0
-2083 -285 -2084 0
2083 -285 2084 0
-2083 285 2084 0
2084 286 -2085 0
-2084 -286 -2085 0
2084 -286 2085 0
-2084 286 2085 0
2085 290 -2086 0
-2085 -290 -2086 0
2085 -290 2086 0
-2085 290 2086 0
2086 291 -2087 0
-2086 -291 -2087 0
2086 -291 2087 0
-2086 291 2087 0
2087 292 -2088 0
-2087 -292 -2088 0
2087 -292 2088 0
-2087 292 2088 0
2088 296 -2089 0
-2088 -296 -2089 0
2088 -296 2089 0
-2088 296 2089 0
2089 297 -2090 0
-2089 -297 -2090 0
2089 -297 2090 0
-2089 297 2090 0
2090 298 -2091 0
-2090 -298 -2091 0
2090 -298 2091 0
-2090 298 2091 0
2091 302 -2092 0
-2091 -302 -2092 0
2091 -302 2092 0
-2091 302 2092 0
2092 303 -2093 0
-2092 -303 -2093 0
2092 -303 2093 0
-2092 303 2093 0
2093 304 -2094 0
-2093 -304 -2094 0
2093 -304 2094 0
-2093 304 2094 0
2094 308 -2095 0
-2094 -308 -2095 0
2094 -308 2095 0
-2094 308 2095 0
2095 309 -2096 0
-2095 -309 -2096 0
2095 -309 2096 0
-2095 309 2096 0
2096 310 -2097 0
-2096 -310 -2097 0
2096 -310 2097 0
-2096 310 2097 0
2097 314 -2098 0
-2097 -314 -2098 0
2097 -314 2098 0
-2097 314 2098 0
2098 315 -2099 0
-2098 -315 -2099 0
2098 -315 2099 0
-2098 315 2099 0
2099 316 -2100 0
-2099 -316 -2100 0
2099 -316 2100 0
-2099 316 2100 0
2100 320 -2101 0
-2100 -320 -2101 0
2100 -320 2101 0
-2100 320 2101 0
2101 321 -2102 0
-2101 -321 -2102 0
2101 -321 2102 0
-2101 321 2102 0
2102 322 -2103 0
-2102 -322 -2103 0
2102 -322 2103 0
-2102 322 2103 0
2103 326 -2104 0
-2103 -326 -2104 0
2103 -326 2104 0
-2103 326 2104 0
2104 327 -2105 0
-2104 -327 -2105 0
2104 -327 2105 0
-2104 327 2105 0
2105 328 -2106 0
-2105 -328 -2106 0
2105 -328 2106 0
-2105 328 2106 0
2106 332 -2107 0
-2106 -332 -2107 0
2106 -332 2107 0
-2106 332 2107 0
2107 333 -2108 0
-2107 -333 -2108 0
2107 -333 2108 0
-2107 333 2108 0
2108 334 -2109 0
-2108 -334 -2109 0
2108 -334 2109 0
-2108 334 2109 0
2109 338 -2110 0
-2109 -338 -2110 0
2109 -338 2110 0
-2109 338 2110 0
2110 339 -2111 0
-2110 -339 -2111 0
2110 -339 2111 0
-2110 339 2111 0
2111 340 -2112 0
-2111 -340 -2112 0
2111 -340 2112 0
-2111 340 2112 0
2112 344 -2113 0
-2112 -344 -2113 0
2112 -344 2113 0
-2112 344 2113 0
2113 345 -2114 0
-2113 -345 -2114 0
2113 -345 2114 0
-2113 345 2114 0
2114 346 -2115 0
-2114 -346 -2115 0
2114 -346 2115 0
-2114 346 2115 0
2115 350 -2116 0
-2115 -350 -2116 0
2115 -350 2116 0
-2115 350 2116 0
2116 351 -2117 0
-2116 -351 -2117 0
2116 -351 2117 0
-2116 351 2117 0
2117 352 -2118 0
-2117 -352 -2118 0
2117 -352 2118 0
-2117 352 2118 0
2118 356 -2119 0
-2118 -356 -2119 0
2118 -356 2119 0
-2118 356 2119 0
2119 357 -2120 0
-2119 -357 -2120 0
2119 -357 2120 0
-2119 357 2120 0
2120 358 -2121 0
-2120 -358 -2121 0
2120 -358 2121 0
-2120 358 2121 0
2121 362 -2122 0
-2121 -362 -2122 0
2121 -362 2122 0
-2121 362 2122 0
2122 363 -2123 0
-2122 -363 -2123 0
2122 -363 2123 0
-2122 363 2123 0
2123 364 -2124 0
-2123 -364 -2124 0
2123 -364 2124 0
-2123 364 2124 0
2124 368 -2125 0
-2124 -368 -2125 0
2124 -368 2125 0
-2124 368 2125 0
2125 369 -2126 0
-2125 -369 -2126 0
2125 -369 2126 0
-2125 369 2126 0
2126 370 -2127 0
-2126 -370 -2127 0
2126 -370 2127 0
-2126 370 2127 0
2127 386 -2128 0
-2127 -386 -2128 0
2127 -386 2128 0
-2127 386 2128 0
2128 387 -2129 0
-2128 -387 -2129 0
2128 -387 2129 0
-2128 387 2129 0
2129 388 -2130 0
-2129 -388 -2130 0
2129 -388 2130 0
-2129 388 2130 0
13 203 -2131 0
-13 -203 -2131 0
13 -203 2131 0
-13 203 2131 0
2131 204 -2132 0
-2131 -204 -2132 0
2131 -204 2132 0
-2131 204 2132 0
2132 205 -2133 0
-2132 -205 -2133 0
2132 -205 2133 0
-2132 205 2133 0
2133 209 -2134 0
-2133 -209 -2134 0
2133 -209 2134 0
-2133 209 2134 0
2134 210 -2135 0
-2134 -210 -2135 0
2134 -210 2135 0
-2134 210 2135 0
2135 211 -2136 0
-2135 -211 -2136 0
2135 -211 2136 0
-2135 211 2136 0
2136 383 -2137 0
-2136 -383 -2137 0
2136 -383 2137 0
-2136 383 2137 0
2137 384 -2138 0
-2137 -384 -2138 0
2137 -384 2138 0
-2137 384 2138 0
2138 385 -2139 0
-2138 -385 -2139 0
2138 -385 2139 0
-2138 385 2139 0
2139 389 -2140 0
-2139 -389 -2140 0
2139 -389 2140 0
-2139 389 2140 0
2140 390 -2141 0
-2140 -390 -2141 0
2140 -390 2141 0
-2140 390 2141 0
2141 391 -2142 0
-2141 -391 -2142 0
2141 -391 2142 0
-2141 391 2142 0
14 204 -2143 0
-14 -204 -2143 0
14 -204 2143 0
-14 204 2143 0
2143 205 -2144 0
-2143 -205 -2144 0
2143 -205 2144 0
-2143 205 2144 0
2144 206 -2145 0
-2144 -206 -2145 0
2144 -206 2145 0
-2144 206 2145 0
2145 210 -2146 0
-2145 -210 -2146 0
2145 -210 2146 0
-2145 210 2146 0
2146 211 -2147 0
-2146 -211 -2147 0
2146 -211 2147 0
-2146 211 2147 0
2147 212 -2148 0
-2147 -212 -2148 0
2147 -212 2148 0
-2147 212 2148 0
2148 384 -2149 0
-2148 -384 -2149 0
2148 -384 2149 0
-2148 384 2149 0
2149 385 -2150 0
-2149 -385 -2150 0
2149 -385 2150 0
-2149 385 2150 0
2150 386 -2151 0
-2150 -386 -2151 0
2150 -386 2151 0
-2150 386 2151 0
2151 390 -2152 0
-2151 -390 -2152 0
2151 -390 2152 0
-2151 390 2152 0
2152 391 -2153 0
-2152 -391 -2153 0
2152 -391 2153 0
-2152 391 2153 0
2153 392 -2154 0
-2153 -392 -2154 0
2153 -392 2154 0
-2153 392 2154 0
15 205 -2155 0
-15 -205 -2155 0
15 -205 2155 0
-15 205 2155 0
2155 206 -2156 0
-2155 -206 -2156 0
2155 -206 2156 0
-2155 206 2156 0
2156 207 -2157 0
-2156 -207 -2157 0
2156 -207 2157 0
-2156 207 2157 0
2157 211 -2158 0
-2157 -211 -2158 0
2157 -211 2158 0
-2157 211 2158 0
2158 212 -2159 0
-2158 -212 -2159 0
2158 -212 2159 0
-2158 212 2159 0
2159 213 -2160 0
-2159 -213 -2160 0
2159 -213 2160 0
-2159 213 2160 0
2160 385 -2161 0
-2160 -385 -2161 0
2160 -385 2161 0
-2160 385 2161 0
2161 386 -2162 0
-2161 -386 -2162 0
2161 -386 2162 0
-2161 386 2162 0
2162 387 -2163 0
-2162 -387 -2163 0
2162 -387 2163 0
-2162 387 2163 0
2163 391 -2164 0
-2163 -391 -2164 0
2163 -391 2164 0
-2163 391 2164 0
2164 392 -2165 0
-2164 -392 -2165 0
2164 -392 2165 0
-2164 392 2165 0
2165 393 -2166 0
-2165 -393 -2166 0
2165 -393 2166 0
-2165 393 2166 0
16 206 -2167 0
-16 -206 -2167 0
16 -206 2167 0
-16 206 2167 0
2167 207 -2168 0
-2167 -207 -2168 0
2167 -207 2168 0
-2167 207 2168 0
2168 208 -2169 0
-2168 -208 -2169 0
2168 -208 2169 0
-2168 208 2169 0
2169 212 -2170 0
-2169 -212 -2170 0
2169 -212 2170 0
-2169 212 2170 0
2170 213 -2171 0
-2170 -213 -2171 0
2170 -213 2171 0
-2170 213 2171 0
2171 214 -2172 0
-2171 -214 -2172 0
2171 -214 2172 0
-2171 214 2172 0
2172 386 -2173 0
-2172 -386 -2173 0
2172 -386 2173 0
-2172 386 2173 0
2173 387 -2174 0
-2173 -387 -2174 0
2173 -387 2174 0
-2173 387 2174 0
2174 388 -2175 0
-2174 -388 -2175 0
2174 -388 2175 0
-2174 388 2175 0
2175 392 -2176 0
-2175 -392 -2176 0
2175 -392 2176 0
-2175 392 2176 0
2176 393 -2177 0
-2176 -393 -2177 0
2176 -393 2177 0
-2176 393 2177 0
2177 394 -2178 0
-2177 -394 -2178 0
2177 -394 2178 0
-2177 394 2178 0
1869 1956 2043 2130 2142 2154 2166 2178 0
-1 0
-2 0
-3 0
-4 0
-5 0
-6 0
-7 0
-8 0
-9 0
-10 0
-11 0
-12 0
-13 0
-14 0
-15 0
-16 0
-17 0
-18 0
-19 0
-20 0
-21 0
-22 0
-23 0
-24 0
-25 0
-26 0
-27 0
-28 0
-29 0
-30 0
-31 0
-32 0
-33 0
-34 0
-35 0
-36 0
-37 0
-38 0
-39 0
-40 0
-41 0
-42 0
-43 0
-44 0
-45 0
-46 0
-47 0
-48 0
-49 0
-50 0
-51 0
-52 0
-53 0
-54 0
-55 0
-56 0
-57 0
-58 0
-59 0
-60 0
-61 0
-62 0
-63 0
-64 0
-65 0
-66 0
-67 0
-68 0
-69 0
-70 0
-71 0
-72 0
-73 0
-74 0
-75 0
-76 0
-77 0
-78 0
-79 0
-80 0
-81 0
-82 0
-83 0
-84 0
-85 0
-86 0
-87 0
-88 0
-89 0
-90 0
-91 0
-92 0
-93 0
-94 0
-95 0
-96 0
-97 0
-98 0
-99 0
-100 0
-101 0
-102 0
-103 0
-104 0
-105 0
-106 0
-107 0
-108 0
-109 0
-110 0
-111 0
-112 0
-113 0
-114 0
-115 0
-116 0
-117 0
-118 0
-119 0
-120 0
-121 0
-122 0
-123 0
-124 0
-125 0
-126 0
-127 0
-128 0
-129 0
-130 0
-131 0
-132 0
-133 0
-134 0
-135 0
-136 0
-137 0
-138 0
-139 0
-140 0
-141 0
-142 0
-143 0
-144 0
-145 0
-146 0
-147 0
-148 0
-149 0
-150 0
-151 0
-152 0
-153 0
-154 0
-155 0
-156 0
-157 0
-158 0
-159 0
-160 0
-161 0
-162 0
-163 0
-164 0
-165 0
-166 0
-167 0
-168 0
-169 0
-170 0
-171 0
-172 0
-173 0
-174 0
-175 0
-176 0
-177 0
-178 0
-179 0
-180 0
-181 0
-182 0
-183 0
-184 0
-185 0
-186 0
-187 0
-188 0
-189 0
-190 0
-191 0
-192 0
-193 0
-194 0
-195 0
-196 0
-197 0
-198 0
199 0
-2193 2183 2194 0
-2188 2183 2194 0
-2188 -2193 2194 0
-2194 2179 0
-2189 2179 0
-2194 -2189 2180 0
-2190 2180 0
-2194 -2190 2181 0
-2191 2181 0
-2194 -2191 2182 0
-2192 2182 0
-2194 -2192 0
-2184 2179 0
-2194 -2184 2180 0
-2185 2180 0
-2194 -2185 2181 0
-2186 2181 0
-2194 -2186 2182 0
-2187 2182 0
-2194 -2187 0
-2184 -2189 2180 0
-2194 -2184 -2189 2181 0
-2184 -2190 2181 0
-2194 -2184 -2190 2182 0
-2184 -2191 2182 0
-2194 -2184 -2191 0
-2184 -2192 0
-2194 -2184 -2192 0
-2185 -2189 2181 0
-2194 -2185 -2189 2182 0
-2185 -2190 2182 0
-2194 -2185 -2190 0
-2185 -2191 0
-2194 -2185 -2191 0
-2185 -2192 0
-2194 -2185 -2192 0
-2186 -2189 2182 0
-2194 -2186 -2189 0
-2186 -2190 0
-2194 -2186 -2190 0
-2186 -2191 0
-2194 -2186 -2191 0
-2186 -2192 0
-2194 -2186 -2192 0
-2187 -2189 0
-2194 -2187 -2189 0
-2187 -2190 0
-2194 -2187 -2190 0
-2187 -2191 0
-2194 -2187 -2191 0
-2187 -2192 0
-2194 -2187 -2192 0
-2204 2193 2205 0
-2199 2193 2205 0
-2199 -2204 2205 0
-2205 2189 0
-2200 2189 0
-2205 -2200 2190 0
-2201 2190 0
-2205 -2201 2191 0
-2202 2191 0
-2205 -2202 2192 0
-2203 2192 0
-2205 -2203 0
-2195 2189 0
-2205 -2195 2190 0
-2196 2190 0
-2205 -2196 2191 0
-2197 2191 0
-2205 -2197 2192 0
-2198 2192 0
-2205 -2198 0
-2195 -2200 2190 0
-2205 -2195 -2200 2191 0
-2195 -2201 2191 0
-2205 -2195 -2201 2192 0
-2195 -2202 2192 0
-2205 -2195 -2202 0
-2195 -2203 0
-2205 -2195 -2203 0
-2196 -2200 2191 0
-2205 -2196 -2200 2192 0
-2196 -2201 2192 0
-2205 -2196 -2201 0
-2196 -2202 0
-2205 -2196 -2202 0
-2196 -2203 0
-2205 -2196 -2203 0
-2197 -2200 2192 0
-2205 -2197 -2200 0
-2197 -2201 0
-2205 -2197 -2201 0
-2197 -2202 0
-2205 -2197 -2202 0
-2197 -2203 0
-2205 -2197 -2203 0
-2198 -2200 0
-2205 -2198 -2200 0
-2198 -2201 0
-2205 -2198 -2201 0
-2198 -2202 0
-2205 -2198 -2202 0
-2198 -2203 0
-2205 -2198 -2203 0
-2215 2204 2216 0
-2210 2204 2216 0
-2210 -2215 2216 0
-2216 2200 0
-2211 2200 0
-2216 -2211 2201 0
-2212 2201 0
-2216 -2212 2202 0
-2213 2202 0
-2216 -2213 2203 0
-2214 2203 0
-2216 -2214 0
-2206 2200 0
-2216 -2206 2201 0
-2207 2201 0
-2216 -2207 2202 0
-2208 2202 0
-2216 -2208 2203 0
-2209 2203 0
-2216 -2209 0
-2206 -2211 2201 0
-2216 -2206 -2211 2202 0
-2206 -2212 2202 0
-2216 -2206 -2212 2203 0
-2206 -2213 2203 0
-2216 -2206 -2213 0
-2206 -2214 0
-2216 -2206 -2214 0
-2207 -2211 2202 0
-2216 -2207 -2211 2203 0
-2207 -2212 2203 0
-2216 -2207 -2212 0
-2207 -2213 0
-2216 -2207 -2213 0
-2207 -2214 0
-2216 -2207 -2214 0
-2208 -2211 2203 0
-2216 -2208 -2211 0
-2208 -2212 0
-2216 -2208 -2212 0
-2208 -2213 0
-2216 -2208 -2213 0
-2208 -2214 0
-2216 -2208 -2214 0
-2209 -2211 0
-2216 -2209 -2211 0
-2209 -2212 0
-2216 -2209 -2212 0
-2209 -2213 0
-2216 -2209 -2213 0
-2209 -2214 0
-2216 -2209 -2214 0
-2226 2215 2227 0
-2221 2215 2227 0
-2221 -2226 2227 0
-2227 2211 0
-2222 2211 0
-2227 -2222 2212 0
-2223 2212 0
-2227 -2223 2213 0
-2224 2213 0
-2227 -2224 2214 0
-2225 2214 0
-2227 -2225 0
-2217 2211 0
-2227 -2217 2212 0
-2218 2212 0
-2227 -2218 2213 0
-2219 2213 0
-2227 -2219 2214 0
-2220 2214 0
-2227 -2220 0
-2217 -2222 2212 0
-2227 -2217 -2222 2213 0
-2217 -2223 2213 0
-2227 -2217 -2223 2214 0
-2217 -2224 2214 0
-2227 -2217 -2224 0
-2217 -2225 0
-2227 -2217 -2225 0
-2218 -2222 2213 0
-2227 -2218 -2222 2214 0
-2218 -2223 2214 0
-2227 -2218 -2223 0
-2218 -2224 0
-2227 -2218 -2224 0
-2218 -2225 0
-2227 -2218 -2225 0
-2219 -2222 2214 0
-2227 -2219 -2222 0
-2219 -2223 0
-2227 -2219 -2223 0
-2219 -2224 0
-2227 -2219 -2224 0
-2219 -2225 0
-2227 -2219 -2225 0
-2220 -2222 0
-2227 -2220 -2222 0
-2220 -2223 0
-2227 -2220 -2223 0
-2220 -2224 0
-2227 -2220 -2224 0
-2220 -2225 0
-2227 -2220 -2225 0
-2237 2226 2238 0
-2232 2226 2238 0
-2232 -2237 2238 0
-2238 2222 0
-2233 2222 0
-2238 -2233 2223 0
-2234 2223 0
-2238 -2234 2224 0
-2235 2224 0
-2238 -2235 2225 0
-2236 2225 0
-2238 -2236 0
-2228 2222 0
-2238 -2228 2223 0
-2229 2223 0
-2238 -2229 2224 0
-2230 2224 0
-2238 -2230 2225 0
-2231 2225 0
-2238 -2231 0
-2228 -2233 2223 0
-2238 -2228 -2233 2224 0
-2228 -2234 2224 0
-2238 -2228 -2234 2225 0
-2228 -2235 2225 0
-2238 -2228 -2235 0
-2228 -2236 0
-2238 -2228 -2236 0
-2229 -2233 2224 0
-2238 -2229 -2233 2225 0
-2229 -2234 2225 0
-2238 -2229 -2234 0
-2229 -2235 0
-2238 -2229 -2235 0
-2229 -2236 0
-2238 -2229 -2236 0
-2230 -2233 2225 0
-2238 -2230 -2233 0
-2230 -2234 0
-2238 -2230 -2234 0
-2230 -2235 0
-2238 -2230 -2235 0
-2230 -2236 0
-2238 -2230 -2236 0
-2231 -2233 0
-2238 -2231 -2233 0
-2231 -2234 0
-2238 -2231 -2234 0
-2231 -2235 0
-2238 -2231 -2235 0
-2231 -2236 0
-2238 -2231 -2236 0
-2246 2237 2247 0
-2242 2237 2247 0
-2242 -2246 2247 0
-2247 2233 0
-2243 2233 0
-2247 -2243 2234 0
-2244 2234 0
-2247 -2244 2235 0
-2245 2235 0
-2247 -2245 2236 0
-2239 2233 0
-2247 -2239 2234 0
-2240 2234 0
-2247 -2240 2235 0
-2241 2235 0
-2247 -2241 2236 0
-2239 -2243 2234 0
-2247 -2239 -2243 2235 0
-2239 -2244 2235 0
-2247 -2239 -2244 2236 0
-2239 -2245 2236 0
-2247 -2239 -2245 0
-2240 -2243 2235 0
-2247 -2240 -2243 2236 0
-2240 -2244 2236 0
-2247 -2240 -2244 0
-2240 -2245 0
-2247 -2240 -2245 0
-2241 -2243 2236 0
-2247 -2241 -2243 0
-2241 -2244 0
-2247 -2241 -2244 0
-2241 -2245 0
-2247 -2241 -2245 0
-2251 2246 2252 0
-2249 2246 2252 0
-2249 -2251 2252 0
-2252 2243 0
-2250 2243 0
-2252 -2250 2244 0
-2248 2243 0
-2252 -2248 2244 0
-2248 -2250 2244 0
-2252 -2248 -2250 2245 0
-396 2251 2255 0
-2254 2251 2255 0
-2254 -396 2255 0
-2255 2250 0
-2253 2250 0
-2255 -2253 0
-395 2254 2256 0
-394 2254 2256 0
-394 -395 2256 0
-2256 2253 0
-393 2249 2259 0
-2258 2249 2259 0
-2258 -393 2259 0
-2259 2248 0
-2257 2248 0
-2259 -2257 0
-392 2258 2260 0
-391 2258 2260 0
-391 -392 2260 0
-2260 2257 0
-2264 2242 2265 0
-2262 2242 2265 0
-2262 -2264 2265 0
-2265 2239 0
-2263 2239 0
-2265 -2263 2240 0
-2261 2239 0
-2265 -2261 2240 0
-2261 -2263 2240 0
-2265 -2261 -2263 2241 0
-390 2264 2268 0
-2267 2264 2268 0
-2267 -390 2268 0
-2268 2263 0
-2266 2263 0
-2268 -2266 0
-389 2267 2269 0
-388 2267 2269 0
-388 -389 2269 0
-2269 2266 0
-387 2262 2272 0
-2271 2262 2272 0
-2271 -387 2272 0
-2272 2261 0
-2270 2261 0
-2272 -2270 0
-386 2271 2273 0
-385 2271 2273 0
-385 -386 2273 0
-2273 2270 0
-2281 2232 2282 0
-2277 2232 2282 0
-2277 -2281 2282 0
-2282 2228 0
-2278 2228 0
-2282 -2278 2229 0
-2279 2229 0
-2282 -2279 2230 0
-2280 2230 0
-2282 -2280 2231 0
-2274 2228 0
-2282 -2274 2229 0
-2275 2229 0
-2282 -2275 2230 0
-2276 2230 0
-2282 -2276 2231 0
-2274 -2278 2229 0
-2282 -2274 -2278 2230 0
-2274 -2279 2230 0
-2282 -2274 -2279 2231 0
-2274 -2280 2231 0
-2282 -2274 -2280 0
-2275 -2278 2230 0
-2282 -2275 -2278 2231 0
-2275 -2279 2231 0
-2282 -2275 -2279 0
-2275 -2280 0
-2282 -2275 -2280 0
-2276 -2278 2231 0
-2282 -2276 -2278 0
-2276 -2279 0
-2282 -2276 -2279 0
-2276 -2280 0
-2282 -2276 -2280 0
-2286 2281 2287 0
-2284 2281 2287 0
-2284 -2286 2287 0
-2287 2278 0
-2285 2278 0
-2287 -2285 2279 0
-2283 2278 0
-2287 -2283 2279 0
-2283 -2285 2279 0
-2287 -2283 -2285 2280 0
-384 2286 2290 0
-2289 2286 2290 0
-2289 -384 2290 0
-2290 2285 0
-2288 2285 0
-2290 -2288 0
-383 2289 2291 0
-382 2289 2291 0
-382 -383 2291 0
-2291 2288 0
-381 2284 2294 0
-2293 2284 2294 0
-2293 -381 2294 0
-2294 2283 0
-2292 2283 0
-2294 -2292 0
-380 2293 2295 0
-379 2293 2295 0
-379 -380 2295 0
-2295 2292 0
-2299 2277 2300 0
-2297 2277 2300 0
-2297 -2299 2300 0
-2300 2274 0
-2298 2274 0
-2300 -2298 2275 0
-2296 2274 0
-2300 -2296 2275 0
-2296 -2298 2275 0
-2300 -2296 -2298 2276 0
-378 2299 2303 0
-2302 2299 2303 0
-2302 -378 2303 0
-2303 2298 0
-2301 2298 0
-2303 -2301 0
-377 2302 2304 0
-376 2302 2304 0
-376 -377 2304 0
-2304 2301 0
-375 2297 2307 0
-2306 2297 2307 0
-2306 -375 2307 0
-2307 2296 0
-2305 2296 0
-2307 -2305 0
-374 2306 2308 0
-373 2306 2308 0
-373 -374 2308 0
-2308 2305 0
-2318 2221 2319 0
-2313 2221 2319 0
-2313 -2318 2319 0
-2319 2217 0
-2314 2217 0
-2319 -2314 2218 0
-2315 2218 0
-2319 -2315 2219 0
-2316 2219 0
-2319 -2316 2220 0
-2317 2220 0
-2319 -2317 0
-2309 2217 0
-2319 -2309 2218 0
-2310 2218 0
-2319 -2310 2219 0
-2311 2219 0
-2319 -2311 2220 0
-2312 2220 0
-2319 -2312 0
-2309 -2314 2218 0
-2319 -2309 -2314 2219 0
-2309 -2315 2219 0
-2319 -2309 -2315 2220 0
-2309 -2316 2220 0
-2319 -2309 -2316 0
-2309 -2317 0
-2319 -2309 -2317 0
-2310 -2314 2219 0
-2319 -2310 -2314 2220 0
-2310 -2315 2220 0
-2319 -2310 -2315 0
-2310 -2316 0
-2319 -2310 -2316 0
-2310 -2317 0
-2319 -2310 -2317 0
-2311 -2314 2220 0
-2319 -2311 -2314 0
-2311 -2315 0
-2319 -2311 -2315 0
-2311 -2316 0
-2319 -2311 -2316 0
-2311 -2317 0
-2319 -2311 -2317 0
-2312 -2314 0
-2319 -2312 -2314 0
-2312 -2315 0
-2319 -2312 -2315 0
-2312 -2316 0
-2319 -2312 -2316 0
-2312 -2317 0
-2319 -2312 -2317 0
-2327 2318 2328 0
-2323 2318 2328 0
-2323 -2327 2328 0
-2328 2314 0
-2324 2314 0
-2328 -2324 2315 0
-2325 2315 0
-2328 -2325 2316 0
-2326 2316 0
-2328 -2326 2317 0
-2320 2314 0
-2328 -2320 2315 0
-2321 2315 0
-2328 -2321 2316 0
-2322 2316 0
-2328 -2322 2317 0
-2320 -2324 2315 0
-2328 -2320 -2324 2316 0
-2320 -2325 2316 0
-2328 -2320 -2325 2317 0
-2320 -2326 2317 0
-2328 -2320 -2326 0
-2321 -2324 2316 0
-2328 -2321 -2324 2317 0
-2321 -2325 2317 0
-2328 -2321 -2325 0
-2321 -2326 0
-2328 -2321 -2326 0
-2322 -2324 2317 0
-2328 -2322 -2324 0
-2322 -2325 0
-2328 -2322 -2325 0
-2322 -2326 0
-2328 -2322 -2326 0
-2332 2327 2333 0
-2330 2327 2333 0
-2330 -2332 2333 0
-2333 2324 0
-2331 2324 0
-2333 -2331 2325 0
-2329 2324 0
-2333 -2329 2325 0
-2329 -2331 2325 0
-2333 -2329 -2331 2326 0
-372 2332 2336 0
-2335 2332 2336 0
-2335 -372 2336 0
-2336 2331 0
-2334 2331 0
-2336 -2334 0
-371 2335 2337 0
-370 2335 2337 0
-370 -371 2337 0
-2337 2334 0
-369 2330 2340 0
-2339 2330 2340 0
-2339 -369 2340 0
-2340 2329 0
-2338 2329 0
-2340 -2338 0
-368 2339 2341 0
-367 2339 2341 0
-367 -368 2341 0
-2341 2338 0
-2345 2323 2346 0
-2343 2323 2346 0
-2343 -2345 2346 0
-2346 2320 0
-2344 2320 0
-2346 -2344 2321 0
-2342 2320 0
-2346 -2342 2321 0
-2342 -2344 2321 0
-2346 -2342 -2344 2322 0
-366 2345 2349 0
-2348 2345 2349 0
-2348 -366 2349 0
-2349 2344 0
-2347 2344 0
-2349 -2347 0
-365 2348 2350 0
-364 2348 2350 0
-364 -365 2350 0
-2350 2347 0
-363 2343 2353 0
-2352 2343 2353 0
-2352 -363 2353 0
-2353 2342 0
-2351 2342 0
-2353 -2351 0
-362 2352 2354 0
-361 2352 2354 0
-361 -362 2354 0
-2354 2351 0
-2362 2313 2363 0
-2358 2313 2363 0
-2358 -2362 2363 0
-2363 2309 0
-2359 2309 0
-2363 -2359 2310 0
-2360 2310 0
-2363 -2360 2311 0
-2361 2311 0
-2363 -2361 2312 0
-2355 2309 0
-2363 -2355 2310 0
-2356 2310 0
-2363 -2356 2311 0
-2357 2311 0
-2363 -2357 2312 0
-2355 -2359 2310 0
-2363 -2355 -2359 2311 0
-2355 -2360 2311 0
-2363 -2355 -2360 2312 0
-2355 -2361 2312 0
-2363 -2355 -2361 0
-2356 -2359 2311 0
-2363 -2356 -2359 2312 0
-2356 -2360 2312 0
-2363 -2356 -2360 0
-2356 -2361 0
-2363 -2356 -2361 0
-2357 -2359 2312 0
-2363 -2357 -2359 0
-2357 -2360 0
-2363 -2357 -2360 0
-2357 -2361 0
-2363 -2357 -2361 0
-2367 2362 2368 0
-2365 2362 2368 0
-2365 -2367 2368 0
-2368 2359 0
-2366 2359 0
-2368 -2366 2360 0
-2364 2359 0
-2368 -2364 2360 0
-2364 -2366 2360 0
-2368 -2364 -2366 2361 0
-360 2367 2371 0
-2370 2367 2371 0
-2370 -360 2371 0
-2371 2366 0
-2369 2366 0
-2371 -2369 0
-359 2370 2372 0
-358 2370 2372 0
-358 -359 2372 0
-2372 2369 0
-357 2365 2375 0
-2374 2365 2375 0
-2374 -357 2375 0
-2375 2364 0
-2373 2364 0
-2375 -2373 0
-356 2374 2376 0
-355 2374 2376 0
-355 -356 2376 0
-2376 2373 0
-2381 2358 2382 0
-2379 2358 2382 0
-2379 -2381 2382 0
-2382 2355 0
-2380 2355 0
-2382 -2380 2356 0
-2377 2355 0
-2382 -2377 2356 0
-2378 2356 0
-2382 -2378 2357 0
-2377 -2380 2356 0
-2382 -2377 -2380 2357 0
-2378 -2380 2357 0
-2382 -2378 -2380 0
-354 2381 2385 0
-2384 2381 2385 0
-2384 -354 2385 0
-2385 2380 0
-2383 2380 0
-2385 -2383 0
-353 2384 2386 0
-352 2384 2386 0
-352 -353 2386 0
-2386 2383 0
-2390 2379 2391 0
-2388 2379 2391 0
-2388 -2390 2391 0
-2391 2377 0
-2389 2377 0
-2391 -2389 2378 0
-2387 2377 0
-2391 -2387 2378 0
-2387 -2389 2378 0
-2391 -2387 -2389 0
-351 2390 2392 0
-350 2390 2392 0
-350 -351 2392 0
-2392 2389 0
-349 2388 2393 0
-348 2388 2393 0
-348 -349 2393 0
-2393 2387 0
-2403 2210 2404 0
-2398 2210 2404 0
-2398 -2403 2404 0
-2404 2206 0
-2399 2206 0
-2404 -2399 2207 0
-2400 2207 0
-2404 -2400 2208 0
-2401 2208 0
-2404 -2401 2209 0
-2402 2209 0
-2404 -2402 0
-2394 2206 0
-2404 -2394 2207 0
-2395 2207 0
-2404 -2395 2208 0
-2396 2208 0
-2404 -2396 2209 0
-2397 2209 0
-2404 -2397 0
-2394 -2399 2207 0
-2404 -2394 -2399 2208 0
-2394 -2400 2208 0
-2404 -2394 -2400 2209 0
-2394 -2401 2209 0
-2404 -2394 -2401 0
-2394 -2402 0
-2404 -2394 -2402 0
-2395 -2399 2208 0
-2404 -2395 -2399 2209 0
-2395 -2400 2209 0
-2404 -2395 -2400 0
-2395 -2401 0
-2404 -2395 -2401 0
-2395 -2402 0
-2404 -2395 -2402 0
-2396 -2399 2209 0
-2404 -2396 -2399 0
-2396 -2400 0
-2404 -2396 -2400 0
-2396 -2401 0
-2404 -2396 -2401 0
-2396 -2402 0
-2404 -2396 -2402 0
-2397 -2399 0
-2404 -2397 -2399 0
-2397 -2400 0
-2404 -2397 -2400 0
-2397 -2401 0
-2404 -2397 -2401 0
-2397 -2402 0
-2404 -2397 -2402 0
-2414 2403 2415 0
-2409 2403 2415 0
-2409 -2414 2415 0
-2415 2399 0
-2410 2399 0
-2415 -2410 2400 0
-2411 2400 0
-2415 -2411 2401 0
-2412 2401 0
-2415 -2412 2402 0
-2413 2402 0
-2415 -2413 0
-2405 2399 0
-2415 -2405 2400 0
-2406 2400 0
-2415 -2406 2401 0
-2407 2401 0
-2415 -2407 2402 0
-2408 2402 0
-2415 -2408 0
-2405 -2410 2400 0
-2415 -2405 -2410 2401 0
-2405 -2411 2401 0
-2415 -2405 -2411 2402 0
-2405 -2412 2402 0
-2415 -2405 -2412 0
-2405 -2413 0
-2415 -2405 -2413 0
-2406 -2410 2401 0
-2415 -2406 -2410 2402 0
-2406 -2411 2402 0
-2415 -2406 -2411 0
-2406 -2412 0
-2415 -2406 -2412 0
-2406 -2413 0
-2415 -2406 -2413 0
-2407 -2410 2402 0
-2415 -2407 -2410 0
-2407 -2411 0
-2415 -2407 -2411 0
-2407 -2412 0
-2415 -2407 -2412 0
-2407 -2413 0
-2415 -2407 -2413 0
-2408 -2410 0
-2415 -2408 -2410 0
-2408 -2411 0
-2415 -2408 -2411 0
-2408 -2412 0
-2415 -2408 -2412 0
-2408 -2413 0
-2415 -2408 -2413 0
-2423 2414 2424 0
-2419 2414 2424 0
-2419 -2423 2424 0
-2424 2410 0
-2420 2410 0
-2424 -2420 2411 0
-2421 2411 0
-2424 -2421 2412 0
-2422 2412 0
-2424 -2422 2413 0
-2416 2410 0
-2424 -2416 2411 0
-2417 2411 0
-2424 -2417 2412 0
-2418 2412 0
-2424 -2418 2413 0
-2416 -2420 2411 0
-2424 -2416 -2420 2412 0
-2416 -2421 2412 0
-2424 -2416 -2421 2413 0
-2416 -2422 2413 0
-2424 -2416 -2422 0
-2417 -2420 2412 0
-2424 -2417 -2420 2413 0
-2417 -2421 2413 0
-2424 -2417 -2421 0
-2417 -2422 0
-2424 -2417 -2422 0
-2418 -2420 2413 0
-2424 -2418 -2420 0
-2418 -2421 0
-2424 -2418 -2421 0
-2418 -2422 0
-2424 -2418 -2422 0
-2428 2423 2429 0
-2426 2423 2429 0
-2426 -2428 2429 0
-2429 2420 0
-2427 2420 0
-2429 -2427 2421 0
-2425 2420 0
-2429 -2425 2421 0
-2425 -2427 2421 0
-2429 -2425 -2427 2422 0
-347 2428 2432 0
-2431 2428 2432 0
-2431 -347 2432 0
-2432 2427 0
-2430 2427 0
-2432 -2430 0
-346 2431 2433 0
-345 2431 2433 0
-345 -346 2433 0
-2433 2430 0
-344 2426 2436 0
-2435 2426 2436 0
-2435 -344 2436 0
-2436 2425 0
-2434 2425 0
-2436 -2434 0
-343 2435 2437 0
-342 2435 2437 0
-342 -343 2437 0
-2437 2434 0
-2441 2419 2442 0
-2439 2419 2442 0
-2439 -2441 2442 0
-2442 2416 0
-2440 2416 0
-2442 -2440 2417 0
-2438 2416 0
-2442 -2438 2417 0
-2438 -2440 2417 0
-2442 -2438 -2440 2418 0
-341 2441 2445 0
-2444 2441 2445 0
-2444 -341 2445 0
-2445 2440 0
-2443 2440 0
-2445 -2443 0
-340 2444 2446 0
-339 2444 2446 0
-339 -340 2446 0
-2446 2443 0
-338 2439 2449 0
-2448 2439 2449 0
-2448 -338 2449 0
-2449 2438 0
-2447 2438 0
-2449 -2447 0
-337 2448 2450 0
-336 2448 2450 0
-336 -337 2450 0
-2450 2447 0
-2458 2409 2459 0
-2454 2409 2459 0
-2454 -2458 2459 0
-2459 2405 0
-2455 2405 0
-2459 -2455 2406 0
-2456 2406 0
-2459 -2456 2407 0
-2457 2407 0
-2459 -2457 2408 0
-2451 2405 0
-2459 -2451 2406 0
-2452 2406 0
-2459 -2452 2407 0
-2453 2407 0
-2459 -2453 2408 0
-2451 -2455 2406 0
-2459 -2451 -2455 2407 0
-2451 -2456 2407 0
-2459 -2451 -2456 2408 0
-2451 -2457 2408 0
-2459 -2451 -2457 0
-2452 -2455 2407 0
-2459 -2452 -2455 2408 0
-2452 -2456 2408 0
-2459 -2452 -2456 0
-2452 -2457 0
-2459 -2452 -2457 0
-2453 -2455 2408 0
-2459 -2453 -2455 0
-2453 -2456 0
-2459 -2453 -2456 0
-2453 -2457 0
-2459 -2453 -2457 0
-2463 2458 2464 0
-2461 2458 2464 0
-2461 -2463 2464 0
-2464 2455 0
-2462 2455 0
-2464 -2462 2456 0
-2460 2455 0
-2464 -2460 2456 0
-2460 -2462 2456 0
-2464 -2460 -2462 2457 0
-335 2463 2467 0
-2466 2463 2467 0
-2466 -335 2467 0
-2467 2462 0
-2465 2462 0
-2467 -2465 0
-334 2466 2468 0
-333 2466 2468 0
-333 -334 2468 0
-2468 2465 0
-332 2461 2471 0
-2470 2461 2471 0
-2470 -332 2471 0
-2471 2460 0
-2469 2460 0
-2471 -2469 0
-331 2470 2472 0
-330 2470 2472 0
-330 -331 2472 0
-2472 2469 0
-2477 2454 2478 0
-2475 2454 2478 0
-2475 -2477 2478 0
-2478 2451 0
-2476 2451 0
-2478 -2476 2452 0
-2473 2451 0
-2478 -2473 2452 0
-2474 2452 0
-2478 -2474 2453 0
-2473 -2476 2452 0
-2478 -2473 -2476 2453 0
-2474 -2476 2453 0
-2478 -2474 -2476 0
-329 2477 2481 0
-2480 2477 2481 0
-2480 -329 2481 0
-2481 2476 0
-2479 2476 0
-2481 -2479 0
-328 2480 2482 0
-327 2480 2482 0
-327 -328 2482 0
-2482 2479 0
-2486 2475 2487 0
-2484 2475 2487 0
-2484 -2486 2487 0
-2487 2473 0
-2485 2473 0
-2487 -2485 2474 0
-2483 2473 0
-2487 -2483 2474 0
-2483 -2485 2474 0
-2487 -2483 -2485 0
-326 2486 2488 0
-325 2486 2488 0
-325 -326 2488 0
-2488 2485 0
-324 2484 2489 0
-323 2484 2489 0
-323 -324 2489 0
-2489 2483 0
-2499 2398 2500 0
-2494 2398 2500 0
-2494 -2499 2500 0
-2500 2394 0
-2495 2394 0
-2500 -2495 2395 0
-2496 2395 0
-2500 -2496 2396 0
-2497 2396 0
-2500 -2497 2397 0
-2498 2397 0
-2500 -2498 0
-2490 2394 0
-2500 -2490 2395 0
-2491 2395 0
-2500 -2491 2396 0
-2492 2396 0
-2500 -2492 2397 0
-2493 2397 0
-2500 -2493 0
-2490 -2495 2395 0
-2500 -2490 -2495 2396 0
-2490 -2496 2396 0
-2500 -2490 -2496 2397 0
-2490 -2497 2397 0
-2500 -2490 -2497 0
-2490 -2498 0
-2500 -2490 -2498 0
-2491 -2495 2396 0
-2500 -2491 -2495 2397 0
-2491 -2496 2397 0
-2500 -2491 -2496 0
-2491 -2497 0
-2500 -2491 -2497 0
-2491 -2498 0
-2500 -2491 -2498 0
-2492 -2495 2397 0
-2500 -2492 -2495 0
-2492 -2496 0
-2500 -2492 -2496 0
-2492 -2497 0
-2500 -2492 -2497 0
-2492 -2498 0
-2500 -2492 -2498 0
-2493 -2495 0
-2500 -2493 -2495 0
-2493 -2496 0
-2500 -2493 -2496 0
-2493 -2497 0
-2500 -2493 -2497 0
-2493 -2498 0
-2500 -2493 -2498 0
-2508 2499 2509 0
-2504 2499 2509 0
-2504 -2508 2509 0
-2509 2495 0
-2505 2495 0
-2509 -2505 2496 0
-2506 2496 0
-2509 -2506 2497 0
-2507 2497 0
-2509 -2507 2498 0
-2501 2495 0
-2509 -2501 2496 0
-2502 2496 0
-2509 -2502 2497 0
-2503 2497 0
-2509 -2503 2498 0
-2501 -2505 2496 0
-2509 -2501 -2505 2497 0
-2501 -2506 2497 0
-2509 -2501 -2506 2498 0
-2501 -2507 2498 0
-2509 -2501 -2507 0
-2502 -2505 2497 0
-2509 -2502 -2505 2498 0
-2502 -2506 2498 0
-2509 -2502 -2506 0
-2502 -2507 0
-2509 -2502 -2507 0
-2503 -2505 2498 0
-2509 -2503 -2505 0
-2503 -2506 0
-2509 -2503 -2506 0
-2503 -2507 0
-2509 -2503 -2507 0
-2513 2508 2514 0
-2511 2508 2514 0
-2511 -2513 2514 0
-2514 2505 0
-2512 2505 0
-2514 -2512 2506 0
-2510 2505 0
-2514 -2510 2506 0
-2510 -2512 2506 0
-2514 -2510 -2512 2507 0
-322 2513 2517 0
-2516 2513 2517 0
-2516 -322 2517 0
-2517 2512 0
-2515 2512 0
-2517 -2515 0
-321 2516 2518 0
-320 2516 2518 0
-320 -321 2518 0
-2518 2515 0
-319 2511 2521 0
-2520 2511 2521 0
-2520 -319 2521 0
-2521 2510 0
-2519 2510 0
-2521 -2519 0
-318 2520 2522 0
-317 2520 2522 0
-317 -318 2522 0
-2522 2519 0
-2526 2504 2527 0
-2524 2504 2527 0
-2524 -2526 2527 0
-2527 2501 0
-2525 2501 0
-2527 -2525 2502 0
-2523 2501 0
-2527 -2523 2502 0
-2523 -2525 2502 0
-2527 -2523 -2525 2503 0
-316 2526 2530 0
-2529 2526 2530 0
-2529 -316 2530 0
-2530 2525 0
-2528 2525 0
-2530 -2528 0
-315 2529 2531 0
-314 2529 2531 0
-314 -315 2531 0
-2531 2528 0
-313 2524 2534 0
-2533 2524 2534 0
-2533 -313 2534 0
-2534 2523 0
-2532 2523 0
-2534 -2532 0
-312 2533 2535 0
-311 2533 2535 0
-311 -312 2535 0
-2535 2532 0
-2543 2494 2544 0
-2539 2494 2544 0
-2539 -2543 2544 0
-2544 2490 0
-2540 2490 0
-2544 -2540 2491 0
-2541 2491 0
-2544 -2541 2492 0
-2542 2492 0
-2544 -2542 2493 0
-2536 2490 0
-2544 -2536 2491 0
-2537 2491 0
-2544 -2537 2492 0
-2538 2492 0
-2544 -2538 2493 0
-2536 -2540 2491 0
-2544 -2536 -2540 2492 0
-2536 -2541 2492 0
-2544 -2536 -2541 2493 0
-2536 -2542 2493 0
-2544 -2536 -2542 0
-2537 -2540 2492 0
-2544 -2537 -2540 2493 0
-2537 -2541 2493 0
-2544 -2537 -2541 0
-2537 -2542 0
-2544 -2537 -2542 0
-2538 -2540 2493 0
-2544 -2538 -2540 0
-2538 -2541 0
-2544 -2538 -2541 0
-2538 -2542 0
-2544 -2538 -2542 0
-2548 2543 2549 0
-2546 2543 2549 0
-2546 -2548 2549 0
-2549 2540 0
-2547 2540 0
-2549 -2547 2541 0
-2545 2540 0
-2549 -2545 2541 0
-2545 -2547 2541 0
-2549 -2545 -2547 2542 0
-310 2548 2552 0
-2551 2548 2552 0
-2551 -310 2552 0
-2552 2547 0
-2550 2547 0
-2552 -2550 0
-309 2551 2553 0
-308 2551 2553 0
-308 -309 2553 0
-2553 2550 0
-307 2546 2556 0
-2555 2546 2556 0
-2555 -307 2556 0
-2556 2545 0
-2554 2545 0
-2556 -2554 0
-306 2555 2557 0
-305 2555 2557 0
-305 -306 2557 0
-2557 2554 0
-2562 2539 2563 0
-2560 2539 2563 0
-2560 -2562 2563 0
-2563 2536 0
-2561 2536 0
-2563 -2561 2537 0
-2558 2536 0
-2563 -2558 2537 0
-2559 2537 0
-2563 -2559 2538 0
-2558 -2561 2537 0
-2563 -2558 -2561 2538 0
-2559 -2561 2538 0
-2563 -2559 -2561 0
-304 2562 2566 0
-2565 2562 2566 0
-2565 -304 2566 0
-2566 2561 0
-2564 2561 0
-2566 -2564 0
-303 2565 2567 0
-302 2565 2567 0
-302 -303 2567 0
-2567 2564 0
-2571 2560 2572 0
-2569 2560 2572 0
-2569 -2571 2572 0
-2572 2558 0
-2570 2558 0
-2572 -2570 2559 0
-2568 2558 0
-2572 -2568 2559 0
-2568 -2570 2559 0
-2572 -2568 -2570 0
-301 2571 2573 0
-300 2571 2573 0
-300 -301 2573 0
-2573 2570 0
-299 2569 2574 0
-298 2569 2574 0
-298 -299 2574 0
-2574 2568 0
-2584 2199 2585 0
-2579 2199 2585 0
-2579 -2584 2585 0
-2585 2195 0
-2580 2195 0
-2585 -2580 2196 0
-2581 2196 0
-2585 -2581 2197 0
-2582 2197 0
-2585 -2582 2198 0
-2583 2198 0
-2585 -2583 0
-2575 2195 0
-2585 -2575 2196 0
-2576 2196 0
-2585 -2576 2197 0
-2577 2197 0
-2585 -2577 2198 0
-2578 2198 0
-2585 -2578 0
-2575 -2580 2196 0
-2585 -2575 -2580 2197 0
-2575 -2581 2197 0
-2585 -2575 -2581 2198 0
-2575 -2582 2198 0
-2585 -2575 -2582 0
-2575 -2583 0
-2585 -2575 -2583 0
-2576 -2580 2197 0
-2585 -2576 -2580 2198 0
-2576 -2581 2198 0
-2585 -2576 -2581 0
-2576 -2582 0
-2585 -2576 -2582 0
-2576 -2583 0
-2585 -2576 -2583 0
-2577 -2580 2198 0
-2585 -2577 -2580 0
-2577 -2581 0
-2585 -2577 -2581 0
-2577 -2582 0
-2585 -2577 -2582 0
-2577 -2583 0
-2585 -2577 -2583 0
-2578 -2580 0
-2585 -2578 -2580 0
-2578 -2581 0
-2585 -2578 -2581 0
-2578 -2582 0
-2585 -2578 -2582 0
-2578 -2583 0
-2585 -2578 -2583 0
-2595 2584 2596 0
-2590 2584 2596 0
-2590 -2595 2596 0
-2596 2580 0
-2591 2580 0
-2596 -2591 2581 0
-2592 2581 0
-2596 -2592 2582 0
-2593 2582 0
-2596 -2593 2583 0
-2594 2583 0
-2596 -2594 0
-2586 2580 0
-2596 -2586 2581 0
-2587 2581 0
-2596 -2587 2582 0
-2588 2582 0
-2596 -2588 2583 0
-2589 2583 0
-2596 -2589 0
-2586 -2591 2581 0
-2596 -2586 -2591 2582 0
-2586 -2592 2582 0
-2596 -2586 -2592 2583 0
-2586 -2593 2583 0
-2596 -2586 -2593 0
-2586 -2594 0
-2596 -2586 -2594 0
-2587 -2591 2582 0
-2596 -2587 -2591 2583 0
-2587 -2592 2583 0
-2596 -2587 -2592 0
-2587 -2593 0
-2596 -2587 -2593 0
-2587 -2594 0
-2596 -2587 -2594 0
-2588 -2591 2583 0
-2596 -2588 -2591 0
-2588 -2592 0
-2596 -2588 -2592 0
-2588 -2593 0
-2596 -2588 -2593 0
-2588 -2594 0
-2596 -2588 -2594 0
-2589 -2591 0
-2596 -2589 -2591 0
-2589 -2592 0
-2596 -2589 -2592 0
-2589 -2593 0
-2596 -2589 -2593 0
-2589 -2594 0
-2596 -2589 -2594 0
-2606 2595 2607 0
-2601 2595 2607 0
-2601 -2606 2607 0
-2607 2591 0
-2602 2591 0
-2607 -2602 2592 0
-2603 2592 0
-2607 -2603 2593 0
-2604 2593 0
-2607 -2604 2594 0
-2605 2594 0
-2607 -2605 0
-2597 2591 0
-2607 -2597 2592 0
-2598 2592 0
-2607 -2598 2593 0
-2599 2593 0
-2607 -2599 2594 0
-2600 2594 0
-2607 -2600 0
-2597 -2602 2592 0
-2607 -2597 -2602 2593 0
-2597 -2603 2593 0
-2607 -2597 -2603 2594 0
-2597 -2604 2594 0
-2607 -2597 -2604 0
-2597 -2605 0
-2607 -2597 -2605 0
-2598 -2602 2593 0
-2607 -2598 -2602 2594 0
-2598 -2603 2594 0
-2607 -2598 -2603 0
-2598 -2604 0
-2607 -2598 -2604 0
-2598 -2605 0
-2607 -2598 -2605 0
-2599 -2602 2594 0
-2607 -2599 -2602 0
-2599 -2603 0
-2607 -2599 -2603 0
-2599 -2604 0
-2607 -2599 -2604 0
-2599 -2605 0
-2607 -2599 -2605 0
-2600 -2602 0
-2607 -2600 -2602 0
-2600 -2603 0
-2607 -2600 -2603 0
-2600 -2604 0
-2607 -2600 -2604 0
-2600 -2605 0
-2607 -2600 -2605 0
-2615 2606 2616 0
-2611 2606 2616 0
-2611 -2615 2616 0
-2616 2602 0
-2612 2602 0
-2616 -2612 2603 0
-2613 2603 0
-2616 -2613 2604 0
-2614 2604 0
-2616 -2614 2605 0
-2608 2602 0
-2616 -2608 2603 0
-2609 2603 0
-2616 -2609 2604 0
-2610 2604 0
-2616 -2610 2605 0
-2608 -2612 2603 0
-2616 -2608 -2612 2604 0
-2608 -2613 2604 0
-2616 -2608 -2613 2605 0
-2608 -2614 2605 0
-2616 -2608 -2614 0
-2609 -2612 2604 0
-2616 -2609 -2612 2605 0
-2609 -2613 2605 0
-2616 -2609 -2613 0
-2609 -2614 0
-2616 -2609 -2614 0
-2610 -2612 2605 0
-2616 -2610 -2612 0
-2610 -2613 0
-2616 -2610 -2613 0
-2610 -2614 0
-2616 -2610 -2614 0
-2620 2615 2621 0
-2618 2615 2621 0
-2618 -2620 2621 0
-2621 2612 0
-2619 2612 0
-2621 -2619 2613 0
-2617 2612 0
-2621 -2617 2613 0
-2617 -2619 2613 0
-2621 -2617 -2619 2614 0
-297 2620 2624 0
-2623 2620 2624 0
-2623 -297 2624 0
-2624 2619 0
-2622 2619 0
-2624 -2622 0
-296 2623 2625 0
-295 2623 2625 0
-295 -296 2625 0
-2625 2622 0
-294 2618 2628 0
-2627 2618 2628 0
-2627 -294 2628 0
-2628 2617 0
-2626 2617 0
-2628 -2626 0
-293 2627 2629 0
-292 2627 2629 0
-292 -293 2629 0
-2629 2626 0
-2633 2611 2634 0
-2631 2611 2634 0
-2631 -2633 2634 0
-2634 2608 0
-2632 2608 0
-2634 -2632 2609 0
-2630 2608 0
-2634 -2630 2609 0
-2630 -2632 2609 0
-2634 -2630 -2632 2610 0
-291 2633 2637 0
-2636 2633 2637 0
-2636 -291 2637 0
-2637 2632 0
-2635 2632 0
-2637 -2635 0
-290 2636 2638 0
-289 2636 2638 0
-289 -290 2638 0
-2638 2635 0
-288 2631 2641 0
-2640 2631 2641 0
-2640 -288 2641 0
-2641 2630 0
-2639 2630 0
-2641 -2639 0
-287 2640 2642 0
-286 2640 2642 0
-286 -287 2642 0
-2642 2639 0
-2650 2601 2651 0
-2646 2601 2651 0
-2646 -2650 2651 0
-2651 2597 0
-2647 2597 0
-2651 -2647 2598 0
-2648 2598 0
-2651 -2648 2599 0
-2649 2599 0
-2651 -2649 2600 0
-2643 2597 0
-2651 -2643 2598 0
-2644 2598 0
-2651 -2644 2599 0
-2645 2599 0
-2651 -2645 2600 0
-2643 -2647 2598 0
-2651 -2643 -2647 2599 0
-2643 -2648 2599 0
-2651 -2643 -2648 2600 0
-2643 -2649 2600 0
-2651 -2643 -2649 0
-2644 -2647 2599 0
-2651 -2644 -2647 2600 0
-2644 -2648 2600 0
-2651 -2644 -2648 0
-2644 -2649 0
-2651 -2644 -2649 0
-2645 -2647 2600 0
-2651 -2645 -2647 0
-2645 -2648 0
-2651 -2645 -2648 0
-2645 -2649 0
-2651 -2645 -2649 0
-2655 2650 2656 0
-2653 2650 2656 0
-2653 -2655 2656 0
-2656 2647 0
-2654 2647 0
-2656 -2654 2648 0
-2652 2647 0
-2656 -2652 2648 0
-2652 -2654 2648 0
-2656 -2652 -2654 2649 0
-285 2655 2659 0
-2658 2655 2659 0
-2658 -285 2659 0
-2659 2654 0
-2657 2654 0
-2659 -2657 0
-284 2658 2660 0
-283 2658 2660 0
-283 -284 2660 0
-2660 2657 0
-282 2653 2663 0
-2662 2653 2663 0
-2662 -282 2663 0
-2663 2652 0
-2661 2652 0
-2663 -2661 0
-281 2662 2664 0
-280 2662 2664 0
-280 -281 2664 0
-2664 2661 0
-2668 2646 2669 0
-2666 2646 2669 0
-2666 -2668 2669 0
-2669 2643 0
-2667 2643 0
-2669 -2667 2644 0
-2665 2643 0
-2669 -2665 2644 0
-2665 -2667 2644 0
-2669 -2665 -2667 2645 0
-279 2668 2672 0
-2671 2668 2672 0
-2671 -279 2672 0
-2672 2667 0
-2670 2667 0
-2672 -2670 0
-278 2671 2673 0
-277 2671 2673 0
-277 -278 2673 0
-2673 2670 0
-276 2666 2676 0
-2675 2666 2676 0
-2675 -276 2676 0
-2676 2665 0
-2674 2665 0
-2676 -2674 0
-275 2675 2677 0
-274 2675 2677 0
-274 -275 2677 0
-2677 2674 0
-2687 2590 2688 0
-2682 2590 2688 0
-2682 -2687 2688 0
-2688 2586 0
-2683 2586 0
-2688 -2683 2587 0
-2684 2587 0
-2688 -2684 2588 0
-2685 2588 0
-2688 -2685 2589 0
-2686 2589 0
-2688 -2686 0
-2678 2586 0
-2688 -2678 2587 0
-2679 2587 0
-2688 -2679 2588 0
-2680 2588 0
-2688 -2680 2589 0
-2681 2589 0
-2688 -2681 0
-2678 -2683 2587 0
-2688 -2678 -2683 2588 0
-2678 -2684 2588 0
-2688 -2678 -2684 2589 0
-2678 -2685 2589 0
-2688 -2678 -2685 0
-2678 -2686 0
-2688 -2678 -2686 0
-2679 -2683 2588 0
-2688 -2679 -2683 2589 0
-2679 -2684 2589 0
-2688 -2679 -2684 0
-2679 -2685 0
-2688 -2679 -2685 0
-2679 -2686 0
-2688 -2679 -2686 0
-2680 -2683 2589 0
-2688 -2680 -2683 0
-2680 -2684 0
-2688 -2680 -2684 0
-2680 -2685 0
-2688 -2680 -2685 0
-2680 -2686 0
-2688 -2680 -2686 0
-2681 -2683 0
-2688 -2681 -2683 0
-2681 -2684 0
-2688 -2681 -2684 0
-2681 -2685 0
-2688 -2681 -2685 0
-2681 -2686 0
-2688 -2681 -2686 0
-2696 2687 2697 0
-2692 2687 2697 0
-2692 -2696 2697 0
-2697 2683 0
-2693 2683 0
-2697 -2693 2684 0
-2694 2684 0
-2697 -2694 2685 0
-2695 2685 0
-2697 -2695 2686 0
-2689 2683 0
-2697 -2689 2684 0
-2690 2684 0
-2697 -2690 2685 0
-2691 2685 0
-2697 -2691 2686 0
-2689 -2693 2684 0
-2697 -2689 -2693 2685 0
-2689 -2694 2685 0
-2697 -2689 -2694 2686 0
-2689 -2695 2686 0
-2697 -2689 -2695 0
-2690 -2693 2685 0
-2697 -2690 -2693 2686 0
-2690 -2694 2686 0
-2697 -2690 -2694 0
-2690 -2695 0
-2697 -2690 -2695 0
-2691 -2693 2686 0
-2697 -2691 -2693 0
-2691 -2694 0
-2697 -2691 -2694 0
-2691 -2695 0
-2697 -2691 -2695 0
-2701 2696 2702 0
-2699 2696 2702 0
-2699 -2701 2702 0
-2702 2693 0
-2700 2693 0
-2702 -2700 2694 0
-2698 2693 0
-2702 -2698 2694 0
-2698 -2700 2694 0
-2702 -2698 -2700 2695 0
-273 2701 2705 0
-2704 2701 2705 0
-2704 -273 2705 0
-2705 2700 0
-2703 2700 0
-2705 -2703 0
-272 2704 2706 0
-271 2704 2706 0
-271 -272 2706 0
-2706 2703 0
-270 2699 2709 0
-2708 2699 2709 0
-2708 -270 2709 0
-2709 2698 0
-2707 2698 0
-2709 -2707 0
-269 2708 2710 0
-268 2708 2710 0
-268 -269 2710 0
-2710 2707 0
-2714 2692 2715 0
-2712 2692 2715 0
-2712 -2714 2715 0
-2715 2689 0
-2713 2689 0
-2715 -2713 2690 0
-2711 2689 0
-2715 -2711 2690 0
-2711 -2713 2690 0
-2715 -2711 -2713 2691 0
-267 2714 2718 0
-2717 2714 2718 0
-2717 -267 2718 0
-2718 2713 0
-2716 2713 0
-2718 -2716 0
-266 2717 2719 0
-265 2717 2719 0
-265 -266 2719 0
-2719 2716 0
-264 2712 2722 0
-2721 2712 2722 0
-2721 -264 2722 0
-2722 2711 0
-2720 2711 0
-2722 -2720 0
-263 2721 2723 0
-262 2721 2723 0
-262 -263 2723 0
-2723 2720 0
-2731 2682 2732 0
-2727 2682 2732 0
-2727 -2731 2732 0
-2732 2678 0
-2728 2678 0
-2732 -2728 2679 0
-2729 2679 0
-2732 -2729 2680 0
-2730 2680 0
-2732 -2730 2681 0
-2724 2678 0
-2732 -2724 2679 0
-2725 2679 0
-2732 -2725 2680 0
-2726 2680 0
-2732 -2726 2681 0
-2724 -2728 2679 0
-2732 -2724 -2728 2680 0
-2724 -2729 2680 0
-2732 -2724 -2729 2681 0
-2724 -2730 2681 0
-2732 -2724 -2730 0
-2725 -2728 2680 0
-2732 -2725 -2728 2681 0
-2725 -2729 2681 0
-2732 -2725 -2729 0
-2725 -2730 0
-2732 -2725 -2730 0
-2726 -2728 2681 0
-2732 -2726 -2728 0
-2726 -2729 0
-2732 -2726 -2729 0
-2726 -2730 0
-2732 -2726 -2730 0
-2736 2731 2737 0
-2734 2731 2737 0
-2734 -2736 2737 0
-2737 2728 0
-2735 2728 0
-2737 -2735 2729 0
-2733 2728 0
-2737 -2733 2729 0
-2733 -2735 2729 0
-2737 -2733 -2735 2730 0
-261 2736 2740 0
-2739 2736 2740 0
-2739 -261 2740 0
-2740 2735 0
-2738 2735 0
-2740 -2738 0
-260 2739 2741 0
-259 2739 2741 0
-259 -260 2741 0
-2741 2738 0
-258 2734 2744 0
-2743 2734 2744 0
-2743 -258 2744 0
-2744 2733 0
-2742 2733 0
-2744 -2742 0
-257 2743 2745 0
-256 2743 2745 0
-256 -257 2745 0
-2745 2742 0
-2750 2727 2751 0
-2748 2727 2751 0
-2748 -2750 2751 0
-2751 2724 0
-2749 2724 0
-2751 -2749 2725 0
-2746 2724 0
-2751 -2746 2725 0
-2747 2725 0
-2751 -2747 2726 0
-2746 -2749 2725 0
-2751 -2746 -2749 2726 0
-2747 -2749 2726 0
-2751 -2747 -2749 0
-255 2750 2754 0
-2753 2750 2754 0
-2753 -255 2754 0
-2754 2749 0
-2752 2749 0
-2754 -2752 0
-254 2753 2755 0
-253 2753 2755 0
-253 -254 2755 0
-2755 2752 0
-2759 2748 2760 0
-2757 2748 2760 0
-2757 -2759 2760 0
-2760 2746 0
-2758 2746 0
-2760 -2758 2747 0
-2756 2746 0
-2760 -2756 2747 0
-2756 -2758 2747 0
-2760 -2756 -2758 0
-252 2759 2761 0
-251 2759 2761 0
-251 -252 2761 0
-2761 2758 0
-250 2757 2762 0
-249 2757 2762 0
-249 -250 2762 0
-2762 2756 0
-2772 2579 2773 0
-2767 2579 2773 0
-2767 -2772 2773 0
-2773 2575 0
-2768 2575 0
-2773 -2768 2576 0
-2769 2576 0
-2773 -2769 2577 0
-2770 2577 0
-2773 -2770 2578 0
-2771 2578 0
-2773 -2771 0
-2763 2575 0
-2773 -2763 2576 0
-2764 2576 0
-2773 -2764 2577 0
-2765 2577 0
-2773 -2765 2578 0
-2766 2578 0
-2773 -2766 0
-2763 -2768 2576 0
-2773 -2763 -2768 2577 0
-2763 -2769 2577 0
-2773 -2763 -2769 2578 0
-2763 -2770 2578 0
-2773 -2763 -2770 0
-2763 -2771 0
-2773 -2763 -2771 0
-2764 -2768 2577 0
-2773 -2764 -2768 2578 0
-2764 -2769 2578 0
-2773 -2764 -2769 0
-2764 -2770 0
-2773 -2764 -2770 0
-2764 -2771 0
-2773 -2764 -2771 0
-2765 -2768 2578 0
-2773 -2765 -2768 0
-2765 -2769 0
-2773 -2765 -2769 0
-2765 -2770 0
-2773 -2765 -2770 0
-2765 -2771 0
-2773 -2765 -2771 0
-2766 -2768 0
-2773 -2766 -2768 0
-2766 -2769 0
-2773 -2766 -2769 0
-2766 -2770 0
-2773 -2766 -2770 0
-2766 -2771 0
-2773 -2766 -2771 0
-2783 2772 2784 0
-2778 2772 2784 0
-2778 -2783 2784 0
-2784 2768 0
-2779 2768 0
-2784 -2779 2769 0
-2780 2769 0
-2784 -2780 2770 0
-2781 2770 0
-2784 -2781 2771 0
-2782 2771 0
-2784 -2782 0
-2774 2768 0
-2784 -2774 2769 0
-2775 2769 0
-2784 -2775 2770 0
-2776 2770 0
-2784 -2776 2771 0
-2777 2771 0
-2784 -2777 0
-2774 -2779 2769 0
-2784 -2774 -2779 2770 0
-2774 -2780 2770 0
-2784 -2774 -2780 2771 0
-2774 -2781 2771 0
-2784 -2774 -2781 0
-2774 -2782 0
-2784 -2774 -2782 0
-2775 -2779 2770 0
-2784 -2775 -2779 2771 0
-2775 -2780 2771 0
-2784 -2775 -2780 0
-2775 -2781 0
-2784 -2775 -2781 0
-2775 -2782 0
-2784 -2775 -2782 0
-2776 -2779 2771 0
-2784 -2776 -2779 0
-2776 -2780 0
-2784 -2776 -2780 0
-2776 -2781 0
-2784 -2776 -2781 0
-2776 -2782 0
-2784 -2776 -2782 0
-2777 -2779 0
-2784 -2777 -2779 0
-2777 -2780 0
-2784 -2777 -2780 0
-2777 -2781 0
-2784 -2777 -2781 0
-2777 -2782 0
-2784 -2777 -2782 0
-2792 2783 2793 0
-2788 2783 2793 0
-2788 -2792 2793 0
-2793 2779 0
-2789 2779 0
-2793 -2789 2780 0
-2790 2780 0
-2793 -2790 2781 0
-2791 2781 0
-2793 -2791 2782 0
-2785 2779 0
-2793 -2785 2780 0
-2786 2780 0
-2793 -2786 2781 0
-2787 2781 0
-2793 -2787 2782 0
-2785 -2789 2780 0
-2793 -2785 -2789 2781 0
-2785 -2790 2781 0
-2793 -2785 -2790 2782 0
-2785 -2791 2782 0
-2793 -2785 -2791 0
-2786 -2789 2781 0
-2793 -2786 -2789 2782 0
-2786 -2790 2782 0
-2793 -2786 -2790 0
-2786 -2791 0
-2793 -2786 -2791 0
-2787 -2789 2782 0
-2793 -2787 -2789 0
-2787 -2790 0
-2793 -2787 -2790 0
-2787 -2791 0
-2793 -2787 -2791 0
-2797 2792 2798 0
-2795 2792 2798 0
-2795 -2797 2798 0
-2798 2789 0
-2796 2789 0
-2798 -2796 2790 0
-2794 2789 0
-2798 -2794 2790 0
-2794 -2796 2790 0
-2798 -2794 -2796 2791 0
-248 2797 2801 0
-2800 2797 2801 0
-2800 -248 2801 0
-2801 2796 0
-2799 2796 0
-2801 -2799 0
-247 2800 2802 0
-246 2800 2802 0
-246 -247 2802 0
-2802 2799 0
-245 2795 2805 0
-2804 2795 2805 0
-2804 -245 2805 0
-2805 2794 0
-2803 2794 0
-2805 -2803 0
-244 2804 2806 0
-243 2804 2806 0
-243 -244 2806 0
-2806 2803 0
-2810 2788 2811 0
-2808 2788 2811 0
-2808 -2810 2811 0
-2811 2785 0
-2809 2785 0
-2811 -2809 2786 0
-2807 2785 0
-2811 -2807 2786 0
-2807 -2809 2786 0
-2811 -2807 -2809 2787 0
-242 2810 2814 0
-2813 2810 2814 0
-2813 -242 2814 0
-2814 2809 0
-2812 2809 0
-2814 -2812 0
-241 2813 2815 0
-240 2813 2815 0
-240 -241 2815 0
-2815 2812 0
-239 2808 2818 0
-2817 2808 2818 0
-2817 -239 2818 0
-2818 2807 0
-2816 2807 0
-2818 -2816 0
-238 2817 2819 0
-237 2817 2819 0
-237 -238 2819 0
-2819 2816 0
-2827 2778 2828 0
-2823 2778 2828 0
-2823 -2827 2828 0
-2828 2774 0
-2824 2774 0
-2828 -2824 2775 0
-2825 2775 0
-2828 -2825 2776 0
-2826 2776 0
-2828 -2826 2777 0
-2820 2774 0
-2828 -2820 2775 0
-2821 2775 0
-2828 -2821 2776 0
-2822 2776 0
-2828 -2822 2777 0
-2820 -2824 2775 0
-2828 -2820 -2824 2776 0
-2820 -2825 2776 0
-2828 -2820 -2825 2777 0
-2820 -2826 2777 0
-2828 -2820 -2826 0
-2821 -2824 2776 0
-2828 -2821 -2824 2777 0
-2821 -2825 2777 0
-2828 -2821 -2825 0
-2821 -2826 0
-2828 -2821 -2826 0
-2822 -2824 2777 0
-2828 -2822 -2824 0
-2822 -2825 0
-2828 -2822 -2825 0
-2822 -2826 0
-2828 -2822 -2826 0
-2832 2827 2833 0
-2830 2827 2833 0
-2830 -2832 2833 0
-2833 2824 0
-2831 2824 0
-2833 -2831 2825 0
-2829 2824 0
-2833 -2829 2825 0
-2829 -2831 2825 0
-2833 -2829 -2831 2826 0
-236 2832 2836 0
-2835 2832 2836 0
-2835 -236 2836 0
-2836 2831 0
-2834 2831 0
-2836 -2834 0
-235 2835 2837 0
-234 2835 2837 0
-234 -235 2837 0
-2837 2834 0
-233 2830 2840 0
-2839 2830 2840 0
-2839 -233 2840 0
-2840 2829 0
-2838 2829 0
-2840 -2838 0
-232 2839 2841 0
-231 2839 2841 0
-231 -232 2841 0
-2841 2838 0
-2846 2823 2847 0
-2844 2823 2847 0
-2844 -2846 2847 0
-2847 2820 0
-2845 2820 0
-2847 -2845 2821 0
-2842 2820 0
-2847 -2842 2821 0
-2843 2821 0
-2847 -2843 2822 0
-2842 -2845 2821 0
-2847 -2842 -2845 2822 0
-2843 -2845 2822 0
-2847 -2843 -2845 0
-230 2846 2850 0
-2849 2846 2850 0
-2849 -230 2850 0
-2850 2845 0
-2848 2845 0
-2850 -2848 0
-229 2849 2851 0
-228 2849 2851 0
-228 -229 2851 0
-2851 2848 0
-2855 2844 2856 0
-2853 2844 2856 0
-2853 -2855 2856 0
-2856 2842 0
-2854 2842 0
-2856 -2854 2843 0
-2852 2842 0
-2856 -2852 2843 0
-2852 -2854 2843 0
-2856 -2852 -2854 0
-227 2855 2857 0
-226 2855 2857 0
-226 -227 2857 0
-2857 2854 0
-225 2853 2858 0
-224 2853 2858 0
-224 -225 2858 0
-2858 2852 0
-2868 2767 2869 0
-2863 2767 2869 0
-2863 -2868 2869 0
-2869 2763 0
-2864 2763 0
-2869 -2864 2764 0
-2865 2764 0
-2869 -2865 2765 0
-2866 2765 0
-2869 -2866 2766 0
-2867 2766 0
-2869 -2867 0
-2859 2763 0
-2869 -2859 2764 0
-2860 2764 0
-2869 -2860 2765 0
-2861 2765 0
-2869 -2861 2766 0
-2862 2766 0
-2869 -2862 0
-2859 -2864 2764 0
-2869 -2859 -2864 2765 0
-2859 -2865 2765 0
-2869 -2859 -2865 2766 0
-2859 -2866 2766 0
-2869 -2859 -2866 0
-2859 -2867 0
-2869 -2859 -2867 0
-2860 -2864 2765 0
-2869 -2860 -2864 2766 0
-2860 -2865 2766 0
-2869 -2860 -2865 0
-2860 -2866 0
-2869 -2860 -2866 0
-2860 -2867 0
-2869 -2860 -2867 0
-2861 -2864 2766 0
-2869 -2861 -2864 0
-2861 -2865 0
-2869 -2861 -2865 0
-2861 -2866 0
-2869 -2861 -2866 0
-2861 -2867 0
-2869 -2861 -2867 0
-2862 -2864 0
-2869 -2862 -2864 0
-2862 -2865 0
-2869 -2862 -2865 0
-2862 -2866 0
-2869 -2862 -2866 0
-2862 -2867 0
-2869 -2862 -2867 0
-2877 2868 2878 0
-2873 2868 2878 0
-2873 -2877 2878 0
-2878 2864 0
-2874 2864 0
-2878 -2874 2865 0
-2875 2865 0
-2878 -2875 2866 0
-2876 2866 0
-2878 -2876 2867 0
-2870 2864 0
-2878 -2870 2865 0
-2871 2865 0
-2878 -2871 2866 0
-2872 2866 0
-2878 -2872 2867 0
-2870 -2874 2865 0
-2878 -2870 -2874 2866 0
-2870 -2875 2866 0
-2878 -2870 -2875 2867 0
-2870 -2876 2867 0
-2878 -2870 -2876 0
-2871 -2874 2866 0
-2878 -2871 -2874 2867 0
-2871 -2875 2867 0
-2878 -2871 -2875 0
-2871 -2876 0
-2878 -2871 -2876 0
-2872 -2874 2867 0
-2878 -2872 -2874 0
-2872 -2875 0
-2878 -2872 -2875 0
-2872 -2876 0
-2878 -2872 -2876 0
-2882 2877 2883 0
-2880 2877 2883 0
-2880 -2882 2883 0
-2883 2874 0
-2881 2874 0
-2883 -2881 2875 0
-2879 2874 0
-2883 -2879 2875 0
-2879 -2881 2875 0
-2883 -2879 -2881 2876 0
-223 2882 2886 0
-2885 2882 2886 0
-2885 -223 2886 0
-2886 2881 0
-2884 2881 0
-2886 -2884 0
-222 2885 2887 0
-221 2885 2887 0
-221 -222 2887 0
-2887 2884 0
-220 2880 2890 0
-2889 2880 2890 0
-2889 -220 2890 0
-2890 2879 0
-2888 2879 0
-2890 -2888 0
-219 2889 2891 0
-218 2889 2891 0
-218 -219 2891 0
-2891 2888 0
-2895 2873 2896 0
-2893 2873 2896 0
-2893 -2895 2896 0
-2896 2870 0
-2894 2870 0
-2896 -2894 2871 0
-2892 2870 0
-2896 -2892 2871 0
-2892 -2894 2871 0
-2896 -2892 -2894 2872 0
-217 2895 2899 0
-2898 2895 2899 0
-2898 -217 2899 0
-2899 2894 0
-2897 2894 0
-2899 -2897 0
-216 2898 2900 0
-215 2898 2900 0
-215 -216 2900 0
-2900 2897 0
-214 2893 2903 0
-2902 2893 2903 0
-2902 -214 2903 0
-2903 2892 0
-2901 2892 0
-2903 -2901 0
-213 2902 2904 0
-212 2902 2904 0
-212 -213 2904 0
-2904 2901 0
-2912 2863 2913 0
-2908 2863 2913 0
-2908 -2912 2913 0
-2913 2859 0
-2909 2859 0
-2913 -2909 2860 0
-2910 2860 0
-2913 -2910 2861 0
-2911 2861 0
-2913 -2911 2862 0
-2905 2859 0
-2913 -2905 2860 0
-2906 2860 0
-2913 -2906 2861 0
-2907 2861 0
-2913 -2907 2862 0
-2905 -2909 2860 0
-2913 -2905 -2909 2861 0
-2905 -2910 2861 0
-2913 -2905 -2910 2862 0
-2905 -2911 2862 0
-2913 -2905 -2911 0
-2906 -2909 2861 0
-2913 -2906 -2909 2862 0
-2906 -2910 2862 0
-2913 -2906 -2910 0
-2906 -2911 0
-2913 -2906 -2911 0
-2907 -2909 2862 0
-2913 -2907 -2909 0
-2907 -2910 0
-2913 -2907 -2910 0
-2907 -2911 0
-2913 -2907 -2911 0
-2917 2912 2918 0
-2915 2912 2918 0
-2915 -2917 2918 0
-2918 2909 0
-2916 2909 0
-2918 -2916 2910 0
-2914 2909 0
-2918 -2914 2910 0
-2914 -2916 2910 0
-2918 -2914 -2916 2911 0
-211 2917 2921 0
-2920 2917 2921 0
-2920 -211 2921 0
-2921 2916 0
-2919 2916 0
-2921 -2919 0
-210 2920 2922 0
-209 2920 2922 0
-209 -210 2922 0
-2922 2919 0
-208 2915 2925 0
-2924 2915 2925 0
-2924 -208 2925 0
-2925 2914 0
-2923 2914 0
-2925 -2923 0
-207 2924 2926 0
-206 2924 2926 0
-206 -207 2926 0
-2926 2923 0
-2931 2908 2932 0
-2929 2908 2932 0
-2929 -2931 2932 0
-2932 2905 0
-2930 2905 0
-2932 -2930 2906 0
-2927 2905 0
-2932 -2927 2906 0
-2928 2906 0
-2932 -2928 2907 0
-2927 -2930 2906 0
-2932 -2927 -2930 2907 0
-2928 -2930 2907 0
-2932 -2928 -2930 0
-205 2931 2935 0
-2934 2931 2935 0
-2934 -205 2935 0
-2935 2930 0
-2933 2930 0
-2935 -2933 0
-204 2934 2936 0
-203 2934 2936 0
-203 -204 2936 0
-2936 2933 0
-2940 2929 2941 0
-2938 2929 2941 0
-2938 -2940 2941 0
-2941 2927 0
-2939 2927 0
-2941 -2939 2928 0
-2937 2927 0
-2941 -2937 2928 0
-2937 -2939 2928 0
-2941 -2937 -2939 0
-202 2940 2942 0
-201 2940 2942 0
-201 -202 2942 0
-2942 2939 0
-200 2938 2943 0
-199 2938 2943 0
-199 -200 2943 0
-2943 2937 0
-2953 2188 2954 0
-2948 2188 2954 0
-2948 -2953 2954 0
-2954 2184 0
-2949 2184 0
-2954 -2949 2185 0
-2950 2185 0
-2954 -2950 2186 0
-2951 2186 0
-2954 -2951 2187 0
-2952 2187 0
-2954 -2952 0
-2944 2184 0
-2954 -2944 2185 0
-2945 2185 0
-2954 -2945 2186 0
-2946 2186 0
-2954 -2946 2187 0
-2947 2187 0
-2954 -2947 0
-2944 -2949 2185 0
-2954 -2944 -2949 2186 0
-2944 -2950 2186 0
-2954 -2944 -2950 2187 0
-2944 -2951 2187 0
-2954 -2944 -2951 0
-2944 -2952 0
-2954 -2944 -2952 0
-2945 -2949 2186 0
-2954 -2945 -2949 2187 0
-2945 -2950 2187 0
-2954 -2945 -2950 0
-2945 -2951 0
-2954 -2945 -2951 0
-2945 -2952 0
-2954 -2945 -2952 0
-2946 -2949 2187 0
-2954 -2946 -2949 0
-2946 -2950 0
-2954 -2946 -2950 0
-2946 -2951 0
-2954 -2946 -2951 0
-2946 -2952 0
-2954 -2946 -2952 0
-2947 -2949 0
-2954 -2947 -2949 0
-2947 -2950 0
-2954 -2947 -2950 0
-2947 -2951 0
-2954 -2947 -2951 0
-2947 -2952 0
-2954 -2947 -2952 0
-2964 2953 2965 0
-2959 2953 2965 0
-2959 -2964 2965 0
-2965 2949 0
-2960 2949 0
-2965 -2960 2950 0
-2961 2950 0
-2965 -2961 2951 0
-2962 2951 0
-2965 -2962 2952 0
-2963 2952 0
-2965 -2963 0
-2955 2949 0
-2965 -2955 2950 0
-2956 2950 0
-2965 -2956 2951 0
-2957 2951 0
-2965 -2957 2952 0
-2958 2952 0
-2965 -2958 0
-2955 -2960 2950 0
-2965 -2955 -2960 2951 0
-2955 -2961 2951 0
-2965 -2955 -2961 2952 0
-2955 -2962 2952 0
-2965 -2955 -2962 0
-2955 -2963 0
-2965 -2955 -2963 0
-2956 -2960 2951 0
-2965 -2956 -2960 2952 0
-2956 -2961 2952 0
-2965 -2956 -2961 0
-2956 -2962 0
-2965 -2956 -2962 0
-2956 -2963 0
-2965 -2956 -2963 0
-2957 -2960 2952 0
-2965 -2957 -2960 0
-2957 -2961 0
-2965 -2957 -2961 0
-2957 -2962 0
-2965 -2957 -2962 0
-2957 -2963 0
-2965 -2957 -2963 0
-2958 -2960 0
-2965 -2958 -2960 0
-2958 -2961 0
-2965 -2958 -2961 0
-2958 -2962 0
-2965 -2958 -2962 0
-2958 -2963 0
-2965 -2958 -2963 0
-2975 2964 2976 0
-2970 2964 2976 0
-2970 -2975 2976 0
-2976 2960 0
-2971 2960 0
-2976 -2971 2961 0
-2972 2961 0
-2976 -2972 2962 0
-2973 2962 0
-2976 -2973 2963 0
-2974 2963 0
-2976 -2974 0
-2966 2960 0
-2976 -2966 2961 0
-2967 2961 0
-2976 -2967 2962 0
-2968 2962 0
-2976 -2968 2963 0
-2969 2963 0
-2976 -2969 0
-2966 -2971 2961 0
-2976 -2966 -2971 2962 0
-2966 -2972 2962 0
-2976 -2966 -2972 2963 0
-2966 -2973 2963 0
-2976 -2966 -2973 0
-2966 -2974 0
-2976 -2966 -2974 0
-2967 -2971 2962 0
-2976 -2967 -2971 2963 0
-2967 -2972 2963 0
-2976 -2967 -2972 0
-2967 -2973 0
-2976 -2967 -2973 0
-2967 -2974 0
-2976 -2967 -2974 0
-2968 -2971 2963 0
-2976 -2968 -2971 0
-2968 -2972 0
-2976 -2968 -2972 0
-2968 -2973 0
-2976 -2968 -2973 0
-2968 -2974 0
-2976 -2968 -2974 0
-2969 -2971 0
-2976 -2969 -2971 0
-2969 -2972 0
-2976 -2969 -2972 0
-2969 -2973 0
-2976 -2969 -2973 0
-2969 -2974 0
-2976 -2969 -2974 0
-2986 2975 2987 0
-2981 2975 2987 0
-2981 -2986 2987 0
-2987 2971 0
-2982 2971 0
-2987 -2982 2972 0
-2983 2972 0
-2987 -2983 2973 0
-2984 2973 0
-2987 -2984 2974 0
-2985 2974 0
-2987 -2985 0
-2977 2971 0
-2987 -2977 2972 0
-2978 2972 0
-2987 -2978 2973 0
-2979 2973 0
-2987 -2979 2974 0
-2980 2974 0
-2987 -2980 0
-2977 -2982 2972 0
-2987 -2977 -2982 2973 0
-2977 -2983 2973 0
-2987 -2977 -2983 2974 0
-2977 -2984 2974 0
-2987 -2977 -2984 0
-2977 -2985 0
-2987 -2977 -2985 0
-2978 -2982 2973 0
-2987 -2978 -2982 2974 0
-2978 -2983 2974 0
-2987 -2978 -2983 0
-2978 -2984 0
-2987 -2978 -2984 0
-2978 -2985 0
-2987 -2978 -2985 0
-2979 -2982 2974 0
-2987 -2979 -2982 0
-2979 -2983 0
-2987 -2979 -2983 0
-2979 -2984 0
-2987 -2979 -2984 0
-2979 -2985 0
-2987 -2979 -2985 0
-2980 -2982 0
-2987 -2980 -2982 0
-2980 -2983 0
-2987 -2980 -2983 0
-2980 -2984 0
-2987 -2980 -2984 0
-2980 -2985 0
-2987 -2980 -2985 0
-2995 2986 2996 0
-2991 2986 2996 0
-2991 -2995 2996 0
-2996 2982 0
-2992 2982 0
-2996 -2992 2983 0
-2993 2983 0
-2996 -2993 2984 0
-2994 2984 0
-2996 -2994 2985 0
-2988 2982 0
-2996 -2988 2983 0
-2989 2983 0
-2996 -2989 2984 0
-2990 2984 0
-2996 -2990 2985 0
-2988 -2992 2983 0
-2996 -2988 -2992 2984 0
-2988 -2993 2984 0
-2996 -2988 -2993 2985 0
-2988 -2994 2985 0
-2996 -2988 -2994 0
-2989 -2992 2984 0
-2996 -2989 -2992 2985 0
-2989 -2993 2985 0
-2996 -2989 -2993 0
-2989 -2994 0
-2996 -2989 -2994 0
-2990 -2992 2985 0
-2996 -2990 -2992 0
-2990 -2993 0
-2996 -2990 -2993 0
-2990 -2994 0
-2996 -2990 -2994 0
-3000 2995 3001 0
-2998 2995 3001 0
-2998 -3000 3001 0
-3001 2992 0
-2999 2992 0
-3001 -2999 2993 0
-2997 2992 0
-3001 -2997 2993 0
-2997 -2999 2993 0
-3001 -2997 -2999 2994 0
-198 3000 3004 0
-3003 3000 3004 0
-3003 -198 3004 0
-3004 2999 0
-3002 2999 0
-3004 -3002 0
-197 3003 3005 0
-196 3003 3005 0
-196 -197 3005 0
-3005 3002 0
-195 2998 3008 0
-3007 2998 3008 0
-3007 -195 3008 0
-3008 2997 0
-3006 2997 0
-3008 -3006 0
-194 3007 3009 0
-193 3007 3009 0
-193 -194 3009 0
-3009 3006 0
-3013 2991 3014 0
-3011 2991 3014 0
-3011 -3013 3014 0
-3014 2988 0
-3012 2988 0
-3014 -3012 2989 0
-3010 2988 0
-3014 -3010 2989 0
-3010 -3012 2989 0
-3014 -3010 -3012 2990 0
-192 3013 3017 0
-3016 3013 3017 0
-3016 -192 3017 0
-3017 3012 0
-3015 3012 0
-3017 -3015 0
-191 3016 3018 0
-190 3016 3018 0
-190 -191 3018 0
-3018 3015 0
-189 3011 3021 0
-3020 3011 3021 0
-3020 -189 3021 0
-3021 3010 0
-3019 3010 0
-3021 -3019 0
-188 3020 3022 0
-187 3020 3022 0
-187 -188 3022 0
-3022 3019 0
-3030 2981 3031 0
-3026 2981 3031 0
-3026 -3030 3031 0
-3031 2977 0
-3027 2977 0
-3031 -3027 2978 0
-3028 2978 0
-3031 -3028 2979 0
-3029 2979 0
-3031 -3029 2980 0
-3023 2977 0
-3031 -3023 2978 0
-3024 2978 0
-3031 -3024 2979 0
-3025 2979 0
-3031 -3025 2980 0
-3023 -3027 2978 0
-3031 -3023 -3027 2979 0
-3023 -3028 2979 0
-3031 -3023 -3028 2980 0
-3023 -3029 2980 0
-3031 -3023 -3029 0
-3024 -3027 2979 0
-3031 -3024 -3027 2980 0
-3024 -3028 2980 0
-3031 -3024 -3028 0
-3024 -3029 0
-3031 -3024 -3029 0
-3025 -3027 2980 0
-3031 -3025 -3027 0
-3025 -3028 0
-3031 -3025 -3028 0
-3025 -3029 0
-3031 -3025 -3029 0
-3035 3030 3036 0
-3033 3030 3036 0
-3033 -3035 3036 0
-3036 3027 0
-3034 3027 0
-3036 -3034 3028 0
-3032 3027 0
-3036 -3032 3028 0
-3032 -3034 3028 0
-3036 -3032 -3034 3029 0
-186 3035 3039 0
-3038 3035 3039 0
-3038 -186 3039 0
-3039 3034 0
-3037 3034 0
-3039 -3037 0
-185 3038 3040 0
-184 3038 3040 0
-184 -185 3040 0
-3040 3037 0
-183 3033 3043 0
-3042 3033 3043 0
-3042 -183 3043 0
-3043 3032 0
-3041 3032 0
-3043 -3041 0
-182 3042 3044 0
-181 3042 3044 0
-181 -182 3044 0
-3044 3041 0
-3048 3026 3049 0
-3046 3026 3049 0
-3046 -3048 3049 0
-3049 3023 0
-3047 3023 0
-3049 -3047 3024 0
-3045 3023 0
-3049 -3045 3024 0
-3045 -3047 3024 0
-3049 -3045 -3047 3025 0
-180 3048 3052 0
-3051 3048 3052 0
-3051 -180 3052 0
-3052 3047 0
-3050 3047 0
-3052 -3050 0
-179 3051 3053 0
-178 3051 3053 0
-178 -179 3053 0
-3053 3050 0
-177 3046 3056 0
-3055 3046 3056 0
-3055 -177 3056 0
-3056 3045 0
-3054 3045 0
-3056 -3054 0
-176 3055 3057 0
-175 3055 3057 0
-175 -176 3057 0
-3057 3054 0
-3067 2970 3068 0
-3062 2970 3068 0
-3062 -3067 3068 0
-3068 2966 0
-3063 2966 0
-3068 -3063 2967 0
-3064 2967 0
-3068 -3064 2968 0
-3065 2968 0
-3068 -3065 2969 0
-3066 2969 0
-3068 -3066 0
-3058 2966 0
-3068 -3058 2967 0
-3059 2967 0
-3068 -3059 2968 0
-3060 2968 0
-3068 -3060 2969 0
-3061 2969 0
-3068 -3061 0
-3058 -3063 2967 0
-3068 -3058 -3063 2968 0
-3058 -3064 2968 0
-3068 -3058 -3064 2969 0
-3058 -3065 2969 0
-3068 -3058 -3065 0
-3058 -3066 0
-3068 -3058 -3066 0
-3059 -3063 2968 0
-3068 -3059 -3063 2969 0
-3059 -3064 2969 0
-3068 -3059 -3064 0
-3059 -3065 0
-3068 -3059 -3065 0
-3059 -3066 0
-3068 -3059 -3066 0
-3060 -3063 2969 0
-3068 -3060 -3063 0
-3060 -3064 0
-3068 -3060 -3064 0
-3060 -3065 0
-3068 -3060 -3065 0
-3060 -3066 0
-3068 -3060 -3066 0
-3061 -3063 0
-3068 -3061 -3063 0
-3061 -3064 0
-3068 -3061 -3064 0
-3061 -3065 0
-3068 -3061 -3065 0
-3061 -3066 0
-3068 -3061 -3066 0
-3076 3067 3077 0
-3072 3067 3077 0
-3072 -3076 3077 0
-3077 3063 0
-3073 3063 0
-3077 -3073 3064 0
-3074 3064 0
-3077 -3074 3065 0
-3075 3065 0
-3077 -3075 3066 0
-3069 3063 0
-3077 -3069 3064 0
-3070 3064 0
-3077 -3070 3065 0
-3071 3065 0
-3077 -3071 3066 0
-3069 -3073 3064 0
-3077 -3069 -3073 3065 0
-3069 -3074 3065 0
-3077 -3069 -3074 3066 0
-3069 -3075 3066 0
-3077 -3069 -3075 0
-3070 -3073 3065 0
-3077 -3070 -3073 3066 0
-3070 -3074 3066 0
-3077 -3070 -3074 0
-3070 -3075 0
-3077 -3070 -3075 0
-3071 -3073 3066 0
-3077 -3071 -3073 0
-3071 -3074 0
-3077 -3071 -3074 0
-3071 -3075 0
-3077 -3071 -3075 0
-3081 3076 3082 0
-3079 3076 3082 0
-3079 -3081 3082 0
-3082 3073 0
-3080 3073 0
-3082 -3080 3074 0
-3078 3073 0
-3082 -3078 3074 0
-3078 -3080 3074 0
-3082 -3078 -3080 3075 0
-174 3081 3085 0
-3084 3081 3085 0
-3084 -174 3085 0
-3085 3080 0
-3083 3080 0
-3085 -3083 0
-173 3084 3086 0
-172 3084 3086 0
-172 -173 3086 0
-3086 3083 0
-171 3079 3089 0
-3088 3079 3089 0
-3088 -171 3089 0
-3089 3078 0
-3087 3078 0
-3089 -3087 0
-170 3088 3090 0
-169 3088 3090 0
-169 -170 3090 0
-3090 3087 0
-3094 3072 3095 0
-3092 3072 3095 0
-3092 -3094 3095 0
-3095 3069 0
-3093 3069 0
-3095 -3093 3070 0
-3091 3069 0
-3095 -3091 3070 0
-3091 -3093 3070 0
-3095 -3091 -3093 3071 0
-168 3094 3098 0
-3097 3094 3098 0
-3097 -168 3098 0
-3098 3093 0
-3096 3093 0
-3098 -3096 0
-167 3097 3099 0
-166 3097 3099 0
-166 -167 3099 0
-3099 3096 0
-165 3092 3102 0
-3101 3092 3102 0
-3101 -165 3102 0
-3102 3091 0
-3100 3091 0
-3102 -3100 0
-164 3101 3103 0
-163 3101 3103 0
-163 -164 3103 0
-3103 3100 0
-3111 3062 3112 0
-3107 3062 3112 0
-3107 -3111 3112 0
-3112 3058 0
-3108 3058 0
-3112 -3108 3059 0
-3109 3059 0
-3112 -3109 3060 0
-3110 3060 0
-3112 -3110 3061 0
-3104 3058 0
-3112 -3104 3059 0
-3105 3059 0
-3112 -3105 3060 0
-3106 3060 0
-3112 -3106 3061 0
-3104 -3108 3059 0
-3112 -3104 -3108 3060 0
-3104 -3109 3060 0
-3112 -3104 -3109 3061 0
-3104 -3110 3061 0
-3112 -3104 -3110 0
-3105 -3108 3060 0
-3112 -3105 -3108 3061 0
-3105 -3109 3061 0
-3112 -3105 -3109 0
-3105 -3110 0
-3112 -3105 -3110 0
-3106 -3108 3061 0
-3112 -3106 -3108 0
-3106 -3109 0
-3112 -3106 -3109 0
-3106 -3110 0
-3112 -3106 -3110 0
-3116 3111 3117 0
-3114 3111 3117 0
-3114 -3116 3117 0
-3117 3108 0
-3115 3108 0
-3117 -3115 3109 0
-3113 3108 0
-3117 -3113 3109 0
-3113 -3115 3109 0
-3117 -3113 -3115 3110 0
-162 3116 3120 0
-3119 3116 3120 0
-3119 -162 3120 0
-3120 3115 0
-3118 3115 0
-3120 -3118 0
-161 3119 3121 0
-160 3119 3121 0
-160 -161 3121 0
-3121 3118 0
-159 3114 3124 0
-3123 3114 3124 0
-3123 -159 3124 0
-3124 3113 0
-3122 3113 0
-3124 -3122 0
-158 3123 3125 0
-157 3123 3125 0
-157 -158 3125 0
-3125 3122 0
-3130 3107 3131 0
-3128 3107 3131 0
-3128 -3130 3131 0
-3131 3104 0
-3129 3104 0
-3131 -3129 3105 0
-3126 3104 0
-3131 -3126 3105 0
-3127 3105 0
-3131 -3127 3106 0
-3126 -3129 3105 0
-3131 -3126 -3129 3106 0
-3127 -3129 3106 0
-3131 -3127 -3129 0
-156 3130 3134 0
-3133 3130 3134 0
-3133 -156 3134 0
-3134 3129 0
-3132 3129 0
-3134 -3132 0
-155 3133 3135 0
-154 3133 3135 0
-154 -155 3135 0
-3135 3132 0
-3139 3128 3140 0
-3137 3128 3140 0
-3137 -3139 3140 0
-3140 3126 0
-3138 3126 0
-3140 -3138 3127 0
-3136 3126 0
-3140 -3136 3127 0
-3136 -3138 3127 0
-3140 -3136 -3138 0
-153 3139 3141 0
-152 3139 3141 0
-152 -153 3141 0
-3141 3138 0
-151 3137 3142 0
-150 3137 3142 0
-150 -151 3142 0
-3142 3136 0
-3152 2959 3153 0
-3147 2959 3153 0
-3147 -3152 3153 0
-3153 2955 0
-3148 2955 0
-3153 -3148 2956 0
-3149 2956 0
-3153 -3149 2957 0
-3150 2957 0
-3153 -3150 2958 0
-3151 2958 0
-3153 -3151 0
-3143 2955 0
-3153 -3143 2956 0
-3144 2956 0
-3153 -3144 2957 0
-3145 2957 0
-3153 -3145 2958 0
-3146 2958 0
-3153 -3146 0
-3143 -3148 2956 0
-3153 -3143 -3148 2957 0
-3143 -3149 2957 0
-3153 -3143 -3149 2958 0
-3143 -3150 2958 0
-3153 -3143 -3150 0
-3143 -3151 0
-3153 -3143 -3151 0
-3144 -3148 2957 0
-3153 -3144 -3148 2958 0
-3144 -3149 2958 0
-3153 -3144 -3149 0
-3144 -3150 0
-3153 -3144 -3150 0
-3144 -3151 0
-3153 -3144 -3151 0
-3145 -3148 2958 0
-3153 -3145 -3148 0
-3145 -3149 0
-3153 -3145 -3149 0
-3145 -3150 0
-3153 -3145 -3150 0
-3145 -3151 0
-3153 -3145 -3151 0
-3146 -3148 0
-3153 -3146 -3148 0
-3146 -3149 0
-3153 -3146 -3149 0
-3146 -3150 0
-3153 -3146 -3150 0
-3146 -3151 0
-3153 -3146 -3151 0
-3163 3152 3164 0
-3158 3152 3164 0
-3158 -3163 3164 0
-3164 3148 0
-3159 3148 0
-3164 -3159 3149 0
-3160 3149 0
-3164 -3160 3150 0
-3161 3150 0
-3164 -3161 3151 0
-3162 3151 0
-3164 -3162 0
-3154 3148 0
-3164 -3154 3149 0
-3155 3149 0
-3164 -3155 3150 0
-3156 3150 0
-3164 -3156 3151 0
-3157 3151 0
-3164 -3157 0
-3154 -3159 3149 0
-3164 -3154 -3159 3150 0
-3154 -3160 3150 0
-3164 -3154 -3160 3151 0
-3154 -3161 3151 0
-3164 -3154 -3161 0
-3154 -3162 0
-3164 -3154 -3162 0
-3155 -3159 3150 0
-3164 -3155 -3159 3151 0
-3155 -3160 3151 0
-3164 -3155 -3160 0
-3155 -3161 0
-3164 -3155 -3161 0
-3155 -3162 0
-3164 -3155 -3162 0
-3156 -3159 3151 0
-3164 -3156 -3159 0
-3156 -3160 0
-3164 -3156 -3160 0
-3156 -3161 0
-3164 -3156 -3161 0
-3156 -3162 0
-3164 -3156 -3162 0
-3157 -3159 0
-3164 -3157 -3159 0
-3157 -3160 0
-3164 -3157 -3160 0
-3157 -3161 0
-3164 -3157 -3161 0
-3157 -3162 0
-3164 -3157 -3162 0
-3172 3163 3173 0
-3168 3163 3173 0
-3168 -3172 3173 0
-3173 3159 0
-3169 3159 0
-3173 -3169 3160 0
-3170 3160 0
-3173 -3170 3161 0
-3171 3161 0
-3173 -3171 3162 0
-3165 3159 0
-3173 -3165 3160 0
-3166 3160 0
-3173 -3166 3161 0
-3167 3161 0
-3173 -3167 3162 0
-3165 -3169 3160 0
-3173 -3165 -3169 3161 0
-3165 -3170 3161 0
-3173 -3165 -3170 3162 0
-3165 -3171 3162 0
-3173 -3165 -3171 0
-3166 -3169 3161 0
-3173 -3166 -3169 3162 0
-3166 -3170 3162 0
-3173 -3166 -3170 0
-3166 -3171 0
-3173 -3166 -3171 0
-3167 -3169 3162 0
-3173 -3167 -3169 0
-3167 -3170 0
-3173 -3167 -3170 0
-3167 -3171 0
-3173 -3167 -3171 0
-3177 3172 3178 0
-3175 3172 3178 0
-3175 -3177 3178 0
-3178 3169 0
-3176 3169 0
-3178 -3176 3170 0
-3174 3169 0
-3178 -3174 3170 0
-3174 -3176 3170 0
-3178 -3174 -3176 3171 0
-149 3177 3181 0
-3180 3177 3181 0
-3180 -149 3181 0
-3181 3176 0
-3179 3176 0
-3181 -3179 0
-148 3180 3182 0
-147 3180 3182 0
-147 -148 3182 0
-3182 3179 0
-146 3175 3185 0
-3184 3175 3185 0
-3184 -146 3185 0
-3185 3174 0
-3183 3174 0
-3185 -3183 0
-145 3184 3186 0
-144 3184 3186 0
-144 -145 3186 0
-3186 3183 0
-3190 3168 3191 0
-3188 3168 3191 0
-3188 -3190 3191 0
-3191 3165 0
-3189 3165 0
-3191 -3189 3166 0
-3187 3165 0
-3191 -3187 3166 0
-3187 -3189 3166 0
-3191 -3187 -3189 3167 0
-143 3190 3194 0
-3193 3190 3194 0
-3193 -143 3194 0
-3194 3189 0
-3192 3189 0
-3194 -3192 0
-142 3193 3195 0
-141 3193 3195 0
-141 -142 3195 0
-3195 3192 0
-140 3188 3198 0
-3197 3188 3198 0
-3197 -140 3198 0
-3198 3187 0
-3196 3187 0
-3198 -3196 0
-139 3197 3199 0
-138 3197 3199 0
-138 -139 3199 0
-3199 3196 0
-3207 3158 3208 0
-3203 3158 3208 0
-3203 -3207 3208 0
-3208 3154 0
-3204 3154 0
-3208 -3204 3155 0
-3205 3155 0
-3208 -3205 3156 0
-3206 3156 0
-3208 -3206 3157 0
-3200 3154 0
-3208 -3200 3155 0
-3201 3155 0
-3208 -3201 3156 0
-3202 3156 0
-3208 -3202 3157 0
-3200 -3204 3155 0
-3208 -3200 -3204 3156 0
-3200 -3205 3156 0
-3208 -3200 -3205 3157 0
-3200 -3206 3157 0
-3208 -3200 -3206 0
-3201 -3204 3156 0
-3208 -3201 -3204 3157 0
-3201 -3205 3157 0
-3208 -3201 -3205 0
-3201 -3206 0
-3208 -3201 -3206 0
-3202 -3204 3157 0
-3208 -3202 -3204 0
-3202 -3205 0
-3208 -3202 -3205 0
-3202 -3206 0
-3208 -3202 -3206 0
-3212 3207 3213 0
-3210 3207 3213 0
-3210 -3212 3213 0
-3213 3204 0
-3211 3204 0
-3213 -3211 3205 0
-3209 3204 0
-3213 -3209 3205 0
-3209 -3211 3205 0
-3213 -3209 -3211 3206 0
-137 3212 3216 0
-3215 3212 3216 0
-3215 -137 3216 0
-3216 3211 0
-3214 3211 0
-3216 -3214 0
-136 3215 3217 0
-135 3215 3217 0
-135 -136 3217 0
-3217 3214 0
-134 3210 3220 0
-3219 3210 3220 0
-3219 -134 3220 0
-3220 3209 0
-3218 3209 0
-3220 -3218 0
-133 3219 3221 0
-132 3219 3221 0
-132 -133 3221 0
-3221 3218 0
-3226 3203 3227 0
-3224 3203 3227 0
-3224 -3226 3227 0
-3227 3200 0
-3225 3200 0
-3227 -3225 3201 0
-3222 3200 0
-3227 -3222 3201 0
-3223 3201 0
-3227 -3223 3202 0
-3222 -3225 3201 0
-3227 -3222 -3225 3202 0
-3223 -3225 3202 0
-3227 -3223 -3225 0
-131 3226 3230 0
-3229 3226 3230 0
-3229 -131 3230 0
-3230 3225 0
-3228 3225 0
-3230 -3228 0
-130 3229 3231 0
-129 3229 3231 0
-129 -130 3231 0
-3231 3228 0
-3235 3224 3236 0
-3233 3224 3236 0
-3233 -3235 3236 0
-3236 3222 0
-3234 3222 0
-3236 -3234 3223 0
-3232 3222 0
-3236 -3232 3223 0
-3232 -3234 3223 0
-3236 -3232 -3234 0
-128 3235 3237 0
-127 3235 3237 0
-127 -128 3237 0
-3237 3234 0
-126 3233 3238 0
-125 3233 3238 0
-125 -126 3238 0
-3238 3232 0
-3248 3147 3249 0
-3243 3147 3249 0
-3243 -3248 3249 0
-3249 3143 0
-3244 3143 0
-3249 -3244 3144 0
-3245 3144 0
-3249 -3245 3145 0
-3246 3145 0
-3249 -3246 3146 0
-3247 3146 0
-3249 -3247 0
-3239 3143 0
-3249 -3239 3144 0
-3240 3144 0
-3249 -3240 3145 0
-3241 3145 0
-3249 -3241 3146 0
-3242 3146 0
-3249 -3242 0
-3239 -3244 3144 0
-3249 -3239 -3244 3145 0
-3239 -3245 3145 0
-3249 -3239 -3245 3146 0
-3239 -3246 3146 0
-3249 -3239 -3246 0
-3239 -3247 0
-3249 -3239 -3247 0
-3240 -3244 3145 0
-3249 -3240 -3244 3146 0
-3240 -3245 3146 0
-3249 -3240 -3245 0
-3240 -3246 0
-3249 -3240 -3246 0
-3240 -3247 0
-3249 -3240 -3247 0
-3241 -3244 3146 0
-3249 -3241 -3244 0
-3241 -3245 0
-3249 -3241 -3245 0
-3241 -3246 0
-3249 -3241 -3246 0
-3241 -3247 0
-3249 -3241 -3247 0
-3242 -3244 0
-3249 -3242 -3244 0
-3242 -3245 0
-3249 -3242 -3245 0
-3242 -3246 0
-3249 -3242 -3246 0
-3242 -3247 0
-3249 -3242 -3247 0
-3257 3248 3258 0
-3253 3248 3258 0
-3253 -3257 3258 0
-3258 3244 0
-3254 3244 0
-3258 -3254 3245 0
-3255 3245 0
-3258 -3255 3246 0
-3256 3246 0
-3258 -3256 3247 0
-3250 3244 0
-3258 -3250 3245 0
-3251 3245 0
-3258 -3251 3246 0
-3252 3246 0
-3258 -3252 3247 0
-3250 -3254 3245 0
-3258 -3250 -3254 3246 0
-3250 -3255 3246 0
-3258 -3250 -3255 3247 0
-3250 -3256 3247 0
-3258 -3250 -3256 0
-3251 -3254 3246 0
-3258 -3251 -3254 3247 0
-3251 -3255 3247 0
-3258 -3251 -3255 0
-3251 -3256 0
-3258 -3251 -3256 0
-3252 -3254 3247 0
-3258 -3252 -3254 0
-3252 -3255 0
-3258 -3252 -3255 0
-3252 -3256 0
-3258 -3252 -3256 0
-3262 3257 3263 0
-3260 3257 3263 0
-3260 -3262 3263 0
-3263 3254 0
-3261 3254 0
-3263 -3261 3255 0
-3259 3254 0
-3263 -3259 3255 0
-3259 -3261 3255 0
-3263 -3259 -3261 3256 0
-124 3262 3266 0
-3265 3262 3266 0
-3265 -124 3266 0
-3266 3261 0
-3264 3261 0
-3266 -3264 0
-123 3265 3267 0
-122 3265 3267 0
-122 -123 3267 0
-3267 3264 0
-121 3260 3270 0
-3269 3260 3270 0
-3269 -121 3270 0
-3270 3259 0
-3268 3259 0
-3270 -3268 0
-120 3269 3271 0
-119 3269 3271 0
-119 -120 3271 0
-3271 3268 0
-3275 3253 3276 0
-3273 3253 3276 0
-3273 -3275 3276 0
-3276 3250 0
-3274 3250 0
-3276 -3274 3251 0
-3272 3250 0
-3276 -3272 3251 0
-3272 -3274 3251 0
-3276 -3272 -3274 3252 0
-118 3275 3279 0
-3278 3275 3279 0
-3278 -118 3279 0
-3279 3274 0
-3277 3274 0
-3279 -3277 0
-117 3278 3280 0
-116 3278 3280 0
-116 -117 3280 0
-3280 3277 0
-115 3273 3283 0
-3282 3273 3283 0
-3282 -115 3283 0
-3283 3272 0
-3281 3272 0
-3283 -3281 0
-114 3282 3284 0
-113 3282 3284 0
-113 -114 3284 0
-3284 3281 0
-3292 3243 3293 0
-3288 3243 3293 0
-3288 -3292 3293 0
-3293 3239 0
-3289 3239 0
-3293 -3289 3240 0
-3290 3240 0
-3293 -3290 3241 0
-3291 3241 0
-3293 -3291 3242 0
-3285 3239 0
-3293 -3285 3240 0
-3286 3240 0
-3293 -3286 3241 0
-3287 3241 0
-3293 -3287 3242 0
-3285 -3289 3240 0
-3293 -3285 -3289 3241 0
-3285 -3290 3241 0
-3293 -3285 -3290 3242 0
-3285 -3291 3242 0
-3293 -3285 -3291 0
-3286 -3289 3241 0
-3293 -3286 -3289 3242 0
-3286 -3290 3242 0
-3293 -3286 -3290 0
-3286 -3291 0
-3293 -3286 -3291 0
-3287 -3289 3242 0
-3293 -3287 -3289 0
-3287 -3290 0
-3293 -3287 -3290 0
-3287 -3291 0
-3293 -3287 -3291 0
-3297 3292 3298 0
-3295 3292 3298 0
-3295 -3297 3298 0
-3298 3289 0
-3296 3289 0
-3298 -3296 3290 0
-3294 3289 0
-3298 -3294 3290 0
-3294 -3296 3290 0
-3298 -3294 -3296 3291 0
-112 3297 3301 0
-3300 3297 3301 0
-3300 -112 3301 0
-3301 3296 0
-3299 3296 0
-3301 -3299 0
-111 3300 3302 0
-110 3300 3302 0
-110 -111 3302 0
-3302 3299 0
-109 3295 3305 0
-3304 3295 3305 0
-3304 -109 3305 0
-3305 3294 0
-3303 3294 0
-3305 -3303 0
-108 3304 3306 0
-107 3304 3306 0
-107 -108 3306 0
-3306 3303 0
-3311 3288 3312 0
-3309 3288 3312 0
-3309 -3311 3312 0
-3312 3285 0
-3310 3285 0
-3312 -3310 3286 0
-3307 3285 0
-3312 -3307 3286 0
-3308 3286 0
-3312 -3308 3287 0
-3307 -3310 3286 0
-3312 -3307 -3310 3287 0
-3308 -3310 3287 0
-3312 -3308 -3310 0
-106 3311 3315 0
-3314 3311 3315 0
-3314 -106 3315 0
-3315 3310 0
-3313 3310 0
-3315 -3313 0
-105 3314 3316 0
-104 3314 3316 0
-104 -105 3316 0
-3316 3313 0
-3320 3309 3321 0
-3318 3309 3321 0
-3318 -3320 3321 0
-3321 3307 0
-3319 3307 0
-3321 -3319 3308 0
-3317 3307 0
-3321 -3317 3308 0
-3317 -3319 3308 0
-3321 -3317 -3319 0
-103 3320 3322 0
-102 3320 3322 0
-102 -103 3322 0
-3322 3319 0
-101 3318 3323 0
-100 3318 3323 0
-100 -101 3323 0
-3323 3317 0
-3333 2948 3334 0
-3328 2948 3334 0
-3328 -3333 3334 0
-3334 2944 0
-3329 2944 0
-3334 -3329 2945 0
-3330 2945 0
-3334 -3330 2946 0
-3331 2946 0
-3334 -3331 2947 0
-3332 2947 0
-3334 -3332 0
-3324 2944 0
-3334 -3324 2945 0
-3325 2945 0
-3334 -3325 2946 0
-3326 2946 0
-3334 -3326 2947 0
-3327 2947 0
-3334 -3327 0
-3324 -3329 2945 0
-3334 -3324 -3329 2946 0
-3324 -3330 2946 0
-3334 -3324 -3330 2947 0
-3324 -3331 2947 0
-3334 -3324 -3331 0
-3324 -3332 0
-3334 -3324 -3332 0
-3325 -3329 2946 0
-3334 -3325 -3329 2947 0
-3325 -3330 2947 0
-3334 -3325 -3330 0
-3325 -3331 0
-3334 -3325 -3331 0
-3325 -3332 0
-3334 -3325 -3332 0
-3326 -3329 2947 0
-3334 -3326 -3329 0
-3326 -3330 0
-3334 -3326 -3330 0
-3326 -3331 0
-3334 -3326 -3331 0
-3326 -3332 0
-3334 -3326 -3332 0
-3327 -3329 0
-3334 -3327 -3329 0
-3327 -3330 0
-3334 -3327 -3330 0
-3327 -3331 0
-3334 -3327 -3331 0
-3327 -3332 0
-3334 -3327 -3332 0
-3344 3333 3345 0
-3339 3333 3345 0
-3339 -3344 3345 0
-3345 3329 0
-3340 3329 0
-3345 -3340 3330 0
-3341 3330 0
-3345 -3341 3331 0
-3342 3331 0
-3345 -3342 3332 0
-3343 3332 0
-3345 -3343 0
-3335 3329 0
-3345 -3335 3330 0
-3336 3330 0
-3345 -3336 3331 0
-3337 3331 0
-3345 -3337 3332 0
-3338 3332 0
-3345 -3338 0
-3335 -3340 3330 0
-3345 -3335 -3340 3331 0
-3335 -3341 3331 0
-3345 -3335 -3341 3332 0
-3335 -3342 3332 0
-3345 -3335 -3342 0
-3335 -3343 0
-3345 -3335 -3343 0
-3336 -3340 3331 0
-3345 -3336 -3340 3332 0
-3336 -3341 3332 0
-3345 -3336 -3341 0
-3336 -3342 0
-3345 -3336 -3342 0
-3336 -3343 0
-3345 -3336 -3343 0
-3337 -3340 3332 0
-3345 -3337 -3340 0
-3337 -3341 0
-3345 -3337 -3341 0
-3337 -3342 0
-3345 -3337 -3342 0
-3337 -3343 0
-3345 -3337 -3343 0
-3338 -3340 0
-3345 -3338 -3340 0
-3338 -3341 0
-3345 -3338 -3341 0
-3338 -3342 0
-3345 -3338 -3342 0
-3338 -3343 0
-3345 -3338 -3343 0
-3355 3344 3356 0
-3350 3344 3356 0
-3350 -3355 3356 0
-3356 3340 0
-3351 3340 0
-3356 -3351 3341 0
-3352 3341 0
-3356 -3352 3342 0
-3353 3342 0
-3356 -3353 3343 0
-3354 3343 0
-3356 -3354 0
-3346 3340 0
-3356 -3346 3341 0
-3347 3341 0
-3356 -3347 3342 0
-3348 3342 0
-3356 -3348 3343 0
-3349 3343 0
-3356 -3349 0
-3346 -3351 3341 0
-3356 -3346 -3351 3342 0
-3346 -3352 3342 0
-3356 -3346 -3352 3343 0
-3346 -3353 3343 0
-3356 -3346 -3353 0
-3346 -3354 0
-3356 -3346 -3354 0
-3347 -3351 3342 0
-3356 -3347 -3351 3343 0
-3347 -3352 3343 0
-3356 -3347 -3352 0
-3347 -3353 0
-3356 -3347 -3353 0
-3347 -3354 0
-3356 -3347 -3354 0
-3348 -3351 3343 0
-3356 -3348 -3351 0
-3348 -3352 0
-3356 -3348 -3352 0
-3348 -3353 0
-3356 -3348 -3353 0
-3348 -3354 0
-3356 -3348 -3354 0
-3349 -3351 0
-3356 -3349 -3351 0
-3349 -3352 0
-3356 -3349 -3352 0
-3349 -3353 0
-3356 -3349 -3353 0
-3349 -3354 0
-3356 -3349 -3354 0
-3364 3355 3365 0
-3360 3355 3365 0
-3360 -3364 3365 0
-3365 3351 0
-3361 3351 0
-3365 -3361 3352 0
-3362 3352 0
-3365 -3362 3353 0
-3363 3353 0
-3365 -3363 3354 0
-3357 3351 0
-3365 -3357 3352 0
-3358 3352 0
-3365 -3358 3353 0
-3359 3353 0
-3365 -3359 3354 0
-3357 -3361 3352 0
-3365 -3357 -3361 3353 0
-3357 -3362 3353 0
-3365 -3357 -3362 3354 0
-3357 -3363 3354 0
-3365 -3357 -3363 0
-3358 -3361 3353 0
-3365 -3358 -3361 3354 0
-3358 -3362 3354 0
-3365 -3358 -3362 0
-3358 -3363 0
-3365 -3358 -3363 0
-3359 -3361 3354 0
-3365 -3359 -3361 0
-3359 -3362 0
-3365 -3359 -3362 0
-3359 -3363 0
-3365 -3359 -3363 0
-3369 3364 3370 0
-3367 3364 3370 0
-3367 -3369 3370 0
-3370 3361 0
-3368 3361 0
-3370 -3368 3362 0
-3366 3361 0
-3370 -3366 3362 0
-3366 -3368 3362 0
-3370 -3366 -3368 3363 0
-99 3369 3373 0
-3372 3369 3373 0
-3372 -99 3373 0
-3373 3368 0
-3371 3368 0
-3373 -3371 0
-98 3372 3374 0
-97 3372 3374 0
-97 -98 3374 0
-3374 3371 0
-96 3367 3377 0
-3376 3367 3377 0
-3376 -96 3377 0
-3377 3366 0
-3375 3366 0
-3377 -3375 0
-95 3376 3378 0
-94 3376 3378 0
-94 -95 3378 0
-3378 3375 0
-3382 3360 3383 0
-3380 3360 3383 0
-3380 -3382 3383 0
-3383 3357 0
-3381 3357 0
-3383 -3381 3358 0
-3379 3357 0
-3383 -3379 3358 0
-3379 -3381 3358 0
-3383 -3379 -3381 3359 0
-93 3382 3386 0
-3385 3382 3386 0
-3385 -93 3386 0
-3386 3381 0
-3384 3381 0
-3386 -3384 0
-92 3385 3387 0
-91 3385 3387 0
-91 -92 3387 0
-3387 3384 0
-90 3380 3390 0
-3389 3380 3390 0
-3389 -90 3390 0
-3390 3379 0
-3388 3379 0
-3390 -3388 0
-89 3389 3391 0
-88 3389 3391 0
-88 -89 3391 0
-3391 3388 0
-3399 3350 3400 0
-3395 3350 3400 0
-3395 -3399 3400 0
-3400 3346 0
-3396 3346 0
-3400 -3396 3347 0
-3397 3347 0
-3400 -3397 3348 0
-3398 3348 0
-3400 -3398 3349 0
-3392 3346 0
-3400 -3392 3347 0
-3393 3347 0
-3400 -3393 3348 0
-3394 3348 0
-3400 -3394 3349 0
-3392 -3396 3347 0
-3400 -3392 -3396 3348 0
-3392 -3397 3348 0
-3400 -3392 -3397 3349 0
-3392 -3398 3349 0
-3400 -3392 -3398 0
-3393 -3396 3348 0
-3400 -3393 -3396 3349 0
-3393 -3397 3349 0
-3400 -3393 -3397 0
-3393 -3398 0
-3400 -3393 -3398 0
-3394 -3396 3349 0
-3400 -3394 -3396 0
-3394 -3397 0
-3400 -3394 -3397 0
-3394 -3398 0
-3400 -3394 -3398 0
-3404 3399 3405 0
-3402 3399 3405 0
-3402 -3404 3405 0
-3405 3396 0
-3403 3396 0
-3405 -3403 3397 0
-3401 3396 0
-3405 -3401 3397 0
-3401 -3403 3397 0
-3405 -3401 -3403 3398 0
-87 3404 3408 0
-3407 3404 3408 0
-3407 -87 3408 0
-3408 3403 0
-3406 3403 0
-3408 -3406 0
-86 3407 3409 0
-85 3407 3409 0
-85 -86 3409 0
-3409 3406 0
-84 3402 3412 0
-3411 3402 3412 0
-3411 -84 3412 0
-3412 3401 0
-3410 3401 0
-3412 -3410 0
-83 3411 3413 0
-82 3411 3413 0
-82 -83 3413 0
-3413 3410 0
-3417 3395 3418 0
-3415 3395 3418 0
-3415 -3417 3418 0
-3418 3392 0
-3416 3392 0
-3418 -3416 3393 0
-3414 3392 0
-3418 -3414 3393 0
-3414 -3416 3393 0
-3418 -3414 -3416 3394 0
-81 3417 3421 0
-3420 3417 3421 0
-3420 -81 3421 0
-3421 3416 0
-3419 3416 0
-3421 -3419 0
-80 3420 3422 0
-79 3420 3422 0
-79 -80 3422 0
-3422 3419 0
-78 3415 3425 0
-3424 3415 3425 0
-3424 -78 3425 0
-3425 3414 0
-3423 3414 0
-3425 -3423 0
-77 3424 3426 0
-76 3424 3426 0
-76 -77 3426 0
-3426 3423 0
-3436 3339 3437 0
-3431 3339 3437 0
-3431 -3436 3437 0
-3437 3335 0
-3432 3335 0
-3437 -3432 3336 0
-3433 3336 0
-3437 -3433 3337 0
-3434 3337 0
-3437 -3434 3338 0
-3435 3338 0
-3437 -3435 0
-3427 3335 0
-3437 -3427 3336 0
-3428 3336 0
-3437 -3428 3337 0
-3429 3337 0
-3437 -3429 3338 0
-3430 3338 0
-3437 -3430 0
-3427 -3432 3336 0
-3437 -3427 -3432 3337 0
-3427 -3433 3337 0
-3437 -3427 -3433 3338 0
-3427 -3434 3338 0
-3437 -3427 -3434 0
-3427 -3435 0
-3437 -3427 -3435 0
-3428 -3432 3337 0
-3437 -3428 -3432 3338 0
-3428 -3433 3338 0
-3437 -3428 -3433 0
-3428 -3434 0
-3437 -3428 -3434 0
-3428 -3435 0
-3437 -3428 -3435 0
-3429 -3432 3338 0
-3437 -3429 -3432 0
-3429 -3433 0
-3437 -3429 -3433 0
-3429 -3434 0
-3437 -3429 -3434 0
-3429 -3435 0
-3437 -3429 -3435 0
-3430 -3432 0
-3437 -3430 -3432 0
-3430 -3433 0
-3437 -3430 -3433 0
-3430 -3434 0
-3437 -3430 -3434 0
-3430 -3435 0
-3437 -3430 -3435 0
-3445 3436 3446 0
-3441 3436 3446 0
-3441 -3445 3446 0
-3446 3432 0
-3442 3432 0
-3446 -3442 3433 0
-3443 3433 0
-3446 -3443 3434 0
-3444 3434 0
-3446 -3444 3435 0
-3438 3432 0
-3446 -3438 3433 0
-3439 3433 0
-3446 -3439 3434 0
-3440 3434 0
-3446 -3440 3435 0
-3438 -3442 3433 0
-3446 -3438 -3442 3434 0
-3438 -3443 3434 0
-3446 -3438 -3443 3435 0
-3438 -3444 3435 0
-3446 -3438 -3444 0
-3439 -3442 3434 0
-3446 -3439 -3442 3435 0
-3439 -3443 3435 0
-3446 -3439 -3443 0
-3439 -3444 0
-3446 -3439 -3444 0
-3440 -3442 3435 0
-3446 -3440 -3442 0
-3440 -3443 0
-3446 -3440 -3443 0
-3440 -3444 0
-3446 -3440 -3444 0
-3450 3445 3451 0
-3448 3445 3451 0
-3448 -3450 3451 0
-3451 3442 0
-3449 3442 0
-3451 -3449 3443 0
-3447 3442 0
-3451 -3447 3443 0
-3447 -3449 3443 0
-3451 -3447 -3449 3444 0
-75 3450 3454 0
-3453 3450 3454 0
-3453 -75 3454 0
-3454 3449 0
-3452 3449 0
-3454 -3452 0
-74 3453 3455 0
-73 3453 3455 0
-73 -74 3455 0
-3455 3452 0
-72 3448 3458 0
-3457 3448 3458 0
-3457 -72 3458 0
-3458 3447 0
-3456 3447 0
-3458 -3456 0
-71 3457 3459 0
-70 3457 3459 0
-70 -71 3459 0
-3459 3456 0
-3463 3441 3464 0
-3461 3441 3464 0
-3461 -3463 3464 0
-3464 3438 0
-3462 3438 0
-3464 -3462 3439 0
-3460 3438 0
-3464 -3460 3439 0
-3460 -3462 3439 0
-3464 -3460 -3462 3440 0
-69 3463 3467 0
-3466 3463 3467 0
-3466 -69 3467 0
-3467 3462 0
-3465 3462 0
-3467 -3465 0
-68 3466 3468 0
-67 3466 3468 0
-67 -68 3468 0
-3468 3465 0
-66 3461 3471 0
-3470 3461 3471 0
-3470 -66 3471 0
-3471 3460 0
-3469 3460 0
-3471 -3469 0
-65 3470 3472 0
-64 3470 3472 0
-64 -65 3472 0
-3472 3469 0
-3480 3431 3481 0
-3476 3431 3481 0
-3476 -3480 3481 0
-3481 3427 0
-3477 3427 0
-3481 -3477 3428 0
-3478 3428 0
-3481 -3478 3429 0
-3479 3429 0
-3481 -3479 3430 0
-3473 3427 0
-3481 -3473 3428 0
-3474 3428 0
-3481 -3474 3429 0
-3475 3429 0
-3481 -3475 3430 0
-3473 -3477 3428 0
-3481 -3473 -3477 3429 0
-3473 -3478 3429 0
-3481 -3473 -3478 3430 0
-3473 -3479 3430 0
-3481 -3473 -3479 0
-3474 -3477 3429 0
-3481 -3474 -3477 3430 0
-3474 -3478 3430 0
-3481 -3474 -3478 0
-3474 -3479 0
-3481 -3474 -3479 0
-3475 -3477 3430 0
-3481 -3475 -3477 0
-3475 -3478 0
-3481 -3475 -3478 0
-3475 -3479 0
-3481 -3475 -3479 0
-3485 3480 3486 0
-3483 3480 3486 0
-3483 -3485 3486 0
-3486 3477 0
-3484 3477 0
-3486 -3484 3478 0
-3482 3477 0
-3486 -3482 3478 0
-3482 -3484 3478 0
-3486 -3482 -3484 3479 0
-63 3485 3489 0
-3488 3485 3489 0
-3488 -63 3489 0
-3489 3484 0
-3487 3484 0
-3489 -3487 0
-62 3488 3490 0
-61 3488 3490 0
-61 -62 3490 0
-3490 3487 0
-60 3483 3493 0
-3492 3483 3493 0
-3492 -60 3493 0
-3493 3482 0
-3491 3482 0
-3493 -3491 0
-59 3492 3494 0
-58 3492 3494 0
-58 -59 3494 0
-3494 3491 0
-3499 3476 3500 0
-3497 3476 3500 0
-3497 -3499 3500 0
-3500 3473 0
-3498 3473 0
-3500 -3498 3474 0
-3495 3473 0
-3500 -3495 3474 0
-3496 3474 0
-3500 -3496 3475 0
-3495 -3498 3474 0
-3500 -3495 -3498 3475 0
-3496 -3498 3475 0
-3500 -3496 -3498 0
-57 3499 3503 0
-3502 3499 3503 0
-3502 -57 3503 0
-3503 3498 0
-3501 3498 0
-3503 -3501 0
-56 3502 3504 0
-55 3502 3504 0
-55 -56 3504 0
-3504 3501 0
-3508 3497 3509 0
-3506 3497 3509 0
-3506 -3508 3509 0
-3509 3495 0
-3507 3495 0
-3509 -3507 3496 0
-3505 3495 0
-3509 -3505 3496 0
-3505 -3507 3496 0
-3509 -3505 -3507 0
-54 3508 3510 0
-53 3508 3510 0
-53 -54 3510 0
-3510 3507 0
-52 3506 3511 0
-51 3506 3511 0
-51 -52 3511 0
-3511 3505 0
-3521 3328 3522 0
-3516 3328 3522 0
-3516 -3521 3522 0
-3522 3324 0
-3517 3324 0
-3522 -3517 3325 0
-3518 3325 0
-3522 -3518 3326 0
-3519 3326 0
-3522 -3519 3327 0
-3520 3327 0
-3522 -3520 0
-3512 3324 0
-3522 -3512 3325 0
-3513 3325 0
-3522 -3513 3326 0
-3514 3326 0
-3522 -3514 3327 0
-3515 3327 0
-3522 -3515 0
-3512 -3517 3325 0
-3522 -3512 -3517 3326 0
-3512 -3518 3326 0
-3522 -3512 -3518 3327 0
-3512 -3519 3327 0
-3522 -3512 -3519 0
-3512 -3520 0
-3522 -3512 -3520 0
-3513 -3517 3326 0
-3522 -3513 -3517 3327 0
-3513 -3518 3327 0
-3522 -3513 -3518 0
-3513 -3519 0
-3522 -3513 -3519 0
-3513 -3520 0
-3522 -3513 -3520 0
-3514 -3517 3327 0
-3522 -3514 -3517 0
-3514 -3518 0
-3522 -3514 -3518 0
-3514 -3519 0
-3522 -3514 -3519 0
-3514 -3520 0
-3522 -3514 -3520 0
-3515 -3517 0
-3522 -3515 -3517 0
-3515 -3518 0
-3522 -3515 -3518 0
-3515 -3519 0
-3522 -3515 -3519 0
-3515 -3520 0
-3522 -3515 -3520 0
-3532 3521 3533 0
-3527 3521 3533 0
-3527 -3532 3533 0
-3533 3517 0
-3528 3517 0
-3533 -3528 3518 0
-3529 3518 0
-3533 -3529 3519 0
-3530 3519 0
-3533 -3530 3520 0
-3531 3520 0
-3533 -3531 0
-3523 3517 0
-3533 -3523 3518 0
-3524 3518 0
-3533 -3524 3519 0
-3525 3519 0
-3533 -3525 3520 0
-3526 3520 0
-3533 -3526 0
-3523 -3528 3518 0
-3533 -3523 -3528 3519 0
-3523 -3529 3519 0
-3533 -3523 -3529 3520 0
-3523 -3530 3520 0
-3533 -3523 -3530 0
-3523 -3531 0
-3533 -3523 -3531 0
-3524 -3528 3519 0
-3533 -3524 -3528 3520 0
-3524 -3529 3520 0
-3533 -3524 -3529 0
-3524 -3530 0
-3533 -3524 -3530 0
-3524 -3531 0
-3533 -3524 -3531 0
-3525 -3528 3520 0
-3533 -3525 -3528 0
-3525 -3529 0
-3533 -3525 -3529 0
-3525 -3530 0
-3533 -3525 -3530 0
-3525 -3531 0
-3533 -3525 -3531 0
-3526 -3528 0
-3533 -3526 -3528 0
-3526 -3529 0
-3533 -3526 -3529 0
-3526 -3530 0
-3533 -3526 -3530 0
-3526 -3531 0
-3533 -3526 -3531 0
-3541 3532 3542 0
-3537 3532 3542 0
-3537 -3541 3542 0
-3542 3528 0
-3538 3528 0
-3542 -3538 3529 0
-3539 3529 0
-3542 -3539 3530 0
-3540 3530 0
-3542 -3540 3531 0
-3534 3528 0
-3542 -3534 3529 0
-3535 3529 0
-3542 -3535 3530 0
-3536 3530 0
-3542 -3536 3531 0
-3534 -3538 3529 0
-3542 -3534 -3538 3530 0
-3534 -3539 3530 0
-3542 -3534 -3539 3531 0
-3534 -3540 3531 0
-3542 -3534 -3540 0
-3535 -3538 3530 0
-3542 -3535 -3538 3531 0
-3535 -3539 3531 0
-3542 -3535 -3539 0
-3535 -3540 0
-3542 -3535 -3540 0
-3536 -3538 3531 0
-3542 -3536 -3538 0
-3536 -3539 0
-3542 -3536 -3539 0
-3536 -3540 0
-3542 -3536 -3540 0
-3546 3541 3547 0
-3544 3541 3547 0
-3544 -3546 3547 0
-3547 3538 0
-3545 3538 0
-3547 -3545 3539 0
-3543 3538 0
-3547 -3543 3539 0
-3543 -3545 3539 0
-3547 -3543 -3545 3540 0
-50 3546 3550 0
-3549 3546 3550 0
-3549 -50 3550 0
-3550 3545 0
-3548 3545 0
-3550 -3548 0
-49 3549 3551 0
-48 3549 3551 0
-48 -49 3551 0
-3551 3548 0
-47 3544 3554 0
-3553 3544 3554 0
-3553 -47 3554 0
-3554 3543 0
-3552 3543 0
-3554 -3552 0
-46 3553 3555 0
-45 3553 3555 0
-45 -46 3555 0
-3555 3552 0
-3559 3537 3560 0
-3557 3537 3560 0
-3557 -3559 3560 0
-3560 3534 0
-3558 3534 0
-3560 -3558 3535 0
-3556 3534 0
-3560 -3556 3535 0
-3556 -3558 3535 0
-3560 -3556 -3558 3536 0
-44 3559 3563 0
-3562 3559 3563 0
-3562 -44 3563 0
-3563 3558 0
-3561 3558 0
-3563 -3561 0
-43 3562 3564 0
-42 3562 3564 0
-42 -43 3564 0
-3564 3561 0
-41 3557 3567 0
-3566 3557 3567 0
-3566 -41 3567 0
-3567 3556 0
-3565 3556 0
-3567 -3565 0
-40 3566 3568 0
-39 3566 3568 0
-39 -40 3568 0
-3568 3565 0
-3576 3527 3577 0
-3572 3527 3577 0
-3572 -3576 3577 0
-3577 3523 0
-3573 3523 0
-3577 -3573 3524 0
-3574 3524 0
-3577 -3574 3525 0
-3575 3525 0
-3577 -3575 3526 0
-3569 3523 0
-3577 -3569 3524 0
-3570 3524 0
-3577 -3570 3525 0
-3571 3525 0
-3577 -3571 3526 0
-3569 -3573 3524 0
-3577 -3569 -3573 3525 0
-3569 -3574 3525 0
-3577 -3569 -3574 3526 0
-3569 -3575 3526 0
-3577 -3569 -3575 0
-3570 -3573 3525 0
-3577 -3570 -3573 3526 0
-3570 -3574 3526 0
-3577 -3570 -3574 0
-3570 -3575 0
-3577 -3570 -3575 0
-3571 -3573 3526 0
-3577 -3571 -3573 0
-3571 -3574 0
-3577 -3571 -3574 0
-3571 -3575 0
-3577 -3571 -3575 0
-3581 3576 3582 0
-3579 3576 3582 0
-3579 -3581 3582 0
-3582 3573 0
-3580 3573 0
-3582 -3580 3574 0
-3578 3573 0
-3582 -3578 3574 0
-3578 -3580 3574 0
-3582 -3578 -3580 3575 0
-38 3581 3585 0
-3584 3581 3585 0
-3584 -38 3585 0
-3585 3580 0
-3583 3580 0
-3585 -3583 0
-37 3584 3586 0
-36 3584 3586 0
-36 -37 3586 0
-3586 3583 0
-35 3579 3589 0
-3588 3579 3589 0
-3588 -35 3589 0
-3589 3578 0
-3587 3578 0
-3589 -3587 0
-34 3588 3590 0
-33 3588 3590 0
-33 -34 3590 0
-3590 3587 0
-3595 3572 3596 0
-3593 3572 3596 0
-3593 -3595 3596 0
-3596 3569 0
-3594 3569 0
-3596 -3594 3570 0
-3591 3569 0
-3596 -3591 3570 0
-3592 3570 0
-3596 -3592 3571 0
-3591 -3594 3570 0
-3596 -3591 -3594 3571 0
-3592 -3594 3571 0
-3596 -3592 -3594 0
-32 3595 3599 0
-3598 3595 3599 0
-3598 -32 3599 0
-3599 3594 0
-3597 3594 0
-3599 -3597 0
-31 3598 3600 0
-30 3598 3600 0
-30 -31 3600 0
-3600 3597 0
-3604 3593 3605 0
-3602 3593 3605 0
-3602 -3604 3605 0
-3605 3591 0
-3603 3591 0
-3605 -3603 3592 0
-3601 3591 0
-3605 -3601 3592 0
-3601 -3603 3592 0
-3605 -3601 -3603 0
-29 3604 3606 0
-28 3604 3606 0
-28 -29 3606 0
-3606 3603 0
-27 3602 3607 0
-26 3602 3607 0
-26 -27 3607 0
-3607 3601 0
-3617 3516 3618 0
-3612 3516 3618 0
-3612 -3617 3618 0
-3618 3512 0
-3613 3512 0
-3618 -3613 3513 0
-3614 3513 0
-3618 -3614 3514 0
-3615 3514 0
-3618 -3615 3515 0
-3616 3515 0
-3618 -3616 0
-3608 3512 0
-3618 -3608 3513 0
-3609 3513 0
-3618 -3609 3514 0
-3610 3514 0
-3618 -3610 3515 0
-3611 3515 0
-3618 -3611 0
-3608 -3613 3513 0
-3618 -3608 -3613 3514 0
-3608 -3614 3514 0
-3618 -3608 -3614 3515 0
-3608 -3615 3515 0
-3618 -3608 -3615 0
-3608 -3616 0
-3618 -3608 -3616 0
-3609 -3613 3514 0
-3618 -3609 -3613 3515 0
-3609 -3614 3515 0
-3618 -3609 -3614 0
-3609 -3615 0
-3618 -3609 -3615 0
-3609 -3616 0
-3618 -3609 -3616 0
-3610 -3613 3515 0
-3618 -3610 -3613 0
-3610 -3614 0
-3618 -3610 -3614 0
-3610 -3615 0
-3618 -3610 -3615 0
-3610 -3616 0
-3618 -3610 -3616 0
-3611 -3613 0
-3618 -3611 -3613 0
-3611 -3614 0
-3618 -3611 -3614 0
-3611 -3615 0
-3618 -3611 -3615 0
-3611 -3616 0
-3618 -3611 -3616 0
-3626 3617 3627 0
-3622 3617 3627 0
-3622 -3626 3627 0
-3627 3613 0
-3623 3613 0
-3627 -3623 3614 0
-3624 3614 0
-3627 -3624 3615 0
-3625 3615 0
-3627 -3625 3616 0
-3619 3613 0
-3627 -3619 3614 0
-3620 3614 0
-3627 -3620 3615 0
-3621 3615 0
-3627 -3621 3616 0
-3619 -3623 3614 0
-3627 -3619 -3623 3615 0
-3619 -3624 3615 0
-3627 -3619 -3624 3616 0
-3619 -3625 3616 0
-3627 -3619 -3625 0
-3620 -3623 3615 0
-3627 -3620 -3623 3616 0
-3620 -3624 3616 0
-3627 -3620 -3624 0
-3620 -3625 0
-3627 -3620 -3625 0
-3621 -3623 3616 0
-3627 -3621 -3623 0
-3621 -3624 0
-3627 -3621 -3624 0
-3621 -3625 0
-3627 -3621 -3625 0
-3631 3626 3632 0
-3629 3626 3632 0
-3629 -3631 3632 0
-3632 3623 0
-3630 3623 0
-3632 -3630 3624 0
-3628 3623 0
-3632 -3628 3624 0
-3628 -3630 3624 0
-3632 -3628 -3630 3625 0
-25 3631 3635 0
-3634 3631 3635 0
-3634 -25 3635 0
-3635 3630 0
-3633 3630 0
-3635 -3633 0
-24 3634 3636 0
-23 3634 3636 0
-23 -24 3636 0
-3636 3633 0
-22 3629 3639 0
-3638 3629 3639 0
-3638 -22 3639 0
-3639 3628 0
-3637 3628 0
-3639 -3637 0
-21 3638 3640 0
-20 3638 3640 0
-20 -21 3640 0
-3640 3637 0
-3644 3622 3645 0
-3642 3622 3645 0
-3642 -3644 3645 0
-3645 3619 0
-3643 3619 0
-3645 -3643 3620 0
-3641 3619 0
-3645 -3641 3620 0
-3641 -3643 3620 0
-3645 -3641 -3643 3621 0
-19 3644 3648 0
-3647 3644 3648 0
-3647 -19 3648 0
-3648 3643 0
-3646 3643 0
-3648 -3646 0
-18 3647 3649 0
-17 3647 3649 0
-17 -18 3649 0
-3649 3646 0
-16 3642 3652 0
-3651 3642 3652 0
-3651 -16 3652 0
-3652 3641 0
-3650 3641 0
-3652 -3650 0
-15 3651 3653 0
-14 3651 3653 0
-14 -15 3653 0
-3653 3650 0
-3661 3612 3662 0
-3657 3612 3662 0
-3657 -3661 3662 0
-3662 3608 0
-3658 3608 0
-3662 -3658 3609 0
-3659 3609 0
-3662 -3659 3610 0
-3660 3610 0
-3662 -3660 3611 0
-3654 3608 0
-3662 -3654 3609 0
-3655 3609 0
-3662 -3655 3610 0
-3656 3610 0
-3662 -3656 3611 0
-3654 -3658 3609 0
-3662 -3654 -3658 3610 0
-3654 -3659 3610 0
-3662 -3654 -3659 3611 0
-3654 -3660 3611 0
-3662 -3654 -3660 0
-3655 -3658 3610 0
-3662 -3655 -3658 3611 0
-3655 -3659 3611 0
-3662 -3655 -3659 0
-3655 -3660 0
-3662 -3655 -3660 0
-3656 -3658 3611 0
-3662 -3656 -3658 0
-3656 -3659 0
-3662 -3656 -3659 0
-3656 -3660 0
-3662 -3656 -3660 0
-3666 3661 3667 0
-3664 3661 3667 0
-3664 -3666 3667 0
-3667 3658 0
-3665 3658 0
-3667 -3665 3659 0
-3663 3658 0
-3667 -3663 3659 0
-3663 -3665 3659 0
-3667 -3663 -3665 3660 0
-13 3666 3670 0
-3669 3666 3670 0
-3669 -13 3670 0
-3670 3665 0
-3668 3665 0
-3670 -3668 0
-12 3669 3671 0
-11 3669 3671 0
-11 -12 3671 0
-3671 3668 0
-10 3664 3674 0
-3673 3664 3674 0
-3673 -10 3674 0
-3674 3663 0
-3672 3663 0
-3674 -3672 0
-9 3673 3675 0
-8 3673 3675 0
-8 -9 3675 0
-3675 3672 0
-3680 3657 3681 0
-3678 3657 3681 0
-3678 -3680 3681 0
-3681 3654 0
-3679 3654 0
-3681 -3679 3655 0
-3676 3654 0
-3681 -3676 3655 0
-3677 3655 0
-3681 -3677 3656 0
-3676 -3679 3655 0
-3681 -3676 -3679 3656 0
-3677 -3679 3656 0
-3681 -3677 -3679 0
-7 3680 3684 0
-3683 3680 3684 0
-3683 -7 3684 0
-3684 3679 0
-3682 3679 0
-3684 -3682 0
-6 3683 3685 0
-5 3683 3685 0
-5 -6 3685 0
-3685 3682 0
-3689 3678 3690 0
-3687 3678 3690 0
-3687 -3689 3690 0
-3690 3676 0
-3688 3676 0
-3690 -3688 3677 0
-3686 3676 0
-3690 -3686 3677 0
-3686 -3688 3677 0
-3690 -3686 -3688 0
-4 3689 3691 0
-3 3689 3691 0
-3 -4 3691 0
-3691 3688 0
-2 3687 3692 0
-1 3687 3692 0
-1 -2 3692 0
-3692 3686 0
-2182 -2183 0
