p cnf 746 2330
1 44 -91 0
-1 -44 -91 0
1 -44 91 0
-1 44 91 0
91 45 -92 0
-91 -45 -92 0
91 -45 92 0
-91 45 92 0
92 46 -93 0
-92 -46 -93 0
92 -46 93 0
-92 46 93 0
93 81 -94 0
-93 -81 -94 0
93 -81 94 0
-93 81 94 0
94 89 -95 0
-94 -89 -95 0
94 -89 95 0
-94 89 95 0
-95 0
1 2 -96 0
-1 -2 -96 0
1 -2 96 0
-1 2 96 0
96 45 -97 0
-96 -45 -97 0
96 -45 97 0
-96 45 97 0
97 47 -98 0
-97 -47 -98 0
97 -47 98 0
-97 47 98 0
98 82 -99 0
-98 -82 -99 0
98 -82 99 0
-98 82 99 0
99 90 -100 0
-99 -90 -100 0
99 -90 100 0
-99 90 100 0
-100 0
1 2 -101 0
-1 -2 -101 0
1 -2 101 0
-1 2 101 0
101 3 -102 0
-101 -3 -102 0
101 -3 102 0
-101 3 102 0
102 46 -103 0
-102 -46 -103 0
102 -46 103 0
-102 46 103 0
103 48 -104 0
-103 -48 -104 0
103 -48 104 0
-103 48 104 0
104 83 -105 0
-104 -83 -105 0
104 -83 105 0
-104 83 105 0
-105 0
2 3 -106 0
-2 -3 -106 0
2 -3 106 0
-2 3 106 0
106 4 -107 0
-106 -4 -107 0
106 -4 107 0
-106 4 107 0
107 47 -108 0
-107 -47 -108 0
107 -47 108 0
-107 47 108 0
108 49 -109 0
-108 -49 -109 0
108 -49 109 0
-108 49 109 0
109 84 -110 0
-109 -84 -110 0
109 -84 110 0
-109 84 110 0
-110 0
3 4 -111 0
-3 -4 -111 0
3 -4 111 0
-3 4 111 0
111 5 -112 0
-111 -5 -112 0
111 -5 112 0
-111 5 112 0
112 48 -113 0
-112 -48 -113 0
112 -48 113 0
-112 48 113 0
113 50 -114 0
-113 -50 -114 0
113 -50 114 0
-113 50 114 0
114 85 -115 0
-114 -85 -115 0
114 -85 115 0
-114 85 115 0
-115 0
4 5 -116 0
-4 -5 -116 0
4 -5 116 0
-4 5 116 0
116 6 -117 0
-116 -6 -117 0
116 -6 117 0
-116 6 117 0
117 49 -118 0
-117 -49 -118 0
117 -49 118 0
-117 49 118 0
118 51 -119 0
-118 -51 -119 0
118 -51 119 0
-118 51 119 0
119 86 -120 0
-119 -86 -120 0
119 -86 120 0
-119 86 120 0
-120 0
5 6 -121 0
-5 -6 -121 0
5 -6 121 0
-5 6 121 0
121 7 -122 0
-121 -7 -122 0
121 -7 122 0
-121 7 122 0
122 50 -123 0
-122 -50 -123 0
122 -50 123 0
-122 50 123 0
123 52 -124 0
-123 -52 -124 0
123 -52 124 0
-123 52 124 0
124 87 -125 0
-124 -87 -125 0
124 -87 125 0
-124 87 125 0
-125 0
6 7 -126 0
-6 -7 -126 0
6 -7 126 0
-6 7 126 0
126 8 -127 0
-126 -8 -127 0
126 -8 127 0
-126 8 127 0
127 51 -128 0
-127 -51 -128 0
127 -51 128 0
-127 51 128 0
128 53 -129 0
-128 -53 -129 0
128 -53 129 0
-128 53 129 0
129 88 -130 0
-129 -88 -130 0
129 -88 130 0
-129 88 130 0
-130 0
7 8 -131 0
-7 -8 -131 0
7 -8 131 0
-7 8 131 0
131 9 -132 0
-131 -9 -132 0
131 -9 132 0
-131 9 132 0
132 52 -133 0
-132 -52 -133 0
132 -52 133 0
-132 52 133 0
133 54 -134 0
-133 -54 -134 0
133 -54 134 0
-133 54 134 0
134 89 -135 0
-134 -89 -135 0
134 -89 135 0
-134 89 135 0
-135 0
8 9 -136 0
-8 -9 -136 0
8 -9 136 0
-8 9 136 0
136 10 -137 0
-136 -10 -137 0
136 -10 137 0
-136 10 137 0
137 53 -138 0
-137 -53 -138 0
137 -53 138 0
-137 53 138 0
138 55 -139 0
-138 -55 -139 0
138 -55 139 0
-138 55 139 0
139 90 -140 0
-139 -90 -140 0
139 -90 140 0
-139 90 140 0
-140 0
9 10 -141 0
-9 -10 -141 0
9 -10 141 0
-9 10 141 0
141 11 -142 0
-141 -11 -142 0
141 -11 142 0
-141 11 142 0
142 46 -143 0
-142 -46 -143 0
142 -46 143 0
-142 46 143 0
143 54 -144 0
-143 -54 -144 0
143 -54 144 0
-143 54 144 0
144 56 -145 0
-144 -56 -145 0
144 -56 145 0
-144 56 145 0
-145 0
10 11 -146 0
-10 -11 -146 0
10 -11 146 0
-10 11 146 0
146 12 -147 0
-146 -12 -147 0
146 -12 147 0
-146 12 147 0
147 47 -148 0
-147 -47 -148 0
147 -47 148 0
-147 47 148 0
148 55 -149 0
-148 -55 -149 0
148 -55 149 0
-148 55 149 0
149 57 -150 0
-149 -57 -150 0
149 -57 150 0
-149 57 150 0
-150 0
11 12 -151 0
-11 -12 -151 0
11 -12 151 0
-11 12 151 0
151 13 -152 0
-151 -13 -152 0
151 -13 152 0
-151 13 152 0
152 48 -153 0
-152 -48 -153 0
152 -48 153 0
-152 48 153 0
153 56 -154 0
-153 -56 -154 0
153 -56 154 0
-153 56 154 0
154 58 -155 0
-154 -58 -155 0
154 -58 155 0
-154 58 155 0
-155 0
12 13 -156 0
-12 -13 -156 0
12 -13 156 0
-12 13 156 0
156 14 -157 0
-156 -14 -157 0
156 -14 157 0
-156 14 157 0
157 49 -158 0
-157 -49 -158 0
157 -49 158 0
-157 49 158 0
158 57 -159 0
-158 -57 -159 0
158 -57 159 0
-158 57 159 0
159 59 -160 0
-159 -59 -160 0
159 -59 160 0
-159 59 160 0
-160 0
13 14 -161 0
-13 -14 -161 0
13 -14 161 0
-13 14 161 0
161 15 -162 0
-161 -15 -162 0
161 -15 162 0
-161 15 162 0
162 50 -163 0
-162 -50 -163 0
162 -50 163 0
-162 50 163 0
163 58 -164 0
-163 -58 -164 0
163 -58 164 0
-163 58 164 0
164 60 -165 0
-164 -60 -165 0
164 -60 165 0
-164 60 165 0
-165 0
14 15 -166 0
-14 -15 -166 0
14 -15 166 0
-14 15 166 0
166 16 -167 0
-166 -16 -167 0
166 -16 167 0
-166 16 167 0
167 51 -168 0
-167 -51 -168 0
167 -51 168 0
-167 51 168 0
168 59 -169 0
-168 -59 -169 0
168 -59 169 0
-168 59 169 0
169 61 -170 0
-169 -61 -170 0
169 -61 170 0
-169 61 170 0
-170 0
15 16 -171 0
-15 -16 -171 0
15 -16 171 0
-15 16 171 0
171 17 -172 0
-171 -17 -172 0
171 -17 172 0
-171 17 172 0
172 52 -173 0
-172 -52 -173 0
172 -52 173 0
-172 52 173 0
173 60 -174 0
-173 -60 -174 0
173 -60 174 0
-173 60 174 0
174 62 -175 0
-174 -62 -175 0
174 -62 175 0
-174 62 175 0
-175 0
16 17 -176 0
-16 -17 -176 0
16 -17 176 0
-16 17 176 0
176 18 -177 0
-176 -18 -177 0
176 -18 177 0
-176 18 177 0
177 53 -178 0
-177 -53 -178 0
177 -53 178 0
-177 53 178 0
178 61 -179 0
-178 -61 -179 0
178 -61 179 0
-178 61 179 0
179 63 -180 0
-179 -63 -180 0
179 -63 180 0
-179 63 180 0
-180 0
17 18 -181 0
-17 -18 -181 0
17 -18 181 0
-17 18 181 0
181 19 -182 0
-181 -19 -182 0
181 -19 182 0
-181 19 182 0
182 54 -183 0
-182 -54 -183 0
182 -54 183 0
-182 54 183 0
183 62 -184 0
-183 -62 -184 0
183 -62 184 0
-183 62 184 0
184 64 -185 0
-184 -64 -185 0
184 -64 185 0
-184 64 185 0
-185 0
18 19 -186 0
-18 -19 -186 0
18 -19 186 0
-18 19 186 0
186 20 -187 0
-186 -20 -187 0
186 -20 187 0
-186 20 187 0
187 55 -188 0
-187 -55 -188 0
187 -55 188 0
-187 55 188 0
188 63 -189 0
-188 -63 -189 0
188 -63 189 0
-188 63 189 0
189 65 -190 0
-189 -65 -190 0
189 -65 190 0
-189 65 190 0
-190 0
19 20 -191 0
-19 -20 -191 0
19 -20 191 0
-19 20 191 0
191 21 -192 0
-191 -21 -192 0
191 -21 192 0
-191 21 192 0
192 56 -193 0
-192 -56 -193 0
192 -56 193 0
-192 56 193 0
193 64 -194 0
-193 -64 -194 0
193 -64 194 0
-193 64 194 0
194 66 -195 0
-194 -66 -195 0
194 -66 195 0
-194 66 195 0
-195 0
20 21 -196 0
-20 -21 -196 0
20 -21 196 0
-20 21 196 0
196 22 -197 0
-196 -22 -197 0
196 -22 197 0
-196 22 197 0
197 57 -198 0
-197 -57 -198 0
197 -57 198 0
-197 57 198 0
198 65 -199 0
-198 -65 -199 0
198 -65 199 0
-198 65 199 0
199 67 -200 0
-199 -67 -200 0
199 -67 200 0
-199 67 200 0
-200 0
21 22 -201 0
-21 -22 -201 0
21 -22 201 0
-21 22 201 0
201 23 -202 0
-201 -23 -202 0
201 -23 202 0
-201 23 202 0
202 58 -203 0
-202 -58 -203 0
202 -58 203 0
-202 58 203 0
203 66 -204 0
-203 -66 -204 0
203 -66 204 0
-203 66 204 0
204 68 -205 0
-204 -68 -205 0
204 -68 205 0
-204 68 205 0
-205 0
22 23 -206 0
-22 -23 -206 0
22 -23 206 0
-22 23 206 0
206 24 -207 0
-206 -24 -207 0
206 -24 207 0
-206 24 207 0
207 59 -208 0
-207 -59 -208 0
207 -59 208 0
-207 59 208 0
208 67 -209 0
-208 -67 -209 0
208 -67 209 0
-208 67 209 0
209 69 -210 0
-209 -69 -210 0
209 -69 210 0
-209 69 210 0
-210 0
23 24 -211 0
-23 -24 -211 0
23 -24 211 0
-23 24 211 0
211 25 -212 0
-211 -25 -212 0
211 -25 212 0
-211 25 212 0
212 60 -213 0
-212 -60 -213 0
212 -60 213 0
-212 60 213 0
213 68 -214 0
-213 -68 -214 0
213 -68 214 0
-213 68 214 0
214 70 -215 0
-214 -70 -215 0
214 -70 215 0
-214 70 215 0
-215 0
24 25 -216 0
-24 -25 -216 0
24 -25 216 0
-24 25 216 0
216 26 -217 0
-216 -26 -217 0
216 -26 217 0
-216 26 217 0
217 61 -218 0
-217 -61 -218 0
217 -61 218 0
-217 61 218 0
218 69 -219 0
-218 -69 -219 0
218 -69 219 0
-218 69 219 0
219 71 -220 0
-219 -71 -220 0
219 -71 220 0
-219 71 220 0
-220 0
25 26 -221 0
-25 -26 -221 0
25 -26 221 0
-25 26 221 0
221 27 -222 0
-221 -27 -222 0
221 -27 222 0
-221 27 222 0
222 62 -223 0
-222 -62 -223 0
222 -62 223 0
-222 62 223 0
223 70 -224 0
-223 -70 -224 0
223 -70 224 0
-223 70 224 0
224 72 -225 0
-224 -72 -225 0
224 -72 225 0
-224 72 225 0
-225 0
26 27 -226 0
-26 -27 -226 0
26 -27 226 0
-26 27 226 0
226 28 -227 0
-226 -28 -227 0
226 -28 227 0
-226 28 227 0
227 63 -228 0
-227 -63 -228 0
227 -63 228 0
-227 63 228 0
228 71 -229 0
-228 -71 -229 0
228 -71 229 0
-228 71 229 0
229 73 -230 0
-229 -73 -230 0
229 -73 230 0
-229 73 230 0
-230 0
27 28 -231 0
-27 -28 -231 0
27 -28 231 0
-27 28 231 0
231 29 -232 0
-231 -29 -232 0
231 -29 232 0
-231 29 232 0
232 64 -233 0
-232 -64 -233 0
232 -64 233 0
-232 64 233 0
233 72 -234 0
-233 -72 -234 0
233 -72 234 0
-233 72 234 0
234 74 -235 0
-234 -74 -235 0
234 -74 235 0
-234 74 235 0
-235 0
28 29 -236 0
-28 -29 -236 0
28 -29 236 0
-28 29 236 0
236 30 -237 0
-236 -30 -237 0
236 -30 237 0
-236 30 237 0
237 65 -238 0
-237 -65 -238 0
237 -65 238 0
-237 65 238 0
238 73 -239 0
-238 -73 -239 0
238 -73 239 0
-238 73 239 0
239 75 -240 0
-239 -75 -240 0
239 -75 240 0
-239 75 240 0
-240 0
29 30 -241 0
-29 -30 -241 0
29 -30 241 0
-29 30 241 0
241 31 -242 0
-241 -31 -242 0
241 -31 242 0
-241 31 242 0
242 66 -243 0
-242 -66 -243 0
242 -66 243 0
-242 66 243 0
243 74 -244 0
-243 -74 -244 0
243 -74 244 0
-243 74 244 0
244 76 -245 0
-244 -76 -245 0
244 -76 245 0
-244 76 245 0
-245 0
30 31 -246 0
-30 -31 -246 0
30 -31 246 0
-30 31 246 0
246 32 -247 0
-246 -32 -247 0
246 -32 247 0
-246 32 247 0
247 67 -248 0
-247 -67 -248 0
247 -67 248 0
-247 67 248 0
248 75 -249 0
-248 -75 -249 0
248 -75 249 0
-248 75 249 0
249 77 -250 0
-249 -77 -250 0
249 -77 250 0
-249 77 250 0
-250 0
31 32 -251 0
-31 -32 -251 0
31 -32 251 0
-31 32 251 0
251 33 -252 0
-251 -33 -252 0
251 -33 252 0
-251 33 252 0
252 68 -253 0
-252 -68 -253 0
252 -68 253 0
-252 68 253 0
253 76 -254 0
-253 -76 -254 0
253 -76 254 0
-253 76 254 0
254 78 -255 0
-254 -78 -255 0
254 -78 255 0
-254 78 255 0
-255 0
32 33 -256 0
-32 -33 -256 0
32 -33 256 0
-32 33 256 0
256 34 -257 0
-256 -34 -257 0
256 -34 257 0
-256 34 257 0
257 69 -258 0
-257 -69 -258 0
257 -69 258 0
-257 69 258 0
258 77 -259 0
-258 -77 -259 0
258 -77 259 0
-258 77 259 0
259 79 -260 0
-259 -79 -260 0
259 -79 260 0
-259 79 260 0
-260 0
33 34 -261 0
-33 -34 -261 0
33 -34 261 0
-33 34 261 0
261 35 -262 0
-261 -35 -262 0
261 -35 262 0
-261 35 262 0
262 70 -263 0
-262 -70 -263 0
262 -70 263 0
-262 70 263 0
263 78 -264 0
-263 -78 -264 0
263 -78 264 0
-263 78 264 0
264 80 -265 0
-264 -80 -265 0
264 -80 265 0
-264 80 265 0
-265 0
34 35 -266 0
-34 -35 -266 0
34 -35 266 0
-34 35 266 0
266 36 -267 0
-266 -36 -267 0
266 -36 267 0
-266 36 267 0
267 71 -268 0
-267 -71 -268 0
267 -71 268 0
-267 71 268 0
268 79 -269 0
-268 -79 -269 0
268 -79 269 0
-268 79 269 0
269 81 -270 0
-269 -81 -270 0
269 -81 270 0
-269 81 270 0
-270 0
35 36 -271 0
-35 -36 -271 0
35 -36 271 0
-35 36 271 0
271 37 -272 0
-271 -37 -272 0
271 -37 272 0
-271 37 272 0
272 72 -273 0
-272 -72 -273 0
272 -72 273 0
-272 72 273 0
273 80 -274 0
-273 -80 -274 0
273 -80 274 0
-273 80 274 0
274 82 -275 0
-274 -82 -275 0
274 -82 275 0
-274 82 275 0
-275 0
36 37 -276 0
-36 -37 -276 0
36 -37 276 0
-36 37 276 0
276 38 -277 0
-276 -38 -277 0
276 -38 277 0
-276 38 277 0
277 73 -278 0
-277 -73 -278 0
277 -73 278 0
-277 73 278 0
278 81 -279 0
-278 -81 -279 0
278 -81 279 0
-278 81 279 0
279 83 -280 0
-279 -83 -280 0
279 -83 280 0
-279 83 280 0
-280 0
37 38 -281 0
-37 -38 -281 0
37 -38 281 0
-37 38 281 0
281 39 -282 0
-281 -39 -282 0
281 -39 282 0
-281 39 282 0
282 74 -283 0
-282 -74 -283 0
282 -74 283 0
-282 74 283 0
283 82 -284 0
-283 -82 -284 0
283 -82 284 0
-283 82 284 0
284 84 -285 0
-284 -84 -285 0
284 -84 285 0
-284 84 285 0
-285 0
38 39 -286 0
-38 -39 -286 0
38 -39 286 0
-38 39 286 0
286 40 -287 0
-286 -40 -287 0
286 -40 287 0
-286 40 287 0
287 75 -288 0
-287 -75 -288 0
287 -75 288 0
-287 75 288 0
288 83 -289 0
-288 -83 -289 0
288 -83 289 0
-288 83 289 0
289 85 -290 0
-289 -85 -290 0
289 -85 290 0
-289 85 290 0
-290 0
39 40 -291 0
-39 -40 -291 0
39 -40 291 0
-39 40 291 0
291 41 -292 0
-291 -41 -292 0
291 -41 292 0
-291 41 292 0
292 76 -293 0
-292 -76 -293 0
292 -76 293 0
-292 76 293 0
293 84 -294 0
-293 -84 -294 0
293 -84 294 0
-293 84 294 0
294 86 -295 0
-294 -86 -295 0
294 -86 295 0
-294 86 295 0
-295 0
40 41 -296 0
-40 -41 -296 0
40 -41 296 0
-40 41 296 0
296 42 -297 0
-296 -42 -297 0
296 -42 297 0
-296 42 297 0
297 77 -298 0
-297 -77 -298 0
297 -77 298 0
-297 77 298 0
298 85 -299 0
-298 -85 -299 0
298 -85 299 0
-298 85 299 0
299 87 -300 0
-299 -87 -300 0
299 -87 300 0
-299 87 300 0
-300 0
41 42 -301 0
-41 -42 -301 0
41 -42 301 0
-41 42 301 0
301 43 -302 0
-301 -43 -302 0
301 -43 302 0
-301 43 302 0
302 78 -303 0
-302 -78 -303 0
302 -78 303 0
-302 78 303 0
303 86 -304 0
-303 -86 -304 0
303 -86 304 0
-303 86 304 0
304 88 -305 0
-304 -88 -305 0
304 -88 305 0
-304 88 305 0
-305 0
42 43 -306 0
-42 -43 -306 0
42 -43 306 0
-42 43 306 0
306 44 -307 0
-306 -44 -307 0
306 -44 307 0
-306 44 307 0
307 79 -308 0
-307 -79 -308 0
307 -79 308 0
-307 79 308 0
308 87 -309 0
-308 -87 -309 0
308 -87 309 0
-308 87 309 0
309 89 -310 0
-309 -89 -310 0
309 -89 310 0
-309 89 310 0
-310 0
43 44 -311 0
-43 -44 -311 0
43 -44 311 0
-43 44 311 0
311 45 -312 0
-311 -45 -312 0
311 -45 312 0
-311 45 312 0
312 80 -313 0
-312 -80 -313 0
312 -80 313 0
-312 80 313 0
313 88 -314 0
-313 -88 -314 0
313 -88 314 0
-313 88 314 0
314 90 -315 0
-314 -90 -315 0
314 -90 315 0
-314 90 315 0
-315 0
1 48 -316 0
-1 -48 -316 0
1 -48 316 0
-1 48 316 0
316 49 -317 0
-316 -49 -317 0
316 -49 317 0
-316 49 317 0
317 51 -318 0
-317 -51 -318 0
317 -51 318 0
-317 51 318 0
318 52 -319 0
-318 -52 -319 0
318 -52 319 0
-318 52 319 0
319 54 -320 0
-319 -54 -320 0
319 -54 320 0
-319 54 320 0
320 55 -321 0
-320 -55 -321 0
320 -55 321 0
-320 55 321 0
321 57 -322 0
-321 -57 -322 0
321 -57 322 0
-321 57 322 0
322 58 -323 0
-322 -58 -323 0
322 -58 323 0
-322 58 323 0
323 60 -324 0
-323 -60 -324 0
323 -60 324 0
-323 60 324 0
324 61 -325 0
-324 -61 -325 0
324 -61 325 0
-324 61 325 0
325 63 -326 0
-325 -63 -326 0
325 -63 326 0
-325 63 326 0
326 64 -327 0
-326 -64 -327 0
326 -64 327 0
-326 64 327 0
327 66 -328 0
-327 -66 -328 0
327 -66 328 0
-327 66 328 0
328 67 -329 0
-328 -67 -329 0
328 -67 329 0
-328 67 329 0
329 69 -330 0
-329 -69 -330 0
329 -69 330 0
-329 69 330 0
330 70 -331 0
-330 -70 -331 0
330 -70 331 0
-330 70 331 0
331 72 -332 0
-331 -72 -332 0
331 -72 332 0
-331 72 332 0
332 73 -333 0
-332 -73 -333 0
332 -73 333 0
-332 73 333 0
333 75 -334 0
-333 -75 -334 0
333 -75 334 0
-333 75 334 0
334 76 -335 0
-334 -76 -335 0
334 -76 335 0
-334 76 335 0
335 78 -336 0
-335 -78 -336 0
335 -78 336 0
-335 78 336 0
336 79 -337 0
-336 -79 -337 0
336 -79 337 0
-336 79 337 0
337 81 -338 0
-337 -81 -338 0
337 -81 338 0
-337 81 338 0
338 82 -339 0
-338 -82 -339 0
338 -82 339 0
-338 82 339 0
339 83 -340 0
-339 -83 -340 0
339 -83 340 0
-339 83 340 0
340 85 -341 0
-340 -85 -341 0
340 -85 341 0
-340 85 341 0
341 86 -342 0
-341 -86 -342 0
341 -86 342 0
-341 86 342 0
342 88 -343 0
-342 -88 -343 0
342 -88 343 0
-342 88 343 0
343 89 -344 0
-343 -89 -344 0
343 -89 344 0
-343 89 344 0
2 49 -345 0
-2 -49 -345 0
2 -49 345 0
-2 49 345 0
345 50 -346 0
-345 -50 -346 0
345 -50 346 0
-345 50 346 0
346 52 -347 0
-346 -52 -347 0
346 -52 347 0
-346 52 347 0
347 53 -348 0
-347 -53 -348 0
347 -53 348 0
-347 53 348 0
348 55 -349 0
-348 -55 -349 0
348 -55 349 0
-348 55 349 0
349 56 -350 0
-349 -56 -350 0
349 -56 350 0
-349 56 350 0
350 58 -351 0
-350 -58 -351 0
350 -58 351 0
-350 58 351 0
351 59 -352 0
-351 -59 -352 0
351 -59 352 0
-351 59 352 0
352 61 -353 0
-352 -61 -353 0
352 -61 353 0
-352 61 353 0
353 62 -354 0
-353 -62 -354 0
353 -62 354 0
-353 62 354 0
354 64 -355 0
-354 -64 -355 0
354 -64 355 0
-354 64 355 0
355 65 -356 0
-355 -65 -356 0
355 -65 356 0
-355 65 356 0
356 67 -357 0
-356 -67 -357 0
356 -67 357 0
-356 67 357 0
357 68 -358 0
-357 -68 -358 0
357 -68 358 0
-357 68 358 0
358 70 -359 0
-358 -70 -359 0
358 -70 359 0
-358 70 359 0
359 71 -360 0
-359 -71 -360 0
359 -71 360 0
-359 71 360 0
360 73 -361 0
-360 -73 -361 0
360 -73 361 0
-360 73 361 0
361 74 -362 0
-361 -74 -362 0
361 -74 362 0
-361 74 362 0
362 76 -363 0
-362 -76 -363 0
362 -76 363 0
-362 76 363 0
363 77 -364 0
-363 -77 -364 0
363 -77 364 0
-363 77 364 0
364 79 -365 0
-364 -79 -365 0
364 -79 365 0
-364 79 365 0
365 80 -366 0
-365 -80 -366 0
365 -80 366 0
-365 80 366 0
366 82 -367 0
-366 -82 -367 0
366 -82 367 0
-366 82 367 0
367 83 -368 0
-367 -83 -368 0
367 -83 368 0
-367 83 368 0
368 84 -369 0
-368 -84 -369 0
368 -84 369 0
-368 84 369 0
369 86 -370 0
-369 -86 -370 0
369 -86 370 0
-369 86 370 0
370 87 -371 0
-370 -87 -371 0
370 -87 371 0
-370 87 371 0
371 89 -372 0
-371 -89 -372 0
371 -89 372 0
-371 89 372 0
372 90 -373 0
-372 -90 -373 0
372 -90 373 0
-372 90 373 0
3 48 -374 0
-3 -48 -374 0
3 -48 374 0
-3 48 374 0
374 49 -375 0
-374 -49 -375 0
374 -49 375 0
-374 49 375 0
375 50 -376 0
-375 -50 -376 0
375 -50 376 0
-375 50 376 0
376 52 -377 0
-376 -52 -377 0
376 -52 377 0
-376 52 377 0
377 53 -378 0
-377 -53 -378 0
377 -53 378 0
-377 53 378 0
378 55 -379 0
-378 -55 -379 0
378 -55 379 0
-378 55 379 0
379 56 -380 0
-379 -56 -380 0
379 -56 380 0
-379 56 380 0
380 58 -381 0
-380 -58 -381 0
380 -58 381 0
-380 58 381 0
381 59 -382 0
-381 -59 -382 0
381 -59 382 0
-381 59 382 0
382 61 -383 0
-382 -61 -383 0
382 -61 383 0
-382 61 383 0
383 62 -384 0
-383 -62 -384 0
383 -62 384 0
-383 62 384 0
384 64 -385 0
-384 -64 -385 0
384 -64 385 0
-384 64 385 0
385 65 -386 0
-385 -65 -386 0
385 -65 386 0
-385 65 386 0
386 67 -387 0
-386 -67 -387 0
386 -67 387 0
-386 67 387 0
387 68 -388 0
-387 -68 -388 0
387 -68 388 0
-387 68 388 0
388 70 -389 0
-388 -70 -389 0
388 -70 389 0
-388 70 389 0
389 71 -390 0
-389 -71 -390 0
389 -71 390 0
-389 71 390 0
390 73 -391 0
-390 -73 -391 0
390 -73 391 0
-390 73 391 0
391 74 -392 0
-391 -74 -392 0
391 -74 392 0
-391 74 392 0
392 76 -393 0
-392 -76 -393 0
392 -76 393 0
-392 76 393 0
393 77 -394 0
-393 -77 -394 0
393 -77 394 0
-393 77 394 0
394 79 -395 0
-394 -79 -395 0
394 -79 395 0
-394 79 395 0
395 80 -396 0
-395 -80 -396 0
395 -80 396 0
-395 80 396 0
396 82 -397 0
-396 -82 -397 0
396 -82 397 0
-396 82 397 0
397 83 -398 0
-397 -83 -398 0
397 -83 398 0
-397 83 398 0
4 49 -399 0
-4 -49 -399 0
4 -49 399 0
-4 49 399 0
399 50 -400 0
-399 -50 -400 0
399 -50 400 0
-399 50 400 0
400 51 -401 0
-400 -51 -401 0
400 -51 401 0
-400 51 401 0
401 53 -402 0
-401 -53 -402 0
401 -53 402 0
-401 53 402 0
402 54 -403 0
-402 -54 -403 0
402 -54 403 0
-402 54 403 0
403 56 -404 0
-403 -56 -404 0
403 -56 404 0
-403 56 404 0
404 57 -405 0
-404 -57 -405 0
404 -57 405 0
-404 57 405 0
405 59 -406 0
-405 -59 -406 0
405 -59 406 0
-405 59 406 0
406 60 -407 0
-406 -60 -407 0
406 -60 407 0
-406 60 407 0
407 62 -408 0
-407 -62 -408 0
407 -62 408 0
-407 62 408 0
408 63 -409 0
-408 -63 -409 0
408 -63 409 0
-408 63 409 0
409 65 -410 0
-409 -65 -410 0
409 -65 410 0
-409 65 410 0
410 66 -411 0
-410 -66 -411 0
410 -66 411 0
-410 66 411 0
411 68 -412 0
-411 -68 -412 0
411 -68 412 0
-411 68 412 0
412 69 -413 0
-412 -69 -413 0
412 -69 413 0
-412 69 413 0
413 71 -414 0
-413 -71 -414 0
413 -71 414 0
-413 71 414 0
414 72 -415 0
-414 -72 -415 0
414 -72 415 0
-414 72 415 0
415 74 -416 0
-415 -74 -416 0
415 -74 416 0
-415 74 416 0
416 75 -417 0
-416 -75 -417 0
416 -75 417 0
-416 75 417 0
417 77 -418 0
-417 -77 -418 0
417 -77 418 0
-417 77 418 0
418 78 -419 0
-418 -78 -419 0
418 -78 419 0
-418 78 419 0
419 80 -420 0
-419 -80 -420 0
419 -80 420 0
-419 80 420 0
420 81 -421 0
-420 -81 -421 0
420 -81 421 0
-420 81 421 0
421 83 -422 0
-421 -83 -422 0
421 -83 422 0
-421 83 422 0
422 84 -423 0
-422 -84 -423 0
422 -84 423 0
-422 84 423 0
344 373 398 423 0
-1 0
-2 0
-3 0
-4 0
-5 0
-6 0
-7 0
-8 0
-9 0
-10 0
-11 0
-12 0
-13 0
-14 0
-15 0
-16 0
-17 0
-18 0
-19 0
-20 0
-21 0
-22 0
-23 0
-24 0
-25 0
-26 0
-27 0
-28 0
-29 0
-30 0
-31 0
-32 0
-33 0
-34 0
-35 0
-36 0
-37 0
-38 0
-39 0
-40 0
-41 0
-42 0
-43 0
-44 0
-45 0
46 0
-435 427 436 0
-431 427 436 0
-431 -435 436 0
-436 424 0
-432 424 0
-436 -432 425 0
-433 425 0
-436 -433 426 0
-434 426 0
-436 -434 0
-428 424 0
-436 -428 425 0
-429 425 0
-436 -429 426 0
-430 426 0
-436 -430 0
-428 -432 425 0
-436 -428 -432 426 0
-428 -433 426 0
-436 -428 -433 0
-428 -434 0
-436 -428 -434 0
-429 -432 426 0
-436 -429 -432 0
-429 -433 0
-436 -429 -433 0
-429 -434 0
-436 -429 -434 0
-430 -432 0
-436 -430 -432 0
-430 -433 0
-436 -430 -433 0
-430 -434 0
-436 -430 -434 0
-444 435 445 0
-440 435 445 0
-440 -444 445 0
-445 432 0
-441 432 0
-445 -441 433 0
-442 433 0
-445 -442 434 0
-443 434 0
-445 -443 0
-437 432 0
-445 -437 433 0
-438 433 0
-445 -438 434 0
-439 434 0
-445 -439 0
-437 -441 433 0
-445 -437 -441 434 0
-437 -442 434 0
-445 -437 -442 0
-437 -443 0
-445 -437 -443 0
-438 -441 434 0
-445 -438 -441 0
-438 -442 0
-445 -438 -442 0
-438 -443 0
-445 -438 -443 0
-439 -441 0
-445 -439 -441 0
-439 -442 0
-445 -439 -442 0
-439 -443 0
-445 -439 -443 0
-453 444 454 0
-449 444 454 0
-449 -453 454 0
-454 441 0
-450 441 0
-454 -450 442 0
-451 442 0
-454 -451 443 0
-452 443 0
-454 -452 0
-446 441 0
-454 -446 442 0
-447 442 0
-454 -447 443 0
-448 443 0
-454 -448 0
-446 -450 442 0
-454 -446 -450 443 0
-446 -451 443 0
-454 -446 -451 0
-446 -452 0
-454 -446 -452 0
-447 -450 443 0
-454 -447 -450 0
-447 -451 0
-454 -447 -451 0
-447 -452 0
-454 -447 -452 0
-448 -450 0
-454 -448 -450 0
-448 -451 0
-454 -448 -451 0
-448 -452 0
-454 -448 -452 0
-461 453 462 0
-458 453 462 0
-458 -461 462 0
-462 450 0
-459 450 0
-462 -459 451 0
-460 451 0
-462 -460 452 0
-455 450 0
-462 -455 451 0
-456 451 0
-462 -456 452 0
-457 452 0
-462 -457 0
-455 -459 451 0
-462 -455 -459 452 0
-455 -460 452 0
-462 -455 -460 0
-456 -459 452 0
-462 -456 -459 0
-456 -460 0
-462 -456 -460 0
-457 -459 0
-462 -457 -459 0
-457 -460 0
-462 -457 -460 0
-466 461 467 0
-464 461 467 0
-464 -466 467 0
-467 459 0
-465 459 0
-467 -465 460 0
-463 459 0
-467 -463 460 0
-463 -465 460 0
-467 -463 -465 0
-90 466 468 0
-89 466 468 0
-89 -90 468 0
-468 465 0
-88 464 471 0
-470 464 471 0
-470 -88 471 0
-471 463 0
-469 463 0
-471 -469 0
-87 470 472 0
-86 470 472 0
-86 -87 472 0
-472 469 0
-476 458 477 0
-474 458 477 0
-474 -476 477 0
-477 455 0
-475 455 0
-477 -475 456 0
-473 455 0
-477 -473 456 0
-473 -475 456 0
-477 -473 -475 457 0
-85 476 480 0
-479 476 480 0
-479 -85 480 0
-480 475 0
-478 475 0
-480 -478 0
-84 479 481 0
-83 479 481 0
-83 -84 481 0
-481 478 0
-82 474 484 0
-483 474 484 0
-483 -82 484 0
-484 473 0
-482 473 0
-484 -482 0
-81 483 485 0
-80 483 485 0
-80 -81 485 0
-485 482 0
-492 449 493 0
-489 449 493 0
-489 -492 493 0
-493 446 0
-490 446 0
-493 -490 447 0
-491 447 0
-493 -491 448 0
-486 446 0
-493 -486 447 0
-487 447 0
-493 -487 448 0
-488 448 0
-493 -488 0
-486 -490 447 0
-493 -486 -490 448 0
-486 -491 448 0
-493 -486 -491 0
-487 -490 448 0
-493 -487 -490 0
-487 -491 0
-493 -487 -491 0
-488 -490 0
-493 -488 -490 0
-488 -491 0
-493 -488 -491 0
-497 492 498 0
-495 492 498 0
-495 -497 498 0
-498 490 0
-496 490 0
-498 -496 491 0
-494 490 0
-498 -494 491 0
-494 -496 491 0
-498 -494 -496 0
-79 497 499 0
-78 497 499 0
-78 -79 499 0
-499 496 0
-77 495 502 0
-501 495 502 0
-501 -77 502 0
-502 494 0
-500 494 0
-502 -500 0
-76 501 503 0
-75 501 503 0
-75 -76 503 0
-503 500 0
-507 489 508 0
-505 489 508 0
-505 -507 508 0
-508 486 0
-506 486 0
-508 -506 487 0
-504 486 0
-508 -504 487 0
-504 -506 487 0
-508 -504 -506 488 0
-74 507 511 0
-510 507 511 0
-510 -74 511 0
-511 506 0
-509 506 0
-511 -509 0
-73 510 512 0
-72 510 512 0
-72 -73 512 0
-512 509 0
-71 505 515 0
-514 505 515 0
-514 -71 515 0
-515 504 0
-513 504 0
-515 -513 0
-70 514 516 0
-69 514 516 0
-69 -70 516 0
-516 513 0
-524 440 525 0
-520 440 525 0
-520 -524 525 0
-525 437 0
-521 437 0
-525 -521 438 0
-522 438 0
-525 -522 439 0
-523 439 0
-525 -523 0
-517 437 0
-525 -517 438 0
-518 438 0
-525 -518 439 0
-519 439 0
-525 -519 0
-517 -521 438 0
-525 -517 -521 439 0
-517 -522 439 0
-525 -517 -522 0
-517 -523 0
-525 -517 -523 0
-518 -521 439 0
-525 -518 -521 0
-518 -522 0
-525 -518 -522 0
-518 -523 0
-525 -518 -523 0
-519 -521 0
-525 -519 -521 0
-519 -522 0
-525 -519 -522 0
-519 -523 0
-525 -519 -523 0
-532 524 533 0
-529 524 533 0
-529 -532 533 0
-533 521 0
-530 521 0
-533 -530 522 0
-531 522 0
-533 -531 523 0
-526 521 0
-533 -526 522 0
-527 522 0
-533 -527 523 0
-528 523 0
-533 -528 0
-526 -530 522 0
-533 -526 -530 523 0
-526 -531 523 0
-533 -526 -531 0
-527 -530 523 0
-533 -527 -530 0
-527 -531 0
-533 -527 -531 0
-528 -530 0
-533 -528 -530 0
-528 -531 0
-533 -528 -531 0
-537 532 538 0
-535 532 538 0
-535 -537 538 0
-538 530 0
-536 530 0
-538 -536 531 0
-534 530 0
-538 -534 531 0
-534 -536 531 0
-538 -534 -536 0
-68 537 539 0
-67 537 539 0
-67 -68 539 0
-539 536 0
-66 535 542 0
-541 535 542 0
-541 -66 542 0
-542 534 0
-540 534 0
-542 -540 0
-65 541 543 0
-64 541 543 0
-64 -65 543 0
-543 540 0
-547 529 548 0
-545 529 548 0
-545 -547 548 0
-548 526 0
-546 526 0
-548 -546 527 0
-544 526 0
-548 -544 527 0
-544 -546 527 0
-548 -544 -546 528 0
-63 547 551 0
-550 547 551 0
-550 -63 551 0
-551 546 0
-549 546 0
-551 -549 0
-62 550 552 0
-61 550 552 0
-61 -62 552 0
-552 549 0
-60 545 555 0
-554 545 555 0
-554 -60 555 0
-555 544 0
-553 544 0
-555 -553 0
-59 554 556 0
-58 554 556 0
-58 -59 556 0
-556 553 0
-564 520 565 0
-560 520 565 0
-560 -564 565 0
-565 517 0
-561 517 0
-565 -561 518 0
-562 518 0
-565 -562 519 0
-563 519 0
-565 -563 0
-557 517 0
-565 -557 518 0
-558 518 0
-565 -558 519 0
-559 519 0
-565 -559 0
-557 -561 518 0
-565 -557 -561 519 0
-557 -562 519 0
-565 -557 -562 0
-557 -563 0
-565 -557 -563 0
-558 -561 519 0
-565 -558 -561 0
-558 -562 0
-565 -558 -562 0
-558 -563 0
-565 -558 -563 0
-559 -561 0
-565 -559 -561 0
-559 -562 0
-565 -559 -562 0
-559 -563 0
-565 -559 -563 0
-569 564 570 0
-567 564 570 0
-567 -569 570 0
-570 561 0
-568 561 0
-570 -568 562 0
-566 561 0
-570 -566 562 0
-566 -568 562 0
-570 -566 -568 563 0
-57 569 573 0
-572 569 573 0
-572 -57 573 0
-573 568 0
-571 568 0
-573 -571 0
-56 572 574 0
-55 572 574 0
-55 -56 574 0
-574 571 0
-54 567 577 0
-576 567 577 0
-576 -54 577 0
-577 566 0
-575 566 0
-577 -575 0
-53 576 578 0
-52 576 578 0
-52 -53 578 0
-578 575 0
-582 560 583 0
-580 560 583 0
-580 -582 583 0
-583 557 0
-581 557 0
-583 -581 558 0
-579 557 0
-583 -579 558 0
-579 -581 558 0
-583 -579 -581 559 0
-51 582 586 0
-585 582 586 0
-585 -51 586 0
-586 581 0
-584 581 0
-586 -584 0
-50 585 587 0
-49 585 587 0
-49 -50 587 0
-587 584 0
-48 580 590 0
-589 580 590 0
-589 -48 590 0
-590 579 0
-588 579 0
-590 -588 0
-47 589 591 0
-46 589 591 0
-46 -47 591 0
-591 588 0
-599 431 600 0
-595 431 600 0
-595 -599 600 0
-600 428 0
-596 428 0
-600 -596 429 0
-597 429 0
-600 -597 430 0
-598 430 0
-600 -598 0
-592 428 0
-600 -592 429 0
-593 429 0
-600 -593 430 0
-594 430 0
-600 -594 0
-592 -596 429 0
-600 -592 -596 430 0
-592 -597 430 0
-600 -592 -597 0
-592 -598 0
-600 -592 -598 0
-593 -596 430 0
-600 -593 -596 0
-593 -597 0
-600 -593 -597 0
-593 -598 0
-600 -593 -598 0
-594 -596 0
-600 -594 -596 0
-594 -597 0
-600 -594 -597 0
-594 -598 0
-600 -594 -598 0
-608 599 609 0
-604 599 609 0
-604 -608 609 0
-609 596 0
-605 596 0
-609 -605 597 0
-606 597 0
-609 -606 598 0
-607 598 0
-609 -607 0
-601 596 0
-609 -601 597 0
-602 597 0
-609 -602 598 0
-603 598 0
-609 -603 0
-601 -605 597 0
-609 -601 -605 598 0
-601 -606 598 0
-609 -601 -606 0
-601 -607 0
-609 -601 -607 0
-602 -605 598 0
-609 -602 -605 0
-602 -606 0
-609 -602 -606 0
-602 -607 0
-609 -602 -607 0
-603 -605 0
-609 -603 -605 0
-603 -606 0
-609 -603 -606 0
-603 -607 0
-609 -603 -607 0
-616 608 617 0
-613 608 617 0
-613 -616 617 0
-617 605 0
-614 605 0
-617 -614 606 0
-615 606 0
-617 -615 607 0
-610 605 0
-617 -610 606 0
-611 606 0
-617 -611 607 0
-612 607 0
-617 -612 0
-610 -614 606 0
-617 -610 -614 607 0
-610 -615 607 0
-617 -610 -615 0
-611 -614 607 0
-617 -611 -614 0
-611 -615 0
-617 -611 -615 0
-612 -614 0
-617 -612 -614 0
-612 -615 0
-617 -612 -615 0
-621 616 622 0
-619 616 622 0
-619 -621 622 0
-622 614 0
-620 614 0
-622 -620 615 0
-618 614 0
-622 -618 615 0
-618 -620 615 0
-622 -618 -620 0
-45 621 623 0
-44 621 623 0
-44 -45 623 0
-623 620 0
-43 619 626 0
-625 619 626 0
-625 -43 626 0
-626 618 0
-624 618 0
-626 -624 0
-42 625 627 0
-41 625 627 0
-41 -42 627 0
-627 624 0
-631 613 632 0
-629 613 632 0
-629 -631 632 0
-632 610 0
-630 610 0
-632 -630 611 0
-628 610 0
-632 -628 611 0
-628 -630 611 0
-632 -628 -630 612 0
-40 631 635 0
-634 631 635 0
-634 -40 635 0
-635 630 0
-633 630 0
-635 -633 0
-39 634 636 0
-38 634 636 0
-38 -39 636 0
-636 633 0
-37 629 639 0
-638 629 639 0
-638 -37 639 0
-639 628 0
-637 628 0
-639 -637 0
-36 638 640 0
-35 638 640 0
-35 -36 640 0
-640 637 0
-647 604 648 0
-644 604 648 0
-644 -647 648 0
-648 601 0
-645 601 0
-648 -645 602 0
-646 602 0
-648 -646 603 0
-641 601 0
-648 -641 602 0
-642 602 0
-648 -642 603 0
-643 603 0
-648 -643 0
-641 -645 602 0
-648 -641 -645 603 0
-641 -646 603 0
-648 -641 -646 0
-642 -645 603 0
-648 -642 -645 0
-642 -646 0
-648 -642 -646 0
-643 -645 0
-648 -643 -645 0
-643 -646 0
-648 -643 -646 0
-652 647 653 0
-650 647 653 0
-650 -652 653 0
-653 645 0
-651 645 0
-653 -651 646 0
-649 645 0
-653 -649 646 0
-649 -651 646 0
-653 -649 -651 0
-34 652 654 0
-33 652 654 0
-33 -34 654 0
-654 651 0
-32 650 657 0
-656 650 657 0
-656 -32 657 0
-657 649 0
-655 649 0
-657 -655 0
-31 656 658 0
-30 656 658 0
-30 -31 658 0
-658 655 0
-662 644 663 0
-660 644 663 0
-660 -662 663 0
-663 641 0
-661 641 0
-663 -661 642 0
-659 641 0
-663 -659 642 0
-659 -661 642 0
-663 -659 -661 643 0
-29 662 666 0
-665 662 666 0
-665 -29 666 0
-666 661 0
-664 661 0
-666 -664 0
-28 665 667 0
-27 665 667 0
-27 -28 667 0
-667 664 0
-26 660 670 0
-669 660 670 0
-669 -26 670 0
-670 659 0
-668 659 0
-670 -668 0
-25 669 671 0
-24 669 671 0
-24 -25 671 0
-671 668 0
-679 595 680 0
-675 595 680 0
-675 -679 680 0
-680 592 0
-676 592 0
-680 -676 593 0
-677 593 0
-680 -677 594 0
-678 594 0
-680 -678 0
-672 592 0
-680 -672 593 0
-673 593 0
-680 -673 594 0
-674 594 0
-680 -674 0
-672 -676 593 0
-680 -672 -676 594 0
-672 -677 594 0
-680 -672 -677 0
-672 -678 0
-680 -672 -678 0
-673 -676 594 0
-680 -673 -676 0
-673 -677 0
-680 -673 -677 0
-673 -678 0
-680 -673 -678 0
-674 -676 0
-680 -674 -676 0
-674 -677 0
-680 -674 -677 0
-674 -678 0
-680 -674 -678 0
-687 679 688 0
-684 679 688 0
-684 -687 688 0
-688 676 0
-685 676 0
-688 -685 677 0
-686 677 0
-688 -686 678 0
-681 676 0
-688 -681 677 0
-682 677 0
-688 -682 678 0
-683 678 0
-688 -683 0
-681 -685 677 0
-688 -681 -685 678 0
-681 -686 678 0
-688 -681 -686 0
-682 -685 678 0
-688 -682 -685 0
-682 -686 0
-688 -682 -686 0
-683 -685 0
-688 -683 -685 0
-683 -686 0
-688 -683 -686 0
-692 687 693 0
-690 687 693 0
-690 -692 693 0
-693 685 0
-691 685 0
-693 -691 686 0
-689 685 0
-693 -689 686 0
-689 -691 686 0
-693 -689 -691 0
-23 692 694 0
-22 692 694 0
-22 -23 694 0
-694 691 0
-21 690 697 0
-696 690 697 0
-696 -21 697 0
-697 689 0
-695 689 0
-697 -695 0
-20 696 698 0
-19 696 698 0
-19 -20 698 0
-698 695 0
-702 684 703 0
-700 684 703 0
-700 -702 703 0
-703 681 0
-701 681 0
-703 -701 682 0
-699 681 0
-703 -699 682 0
-699 -701 682 0
-703 -699 -701 683 0
-18 702 706 0
-705 702 706 0
-705 -18 706 0
-706 701 0
-704 701 0
-706 -704 0
-17 705 707 0
-16 705 707 0
-16 -17 707 0
-707 704 0
-15 700 710 0
-709 700 710 0
-709 -15 710 0
-710 699 0
-708 699 0
-710 -708 0
-14 709 711 0
-13 709 711 0
-13 -14 711 0
-711 708 0
-719 675 720 0
-715 675 720 0
-715 -719 720 0
-720 672 0
-716 672 0
-720 -716 673 0
-717 673 0
-720 -717 674 0
-718 674 0
-720 -718 0
-712 672 0
-720 -712 673 0
-713 673 0
-720 -713 674 0
-714 674 0
-720 -714 0
-712 -716 673 0
-720 -712 -716 674 0
-712 -717 674 0
-720 -712 -717 0
-712 -718 0
-720 -712 -718 0
-713 -716 674 0
-720 -713 -716 0
-713 -717 0
-720 -713 -717 0
-713 -718 0
-720 -713 -718 0
-714 -716 0
-720 -714 -716 0
-714 -717 0
-720 -714 -717 0
-714 -718 0
-720 -714 -718 0
-724 719 725 0
-722 719 725 0
-722 -724 725 0
-725 716 0
-723 716 0
-725 -723 717 0
-721 716 0
-725 -721 717 0
-721 -723 717 0
-725 -721 -723 718 0
-12 724 728 0
-727 724 728 0
-727 -12 728 0
-728 723 0
-726 723 0
-728 -726 0
-11 727 729 0
-10 727 729 0
-10 -11 729 0
-729 726 0
-9 722 732 0
-731 722 732 0
-731 -9 732 0
-732 721 0
-730 721 0
-732 -730 0
-8 731 733 0
-7 731 733 0
-7 -8 733 0
-733 730 0
-737 715 738 0
-735 715 738 0
-735 -737 738 0
-738 712 0
-736 712 0
-738 -736 713 0
-734 712 0
-738 -734 713 0
-734 -736 713 0
-738 -734 -736 714 0
-6 737 741 0
-740 737 741 0
-740 -6 741 0
-741 736 0
-739 736 0
-741 -739 0
-5 740 742 0
-4 740 742 0
-4 -5 742 0
-742 739 0
-3 735 745 0
-744 735 745 0
-744 -3 745 0
-745 734 0
-743 734 0
-745 -743 0
-2 744 746 0
-1 744 746 0
-1 -2 746 0
-746 743 0
