p cnf 2874 9268
1 140 -291 0
-1 -140 -291 0
1 -140 291 0
-1 140 291 0
291 141 -292 0
-291 -141 -292 0
291 -141 292 0
-291 141 292 0
292 145 -293 0
-292 -145 -293 0
292 -145 293 0
-292 145 293 0
293 146 -294 0
-293 -146 -294 0
293 -146 294 0
-293 146 294 0
294 266 -295 0
-294 -266 -295 0
294 -266 295 0
-294 266 295 0
295 276 -296 0
-295 -276 -296 0
295 -276 296 0
-295 276 296 0
296 281 -297 0
-296 -281 -297 0
296 -281 297 0
-296 281 297 0
-297 0
1 2 -298 0
-1 -2 -298 0
1 -2 298 0
-1 2 298 0
298 141 -299 0
-298 -141 -299 0
298 -141 299 0
-298 141 299 0
299 142 -300 0
-299 -142 -300 0
299 -142 300 0
-299 142 300 0
300 147 -301 0
-300 -147 -301 0
300 -147 301 0
-300 147 301 0
301 267 -302 0
-301 -267 -302 0
301 -267 302 0
-301 267 302 0
302 277 -303 0
-302 -277 -303 0
302 -277 303 0
-302 277 303 0
303 282 -304 0
-303 -282 -304 0
303 -282 304 0
-303 282 304 0
-304 0
2 3 -305 0
-2 -3 -305 0
2 -3 305 0
-2 3 305 0
305 142 -306 0
-305 -142 -306 0
305 -142 306 0
-305 142 306 0
306 143 -307 0
-306 -143 -307 0
306 -143 307 0
-306 143 307 0
307 148 -308 0
-307 -148 -308 0
307 -148 308 0
-307 148 308 0
308 268 -309 0
-308 -268 -309 0
308 -268 309 0
-308 268 309 0
309 278 -310 0
-309 -278 -310 0
309 -278 310 0
-309 278 310 0
310 283 -311 0
-310 -283 -311 0
310 -283 311 0
-310 283 311 0
-311 0
3 4 -312 0
-3 -4 -312 0
3 -4 312 0
-3 4 312 0
312 143 -313 0
-312 -143 -313 0
312 -143 313 0
-312 143 313 0
313 144 -314 0
-313 -144 -314 0
313 -144 314 0
-313 144 314 0
314 149 -315 0
-314 -149 -315 0
314 -149 315 0
-314 149 315 0
315 269 -316 0
-315 -269 -316 0
315 -269 316 0
-315 269 316 0
316 279 -317 0
-316 -279 -317 0
316 -279 317 0
-316 279 317 0
317 284 -318 0
-317 -284 -318 0
317 -284 318 0
-317 284 318 0
-318 0
4 5 -319 0
-4 -5 -319 0
4 -5 319 0
-4 5 319 0
319 144 -320 0
-319 -144 -320 0
319 -144 320 0
-319 144 320 0
320 145 -321 0
-320 -145 -321 0
320 -145 321 0
-320 145 321 0
321 150 -322 0
-321 -150 -322 0
321 -150 322 0
-321 150 322 0
322 270 -323 0
-322 -270 -323 0
322 -270 323 0
-322 270 323 0
323 280 -324 0
-323 -280 -324 0
323 -280 324 0
-323 280 324 0
324 285 -325 0
-324 -285 -325 0
324 -285 325 0
-324 285 325 0
-325 0
1 5 -326 0
-1 -5 -326 0
1 -5 326 0
-1 5 326 0
326 6 -327 0
-326 -6 -327 0
326 -6 327 0
-326 6 327 0
327 145 -328 0
-327 -145 -328 0
327 -145 328 0
-327 145 328 0
328 151 -329 0
-328 -151 -329 0
328 -151 329 0
-328 151 329 0
329 271 -330 0
-329 -271 -330 0
329 -271 330 0
-329 271 330 0
330 281 -331 0
-330 -281 -331 0
330 -281 331 0
-330 281 331 0
331 286 -332 0
-331 -286 -332 0
331 -286 332 0
-331 286 332 0
-332 0
1 2 -333 0
-1 -2 -333 0
1 -2 333 0
-1 2 333 0
333 6 -334 0
-333 -6 -334 0
333 -6 334 0
-333 6 334 0
334 7 -335 0
-334 -7 -335 0
334 -7 335 0
-334 7 335 0
335 152 -336 0
-335 -152 -336 0
335 -152 336 0
-335 152 336 0
336 272 -337 0
-336 -272 -337 0
336 -272 337 0
-336 272 337 0
337 282 -338 0
-337 -282 -338 0
337 -282 338 0
-337 282 338 0
338 287 -339 0
-338 -287 -339 0
338 -287 339 0
-338 287 339 0
-339 0
2 3 -340 0
-2 -3 -340 0
2 -3 340 0
-2 3 340 0
340 7 -341 0
-340 -7 -341 0
340 -7 341 0
-340 7 341 0
341 8 -342 0
-341 -8 -342 0
341 -8 342 0
-341 8 342 0
342 153 -343 0
-342 -153 -343 0
342 -153 343 0
-342 153 343 0
343 273 -344 0
-343 -273 -344 0
343 -273 344 0
-343 273 344 0
344 283 -345 0
-344 -283 -345 0
344 -283 345 0
-344 283 345 0
345 288 -346 0
-345 -288 -346 0
345 -288 346 0
-345 288 346 0
-346 0
3 4 -347 0
-3 -4 -347 0
3 -4 347 0
-3 4 347 0
347 8 -348 0
-347 -8 -348 0
347 -8 348 0
-347 8 348 0
348 9 -349 0
-348 -9 -349 0
348 -9 349 0
-348 9 349 0
349 154 -350 0
-349 -154 -350 0
349 -154 350 0
-349 154 350 0
350 274 -351 0
-350 -274 -351 0
350 -274 351 0
-350 274 351 0
351 284 -352 0
-351 -284 -352 0
351 -284 352 0
-351 284 352 0
352 289 -353 0
-352 -289 -353 0
352 -289 353 0
-352 289 353 0
-353 0
4 5 -354 0
-4 -5 -354 0
4 -5 354 0
-4 5 354 0
354 9 -355 0
-354 -9 -355 0
354 -9 355 0
-354 9 355 0
355 10 -356 0
-355 -10 -356 0
355 -10 356 0
-355 10 356 0
356 155 -357 0
-356 -155 -357 0
356 -155 357 0
-356 155 357 0
357 275 -358 0
-357 -275 -358 0
357 -275 358 0
-357 275 358 0
358 285 -359 0
-358 -285 -359 0
358 -285 359 0
-358 285 359 0
359 290 -360 0
-359 -290 -360 0
359 -290 360 0
-359 290 360 0
-360 0
5 6 -361 0
-5 -6 -361 0
5 -6 361 0
-5 6 361 0
361 10 -362 0
-361 -10 -362 0
361 -10 362 0
-361 10 362 0
362 11 -363 0
-362 -11 -363 0
362 -11 363 0
-362 11 363 0
363 146 -364 0
-363 -146 -364 0
363 -146 364 0
-363 146 364 0
364 156 -365 0
-364 -156 -365 0
364 -156 365 0
-364 156 365 0
365 276 -366 0
-365 -276 -366 0
365 -276 366 0
-365 276 366 0
366 286 -367 0
-366 -286 -367 0
366 -286 367 0
-366 286 367 0
-367 0
6 7 -368 0
-6 -7 -368 0
6 -7 368 0
-6 7 368 0
368 11 -369 0
-368 -11 -369 0
368 -11 369 0
-368 11 369 0
369 12 -370 0
-369 -12 -370 0
369 -12 370 0
-369 12 370 0
370 147 -371 0
-370 -147 -371 0
370 -147 371 0
-370 147 371 0
371 157 -372 0
-371 -157 -372 0
371 -157 372 0
-371 157 372 0
372 277 -373 0
-372 -277 -373 0
372 -277 373 0
-372 277 373 0
373 287 -374 0
-373 -287 -374 0
373 -287 374 0
-373 287 374 0
-374 0
7 8 -375 0
-7 -8 -375 0
7 -8 375 0
-7 8 375 0
375 12 -376 0
-375 -12 -376 0
375 -12 376 0
-375 12 376 0
376 13 -377 0
-376 -13 -377 0
376 -13 377 0
-376 13 377 0
377 148 -378 0
-377 -148 -378 0
377 -148 378 0
-377 148 378 0
378 158 -379 0
-378 -158 -379 0
378 -158 379 0
-378 158 379 0
379 278 -380 0
-379 -278 -380 0
379 -278 380 0
-379 278 380 0
380 288 -381 0
-380 -288 -381 0
380 -288 381 0
-380 288 381 0
-381 0
8 9 -382 0
-8 -9 -382 0
8 -9 382 0
-8 9 382 0
382 13 -383 0
-382 -13 -383 0
382 -13 383 0
-382 13 383 0
383 14 -384 0
-383 -14 -384 0
383 -14 384 0
-383 14 384 0
384 149 -385 0
-384 -149 -385 0
384 -149 385 0
-384 149 385 0
385 159 -386 0
-385 -159 -386 0
385 -159 386 0
-385 159 386 0
386 279 -387 0
-386 -279 -387 0
386 -279 387 0
-386 279 387 0
387 289 -388 0
-387 -289 -388 0
387 -289 388 0
-387 289 388 0
-388 0
9 10 -389 0
-9 -10 -389 0
9 -10 389 0
-9 10 389 0
389 14 -390 0
-389 -14 -390 0
389 -14 390 0
-389 14 390 0
390 15 -391 0
-390 -15 -391 0
390 -15 391 0
-390 15 391 0
391 150 -392 0
-391 -150 -392 0
391 -150 392 0
-391 150 392 0
392 160 -393 0
-392 -160 -393 0
392 -160 393 0
-392 160 393 0
393 280 -394 0
-393 -280 -394 0
393 -280 394 0
-393 280 394 0
394 290 -395 0
-394 -290 -395 0
394 -290 395 0
-394 290 395 0
-395 0
10 11 -396 0
-10 -11 -396 0
10 -11 396 0
-10 11 396 0
396 15 -397 0
-396 -15 -397 0
396 -15 397 0
-396 15 397 0
397 16 -398 0
-397 -16 -398 0
397 -16 398 0
-397 16 398 0
398 146 -399 0
-398 -146 -399 0
398 -146 399 0
-398 146 399 0
399 151 -400 0
-399 -151 -400 0
399 -151 400 0
-399 151 400 0
400 161 -401 0
-400 -161 -401 0
400 -161 401 0
-400 161 401 0
401 281 -402 0
-401 -281 -402 0
401 -281 402 0
-401 281 402 0
-402 0
11 12 -403 0
-11 -12 -403 0
11 -12 403 0
-11 12 403 0
403 16 -404 0
-403 -16 -404 0
403 -16 404 0
-403 16 404 0
404 17 -405 0
-404 -17 -405 0
404 -17 405 0
-404 17 405 0
405 147 -406 0
-405 -147 -406 0
405 -147 406 0
-405 147 406 0
406 152 -407 0
-406 -152 -407 0
406 -152 407 0
-406 152 407 0
407 162 -408 0
-407 -162 -408 0
407 -162 408 0
-407 162 408 0
408 282 -409 0
-408 -282 -409 0
408 -282 409 0
-408 282 409 0
-409 0
12 13 -410 0
-12 -13 -410 0
12 -13 410 0
-12 13 410 0
410 17 -411 0
-410 -17 -411 0
410 -17 411 0
-410 17 411 0
411 18 -412 0
-411 -18 -412 0
411 -18 412 0
-411 18 412 0
412 148 -413 0
-412 -148 -413 0
412 -148 413 0
-412 148 413 0
413 153 -414 0
-413 -153 -414 0
413 -153 414 0
-413 153 414 0
414 163 -415 0
-414 -163 -415 0
414 -163 415 0
-414 163 415 0
415 283 -416 0
-415 -283 -416 0
415 -283 416 0
-415 283 416 0
-416 0
13 14 -417 0
-13 -14 -417 0
13 -14 417 0
-13 14 417 0
417 18 -418 0
-417 -18 -418 0
417 -18 418 0
-417 18 418 0
418 19 -419 0
-418 -19 -419 0
418 -19 419 0
-418 19 419 0
419 149 -420 0
-419 -149 -420 0
419 -149 420 0
-419 149 420 0
420 154 -421 0
-420 -154 -421 0
420 -154 421 0
-420 154 421 0
421 164 -422 0
-421 -164 -422 0
421 -164 422 0
-421 164 422 0
422 284 -423 0
-422 -284 -423 0
422 -284 423 0
-422 284 423 0
-423 0
14 15 -424 0
-14 -15 -424 0
14 -15 424 0
-14 15 424 0
424 19 -425 0
-424 -19 -425 0
424 -19 425 0
-424 19 425 0
425 20 -426 0
-425 -20 -426 0
425 -20 426 0
-425 20 426 0
426 150 -427 0
-426 -150 -427 0
426 -150 427 0
-426 150 427 0
427 155 -428 0
-427 -155 -428 0
427 -155 428 0
-427 155 428 0
428 165 -429 0
-428 -165 -429 0
428 -165 429 0
-428 165 429 0
429 285 -430 0
-429 -285 -430 0
429 -285 430 0
-429 285 430 0
-430 0
15 16 -431 0
-15 -16 -431 0
15 -16 431 0
-15 16 431 0
431 20 -432 0
-431 -20 -432 0
431 -20 432 0
-431 20 432 0
432 21 -433 0
-432 -21 -433 0
432 -21 433 0
-432 21 433 0
433 151 -434 0
-433 -151 -434 0
433 -151 434 0
-433 151 434 0
434 156 -435 0
-434 -156 -435 0
434 -156 435 0
-434 156 435 0
435 166 -436 0
-435 -166 -436 0
435 -166 436 0
-435 166 436 0
436 286 -437 0
-436 -286 -437 0
436 -286 437 0
-436 286 437 0
-437 0
16 17 -438 0
-16 -17 -438 0
16 -17 438 0
-16 17 438 0
438 21 -439 0
-438 -21 -439 0
438 -21 439 0
-438 21 439 0
439 22 -440 0
-439 -22 -440 0
439 -22 440 0
-439 22 440 0
440 152 -441 0
-440 -152 -441 0
440 -152 441 0
-440 152 441 0
441 157 -442 0
-441 -157 -442 0
441 -157 442 0
-441 157 442 0
442 167 -443 0
-442 -167 -443 0
442 -167 443 0
-442 167 443 0
443 287 -444 0
-443 -287 -444 0
443 -287 444 0
-443 287 444 0
-444 0
17 18 -445 0
-17 -18 -445 0
17 -18 445 0
-17 18 445 0
445 22 -446 0
-445 -22 -446 0
445 -22 446 0
-445 22 446 0
446 23 -447 0
-446 -23 -447 0
446 -23 447 0
-446 23 447 0
447 153 -448 0
-447 -153 -448 0
447 -153 448 0
-447 153 448 0
448 158 -449 0
-448 -158 -449 0
448 -158 449 0
-448 158 449 0
449 168 -450 0
-449 -168 -450 0
449 -168 450 0
-449 168 450 0
450 288 -451 0
-450 -288 -451 0
450 -288 451 0
-450 288 451 0
-451 0
18 19 -452 0
-18 -19 -452 0
18 -19 452 0
-18 19 452 0
452 23 -453 0
-452 -23 -453 0
452 -23 453 0
-452 23 453 0
453 24 -454 0
-453 -24 -454 0
453 -24 454 0
-453 24 454 0
454 154 -455 0
-454 -154 -455 0
454 -154 455 0
-454 154 455 0
455 159 -456 0
-455 -159 -456 0
455 -159 456 0
-455 159 456 0
456 169 -457 0
-456 -169 -457 0
456 -169 457 0
-456 169 457 0
457 289 -458 0
-457 -289 -458 0
457 -289 458 0
-457 289 458 0
-458 0
19 20 -459 0
-19 -20 -459 0
19 -20 459 0
-19 20 459 0
459 24 -460 0
-459 -24 -460 0
459 -24 460 0
-459 24 460 0
460 25 -461 0
-460 -25 -461 0
460 -25 461 0
-460 25 461 0
461 155 -462 0
-461 -155 -462 0
461 -155 462 0
-461 155 462 0
462 160 -463 0
-462 -160 -463 0
462 -160 463 0
-462 160 463 0
463 170 -464 0
-463 -170 -464 0
463 -170 464 0
-463 170 464 0
464 290 -465 0
-464 -290 -465 0
464 -290 465 0
-464 290 465 0
-465 0
20 21 -466 0
-20 -21 -466 0
20 -21 466 0
-20 21 466 0
466 25 -467 0
-466 -25 -467 0
466 -25 467 0
-466 25 467 0
467 26 -468 0
-467 -26 -468 0
467 -26 468 0
-467 26 468 0
468 146 -469 0
-468 -146 -469 0
468 -146 469 0
-468 146 469 0
469 156 -470 0
-469 -156 -470 0
469 -156 470 0
-469 156 470 0
470 161 -471 0
-470 -161 -471 0
470 -161 471 0
-470 161 471 0
471 171 -472 0
-471 -171 -472 0
471 -171 472 0
-471 171 472 0
-472 0
21 22 -473 0
-21 -22 -473 0
21 -22 473 0
-21 22 473 0
473 26 -474 0
-473 -26 -474 0
473 -26 474 0
-473 26 474 0
474 27 -475 0
-474 -27 -475 0
474 -27 475 0
-474 27 475 0
475 147 -476 0
-475 -147 -476 0
475 -147 476 0
-475 147 476 0
476 157 -477 0
-476 -157 -477 0
476 -157 477 0
-476 157 477 0
477 162 -478 0
-477 -162 -478 0
477 -162 478 0
-477 162 478 0
478 172 -479 0
-478 -172 -479 0
478 -172 479 0
-478 172 479 0
-479 0
22 23 -480 0
-22 -23 -480 0
22 -23 480 0
-22 23 480 0
480 27 -481 0
-480 -27 -481 0
480 -27 481 0
-480 27 481 0
481 28 -482 0
-481 -28 -482 0
481 -28 482 0
-481 28 482 0
482 148 -483 0
-482 -148 -483 0
482 -148 483 0
-482 148 483 0
483 158 -484 0
-483 -158 -484 0
483 -158 484 0
-483 158 484 0
484 163 -485 0
-484 -163 -485 0
484 -163 485 0
-484 163 485 0
485 173 -486 0
-485 -173 -486 0
485 -173 486 0
-485 173 486 0
-486 0
23 24 -487 0
-23 -24 -487 0
23 -24 487 0
-23 24 487 0
487 28 -488 0
-487 -28 -488 0
487 -28 488 0
-487 28 488 0
488 29 -489 0
-488 -29 -489 0
488 -29 489 0
-488 29 489 0
489 149 -490 0
-489 -149 -490 0
489 -149 490 0
-489 149 490 0
490 159 -491 0
-490 -159 -491 0
490 -159 491 0
-490 159 491 0
491 164 -492 0
-491 -164 -492 0
491 -164 492 0
-491 164 492 0
492 174 -493 0
-492 -174 -493 0
492 -174 493 0
-492 174 493 0
-493 0
24 25 -494 0
-24 -25 -494 0
24 -25 494 0
-24 25 494 0
494 29 -495 0
-494 -29 -495 0
494 -29 495 0
-494 29 495 0
495 30 -496 0
-495 -30 -496 0
495 -30 496 0
-495 30 496 0
496 150 -497 0
-496 -150 -497 0
496 -150 497 0
-496 150 497 0
497 160 -498 0
-497 -160 -498 0
497 -160 498 0
-497 160 498 0
498 165 -499 0
-498 -165 -499 0
498 -165 499 0
-498 165 499 0
499 175 -500 0
-499 -175 -500 0
499 -175 500 0
-499 175 500 0
-500 0
25 26 -501 0
-25 -26 -501 0
25 -26 501 0
-25 26 501 0
501 30 -502 0
-501 -30 -502 0
501 -30 502 0
-501 30 502 0
502 31 -503 0
-502 -31 -503 0
502 -31 503 0
-502 31 503 0
503 151 -504 0
-503 -151 -504 0
503 -151 504 0
-503 151 504 0
504 161 -505 0
-504 -161 -505 0
504 -161 505 0
-504 161 505 0
505 166 -506 0
-505 -166 -506 0
505 -166 506 0
-505 166 506 0
506 176 -507 0
-506 -176 -507 0
506 -176 507 0
-506 176 507 0
-507 0
26 27 -508 0
-26 -27 -508 0
26 -27 508 0
-26 27 508 0
508 31 -509 0
-508 -31 -509 0
508 -31 509 0
-508 31 509 0
509 32 -510 0
-509 -32 -510 0
509 -32 510 0
-509 32 510 0
510 152 -511 0
-510 -152 -511 0
510 -152 511 0
-510 152 511 0
511 162 -512 0
-511 -162 -512 0
511 -162 512 0
-511 162 512 0
512 167 -513 0
-512 -167 -513 0
512 -167 513 0
-512 167 513 0
513 177 -514 0
-513 -177 -514 0
513 -177 514 0
-513 177 514 0
-514 0
27 28 -515 0
-27 -28 -515 0
27 -28 515 0
-27 28 515 0
515 32 -516 0
-515 -32 -516 0
515 -32 516 0
-515 32 516 0
516 33 -517 0
-516 -33 -517 0
516 -33 517 0
-516 33 517 0
517 153 -518 0
-517 -153 -518 0
517 -153 518 0
-517 153 518 0
518 163 -519 0
-518 -163 -519 0
518 -163 519 0
-518 163 519 0
519 168 -520 0
-519 -168 -520 0
519 -168 520 0
-519 168 520 0
520 178 -521 0
-520 -178 -521 0
520 -178 521 0
-520 178 521 0
-521 0
28 29 -522 0
-28 -29 -522 0
28 -29 522 0
-28 29 522 0
522 33 -523 0
-522 -33 -523 0
522 -33 523 0
-522 33 523 0
523 34 -524 0
-523 -34 -524 0
523 -34 524 0
-523 34 524 0
524 154 -525 0
-524 -154 -525 0
524 -154 525 0
-524 154 525 0
525 164 -526 0
-525 -164 -526 0
525 -164 526 0
-525 164 526 0
526 169 -527 0
-526 -169 -527 0
526 -169 527 0
-526 169 527 0
527 179 -528 0
-527 -179 -528 0
527 -179 528 0
-527 179 528 0
-528 0
29 30 -529 0
-29 -30 -529 0
29 -30 529 0
-29 30 529 0
529 34 -530 0
-529 -34 -530 0
529 -34 530 0
-529 34 530 0
530 35 -531 0
-530 -35 -531 0
530 -35 531 0
-530 35 531 0
531 155 -532 0
-531 -155 -532 0
531 -155 532 0
-531 155 532 0
532 165 -533 0
-532 -165 -533 0
532 -165 533 0
-532 165 533 0
533 170 -534 0
-533 -170 -534 0
533 -170 534 0
-533 170 534 0
534 180 -535 0
-534 -180 -535 0
534 -180 535 0
-534 180 535 0
-535 0
30 31 -536 0
-30 -31 -536 0
30 -31 536 0
-30 31 536 0
536 35 -537 0
-536 -35 -537 0
536 -35 537 0
-536 35 537 0
537 36 -538 0
-537 -36 -538 0
537 -36 538 0
-537 36 538 0
538 156 -539 0
-538 -156 -539 0
538 -156 539 0
-538 156 539 0
539 166 -540 0
-539 -166 -540 0
539 -166 540 0
-539 166 540 0
540 171 -541 0
-540 -171 -541 0
540 -171 541 0
-540 171 541 0
541 181 -542 0
-541 -181 -542 0
541 -181 542 0
-541 181 542 0
-542 0
31 32 -543 0
-31 -32 -543 0
31 -32 543 0
-31 32 543 0
543 36 -544 0
-543 -36 -544 0
543 -36 544 0
-543 36 544 0
544 37 -545 0
-544 -37 -545 0
544 -37 545 0
-544 37 545 0
545 157 -546 0
-545 -157 -546 0
545 -157 546 0
-545 157 546 0
546 167 -547 0
-546 -167 -547 0
546 -167 547 0
-546 167 547 0
547 172 -548 0
-547 -172 -548 0
547 -172 548 0
-547 172 548 0
548 182 -549 0
-548 -182 -549 0
548 -182 549 0
-548 182 549 0
-549 0
32 33 -550 0
-32 -33 -550 0
32 -33 550 0
-32 33 550 0
550 37 -551 0
-550 -37 -551 0
550 -37 551 0
-550 37 551 0
551 38 -552 0
-551 -38 -552 0
551 -38 552 0
-551 38 552 0
552 158 -553 0
-552 -158 -553 0
552 -158 553 0
-552 158 553 0
553 168 -554 0
-553 -168 -554 0
553 -168 554 0
-553 168 554 0
554 173 -555 0
-554 -173 -555 0
554 -173 555 0
-554 173 555 0
555 183 -556 0
-555 -183 -556 0
555 -183 556 0
-555 183 556 0
-556 0
33 34 -557 0
-33 -34 -557 0
33 -34 557 0
-33 34 557 0
557 38 -558 0
-557 -38 -558 0
557 -38 558 0
-557 38 558 0
558 39 -559 0
-558 -39 -559 0
558 -39 559 0
-558 39 559 0
559 159 -560 0
-559 -159 -560 0
559 -159 560 0
-559 159 560 0
560 169 -561 0
-560 -169 -561 0
560 -169 561 0
-560 169 561 0
561 174 -562 0
-561 -174 -562 0
561 -174 562 0
-561 174 562 0
562 184 -563 0
-562 -184 -563 0
562 -184 563 0
-562 184 563 0
-563 0
34 35 -564 0
-34 -35 -564 0
34 -35 564 0
-34 35 564 0
564 39 -565 0
-564 -39 -565 0
564 -39 565 0
-564 39 565 0
565 40 -566 0
-565 -40 -566 0
565 -40 566 0
-565 40 566 0
566 160 -567 0
-566 -160 -567 0
566 -160 567 0
-566 160 567 0
567 170 -568 0
-567 -170 -568 0
567 -170 568 0
-567 170 568 0
568 175 -569 0
-568 -175 -569 0
568 -175 569 0
-568 175 569 0
569 185 -570 0
-569 -185 -570 0
569 -185 570 0
-569 185 570 0
-570 0
35 36 -571 0
-35 -36 -571 0
35 -36 571 0
-35 36 571 0
571 40 -572 0
-571 -40 -572 0
571 -40 572 0
-571 40 572 0
572 41 -573 0
-572 -41 -573 0
572 -41 573 0
-572 41 573 0
573 161 -574 0
-573 -161 -574 0
573 -161 574 0
-573 161 574 0
574 171 -575 0
-574 -171 -575 0
574 -171 575 0
-574 171 575 0
575 176 -576 0
-575 -176 -576 0
575 -176 576 0
-575 176 576 0
576 186 -577 0
-576 -186 -577 0
576 -186 577 0
-576 186 577 0
-577 0
36 37 -578 0
-36 -37 -578 0
36 -37 578 0
-36 37 578 0
578 41 -579 0
-578 -41 -579 0
578 -41 579 0
-578 41 579 0
579 42 -580 0
-579 -42 -580 0
579 -42 580 0
-579 42 580 0
580 162 -581 0
-580 -162 -581 0
580 -162 581 0
-580 162 581 0
581 172 -582 0
-581 -172 -582 0
581 -172 582 0
-581 172 582 0
582 177 -583 0
-582 -177 -583 0
582 -177 583 0
-582 177 583 0
583 187 -584 0
-583 -187 -584 0
583 -187 584 0
-583 187 584 0
-584 0
37 38 -585 0
-37 -38 -585 0
37 -38 585 0
-37 38 585 0
585 42 -586 0
-585 -42 -586 0
585 -42 586 0
-585 42 586 0
586 43 -587 0
-586 -43 -587 0
586 -43 587 0
-586 43 587 0
587 163 -588 0
-587 -163 -588 0
587 -163 588 0
-587 163 588 0
588 173 -589 0
-588 -173 -589 0
588 -173 589 0
-588 173 589 0
589 178 -590 0
-589 -178 -590 0
589 -178 590 0
-589 178 590 0
590 188 -591 0
-590 -188 -591 0
590 -188 591 0
-590 188 591 0
-591 0
38 39 -592 0
-38 -39 -592 0
38 -39 592 0
-38 39 592 0
592 43 -593 0
-592 -43 -593 0
592 -43 593 0
-592 43 593 0
593 44 -594 0
-593 -44 -594 0
593 -44 594 0
-593 44 594 0
594 164 -595 0
-594 -164 -595 0
594 -164 595 0
-594 164 595 0
595 174 -596 0
-595 -174 -596 0
595 -174 596 0
-595 174 596 0
596 179 -597 0
-596 -179 -597 0
596 -179 597 0
-596 179 597 0
597 189 -598 0
-597 -189 -598 0
597 -189 598 0
-597 189 598 0
-598 0
39 40 -599 0
-39 -40 -599 0
39 -40 599 0
-39 40 599 0
599 44 -600 0
-599 -44 -600 0
599 -44 600 0
-599 44 600 0
600 45 -601 0
-600 -45 -601 0
600 -45 601 0
-600 45 601 0
601 165 -602 0
-601 -165 -602 0
601 -165 602 0
-601 165 602 0
602 175 -603 0
-602 -175 -603 0
602 -175 603 0
-602 175 603 0
603 180 -604 0
-603 -180 -604 0
603 -180 604 0
-603 180 604 0
604 190 -605 0
-604 -190 -605 0
604 -190 605 0
-604 190 605 0
-605 0
40 41 -606 0
-40 -41 -606 0
40 -41 606 0
-40 41 606 0
606 45 -607 0
-606 -45 -607 0
606 -45 607 0
-606 45 607 0
607 46 -608 0
-607 -46 -608 0
607 -46 608 0
-607 46 608 0
608 166 -609 0
-608 -166 -609 0
608 -166 609 0
-608 166 609 0
609 176 -610 0
-609 -176 -610 0
609 -176 610 0
-609 176 610 0
610 181 -611 0
-610 -181 -611 0
610 -181 611 0
-610 181 611 0
611 191 -612 0
-611 -191 -612 0
611 -191 612 0
-611 191 612 0
-612 0
41 42 -613 0
-41 -42 -613 0
41 -42 613 0
-41 42 613 0
613 46 -614 0
-613 -46 -614 0
613 -46 614 0
-613 46 614 0
614 47 -615 0
-614 -47 -615 0
614 -47 615 0
-614 47 615 0
615 167 -616 0
-615 -167 -616 0
615 -167 616 0
-615 167 616 0
616 177 -617 0
-616 -177 -617 0
616 -177 617 0
-616 177 617 0
617 182 -618 0
-617 -182 -618 0
617 -182 618 0
-617 182 618 0
618 192 -619 0
-618 -192 -619 0
618 -192 619 0
-618 192 619 0
-619 0
42 43 -620 0
-42 -43 -620 0
42 -43 620 0
-42 43 620 0
620 47 -621 0
-620 -47 -621 0
620 -47 621 0
-620 47 621 0
621 48 -622 0
-621 -48 -622 0
621 -48 622 0
-621 48 622 0
622 168 -623 0
-622 -168 -623 0
622 -168 623 0
-622 168 623 0
623 178 -624 0
-623 -178 -624 0
623 -178 624 0
-623 178 624 0
624 183 -625 0
-624 -183 -625 0
624 -183 625 0
-624 183 625 0
625 193 -626 0
-625 -193 -626 0
625 -193 626 0
-625 193 626 0
-626 0
43 44 -627 0
-43 -44 -627 0
43 -44 627 0
-43 44 627 0
627 48 -628 0
-627 -48 -628 0
627 -48 628 0
-627 48 628 0
628 49 -629 0
-628 -49 -629 0
628 -49 629 0
-628 49 629 0
629 169 -630 0
-629 -169 -630 0
629 -169 630 0
-629 169 630 0
630 179 -631 0
-630 -179 -631 0
630 -179 631 0
-630 179 631 0
631 184 -632 0
-631 -184 -632 0
631 -184 632 0
-631 184 632 0
632 194 -633 0
-632 -194 -633 0
632 -194 633 0
-632 194 633 0
-633 0
44 45 -634 0
-44 -45 -634 0
44 -45 634 0
-44 45 634 0
634 49 -635 0
-634 -49 -635 0
634 -49 635 0
-634 49 635 0
635 50 -636 0
-635 -50 -636 0
635 -50 636 0
-635 50 636 0
636 170 -637 0
-636 -170 -637 0
636 -170 637 0
-636 170 637 0
637 180 -638 0
-637 -180 -638 0
637 -180 638 0
-637 180 638 0
638 185 -639 0
-638 -185 -639 0
638 -185 639 0
-638 185 639 0
639 195 -640 0
-639 -195 -640 0
639 -195 640 0
-639 195 640 0
-640 0
45 46 -641 0
-45 -46 -641 0
45 -46 641 0
-45 46 641 0
641 50 -642 0
-641 -50 -642 0
641 -50 642 0
-641 50 642 0
642 51 -643 0
-642 -51 -643 0
642 -51 643 0
-642 51 643 0
643 171 -644 0
-643 -171 -644 0
643 -171 644 0
-643 171 644 0
644 181 -645 0
-644 -181 -645 0
644 -181 645 0
-644 181 645 0
645 186 -646 0
-645 -186 -646 0
645 -186 646 0
-645 186 646 0
646 196 -647 0
-646 -196 -647 0
646 -196 647 0
-646 196 647 0
-647 0
46 47 -648 0
-46 -47 -648 0
46 -47 648 0
-46 47 648 0
648 51 -649 0
-648 -51 -649 0
648 -51 649 0
-648 51 649 0
649 52 -650 0
-649 -52 -650 0
649 -52 650 0
-649 52 650 0
650 172 -651 0
-650 -172 -651 0
650 -172 651 0
-650 172 651 0
651 182 -652 0
-651 -182 -652 0
651 -182 652 0
-651 182 652 0
652 187 -653 0
-652 -187 -653 0
652 -187 653 0
-652 187 653 0
653 197 -654 0
-653 -197 -654 0
653 -197 654 0
-653 197 654 0
-654 0
47 48 -655 0
-47 -48 -655 0
47 -48 655 0
-47 48 655 0
655 52 -656 0
-655 -52 -656 0
655 -52 656 0
-655 52 656 0
656 53 -657 0
-656 -53 -657 0
656 -53 657 0
-656 53 657 0
657 173 -658 0
-657 -173 -658 0
657 -173 658 0
-657 173 658 0
658 183 -659 0
-658 -183 -659 0
658 -183 659 0
-658 183 659 0
659 188 -660 0
-659 -188 -660 0
659 -188 660 0
-659 188 660 0
660 198 -661 0
-660 -198 -661 0
660 -198 661 0
-660 198 661 0
-661 0
48 49 -662 0
-48 -49 -662 0
48 -49 662 0
-48 49 662 0
662 53 -663 0
-662 -53 -663 0
662 -53 663 0
-662 53 663 0
663 54 -664 0
-663 -54 -664 0
663 -54 664 0
-663 54 664 0
664 174 -665 0
-664 -174 -665 0
664 -174 665 0
-664 174 665 0
665 184 -666 0
-665 -184 -666 0
665 -184 666 0
-665 184 666 0
666 189 -667 0
-666 -189 -667 0
666 -189 667 0
-666 189 667 0
667 199 -668 0
-667 -199 -668 0
667 -199 668 0
-667 199 668 0
-668 0
49 50 -669 0
-49 -50 -669 0
49 -50 669 0
-49 50 669 0
669 54 -670 0
-669 -54 -670 0
669 -54 670 0
-669 54 670 0
670 55 -671 0
-670 -55 -671 0
670 -55 671 0
-670 55 671 0
671 175 -672 0
-671 -175 -672 0
671 -175 672 0
-671 175 672 0
672 185 -673 0
-672 -185 -673 0
672 -185 673 0
-672 185 673 0
673 190 -674 0
-673 -190 -674 0
673 -190 674 0
-673 190 674 0
674 200 -675 0
-674 -200 -675 0
674 -200 675 0
-674 200 675 0
-675 0
50 51 -676 0
-50 -51 -676 0
50 -51 676 0
-50 51 676 0
676 55 -677 0
-676 -55 -677 0
676 -55 677 0
-676 55 677 0
677 56 -678 0
-677 -56 -678 0
677 -56 678 0
-677 56 678 0
678 176 -679 0
-678 -176 -679 0
678 -176 679 0
-678 176 679 0
679 186 -680 0
-679 -186 -680 0
679 -186 680 0
-679 186 680 0
680 191 -681 0
-680 -191 -681 0
680 -191 681 0
-680 191 681 0
681 201 -682 0
-681 -201 -682 0
681 -201 682 0
-681 201 682 0
-682 0
51 52 -683 0
-51 -52 -683 0
51 -52 683 0
-51 52 683 0
683 56 -684 0
-683 -56 -684 0
683 -56 684 0
-683 56 684 0
684 57 -685 0
-684 -57 -685 0
684 -57 685 0
-684 57 685 0
685 177 -686 0
-685 -177 -686 0
685 -177 686 0
-685 177 686 0
686 187 -687 0
-686 -187 -687 0
686 -187 687 0
-686 187 687 0
687 192 -688 0
-687 -192 -688 0
687 -192 688 0
-687 192 688 0
688 202 -689 0
-688 -202 -689 0
688 -202 689 0
-688 202 689 0
-689 0
52 53 -690 0
-52 -53 -690 0
52 -53 690 0
-52 53 690 0
690 57 -691 0
-690 -57 -691 0
690 -57 691 0
-690 57 691 0
691 58 -692 0
-691 -58 -692 0
691 -58 692 0
-691 58 692 0
692 178 -693 0
-692 -178 -693 0
692 -178 693 0
-692 178 693 0
693 188 -694 0
-693 -188 -694 0
693 -188 694 0
-693 188 694 0
694 193 -695 0
-694 -193 -695 0
694 -193 695 0
-694 193 695 0
695 203 -696 0
-695 -203 -696 0
695 -203 696 0
-695 203 696 0
-696 0
53 54 -697 0
-53 -54 -697 0
53 -54 697 0
-53 54 697 0
697 58 -698 0
-697 -58 -698 0
697 -58 698 0
-697 58 698 0
698 59 -699 0
-698 -59 -699 0
698 -59 699 0
-698 59 699 0
699 179 -700 0
-699 -179 -700 0
699 -179 700 0
-699 179 700 0
700 189 -701 0
-700 -189 -701 0
700 -189 701 0
-700 189 701 0
701 194 -702 0
-701 -194 -702 0
701 -194 702 0
-701 194 702 0
702 204 -703 0
-702 -204 -703 0
702 -204 703 0
-702 204 703 0
-703 0
54 55 -704 0
-54 -55 -704 0
54 -55 704 0
-54 55 704 0
704 59 -705 0
-704 -59 -705 0
704 -59 705 0
-704 59 705 0
705 60 -706 0
-705 -60 -706 0
705 -60 706 0
-705 60 706 0
706 180 -707 0
-706 -180 -707 0
706 -180 707 0
-706 180 707 0
707 190 -708 0
-707 -190 -708 0
707 -190 708 0
-707 190 708 0
708 195 -709 0
-708 -195 -709 0
708 -195 709 0
-708 195 709 0
709 205 -710 0
-709 -205 -710 0
709 -205 710 0
-709 205 710 0
-710 0
55 56 -711 0
-55 -56 -711 0
55 -56 711 0
-55 56 711 0
711 60 -712 0
-711 -60 -712 0
711 -60 712 0
-711 60 712 0
712 61 -713 0
-712 -61 -713 0
712 -61 713 0
-712 61 713 0
713 181 -714 0
-713 -181 -714 0
713 -181 714 0
-713 181 714 0
714 191 -715 0
-714 -191 -715 0
714 -191 715 0
-714 191 715 0
715 196 -716 0
-715 -196 -716 0
715 -196 716 0
-715 196 716 0
716 206 -717 0
-716 -206 -717 0
716 -206 717 0
-716 206 717 0
-717 0
56 57 -718 0
-56 -57 -718 0
56 -57 718 0
-56 57 718 0
718 61 -719 0
-718 -61 -719 0
718 -61 719 0
-718 61 719 0
719 62 -720 0
-719 -62 -720 0
719 -62 720 0
-719 62 720 0
720 182 -721 0
-720 -182 -721 0
720 -182 721 0
-720 182 721 0
721 192 -722 0
-721 -192 -722 0
721 -192 722 0
-721 192 722 0
722 197 -723 0
-722 -197 -723 0
722 -197 723 0
-722 197 723 0
723 207 -724 0
-723 -207 -724 0
723 -207 724 0
-723 207 724 0
-724 0
57 58 -725 0
-57 -58 -725 0
57 -58 725 0
-57 58 725 0
725 62 -726 0
-725 -62 -726 0
725 -62 726 0
-725 62 726 0
726 63 -727 0
-726 -63 -727 0
726 -63 727 0
-726 63 727 0
727 183 -728 0
-727 -183 -728 0
727 -183 728 0
-727 183 728 0
728 193 -729 0
-728 -193 -729 0
728 -193 729 0
-728 193 729 0
729 198 -730 0
-729 -198 -730 0
729 -198 730 0
-729 198 730 0
730 208 -731 0
-730 -208 -731 0
730 -208 731 0
-730 208 731 0
-731 0
58 59 -732 0
-58 -59 -732 0
58 -59 732 0
-58 59 732 0
732 63 -733 0
-732 -63 -733 0
732 -63 733 0
-732 63 733 0
733 64 -734 0
-733 -64 -734 0
733 -64 734 0
-733 64 734 0
734 184 -735 0
-734 -184 -735 0
734 -184 735 0
-734 184 735 0
735 194 -736 0
-735 -194 -736 0
735 -194 736 0
-735 194 736 0
736 199 -737 0
-736 -199 -737 0
736 -199 737 0
-736 199 737 0
737 209 -738 0
-737 -209 -738 0
737 -209 738 0
-737 209 738 0
-738 0
59 60 -739 0
-59 -60 -739 0
59 -60 739 0
-59 60 739 0
739 64 -740 0
-739 -64 -740 0
739 -64 740 0
-739 64 740 0
740 65 -741 0
-740 -65 -741 0
740 -65 741 0
-740 65 741 0
741 185 -742 0
-741 -185 -742 0
741 -185 742 0
-741 185 742 0
742 195 -743 0
-742 -195 -743 0
742 -195 743 0
-742 195 743 0
743 200 -744 0
-743 -200 -744 0
743 -200 744 0
-743 200 744 0
744 210 -745 0
-744 -210 -745 0
744 -210 745 0
-744 210 745 0
-745 0
60 61 -746 0
-60 -61 -746 0
60 -61 746 0
-60 61 746 0
746 65 -747 0
-746 -65 -747 0
746 -65 747 0
-746 65 747 0
747 66 -748 0
-747 -66 -748 0
747 -66 748 0
-747 66 748 0
748 186 -749 0
-748 -186 -749 0
748 -186 749 0
-748 186 749 0
749 196 -750 0
-749 -196 -750 0
749 -196 750 0
-749 196 750 0
750 201 -751 0
-750 -201 -751 0
750 -201 751 0
-750 201 751 0
751 211 -752 0
-751 -211 -752 0
751 -211 752 0
-751 211 752 0
-752 0
61 62 -753 0
-61 -62 -753 0
61 -62 753 0
-61 62 753 0
753 66 -754 0
-753 -66 -754 0
753 -66 754 0
-753 66 754 0
754 67 -755 0
-754 -67 -755 0
754 -67 755 0
-754 67 755 0
755 187 -756 0
-755 -187 -756 0
755 -187 756 0
-755 187 756 0
756 197 -757 0
-756 -197 -757 0
756 -197 757 0
-756 197 757 0
757 202 -758 0
-757 -202 -758 0
757 -202 758 0
-757 202 758 0
758 212 -759 0
-758 -212 -759 0
758 -212 759 0
-758 212 759 0
-759 0
62 63 -760 0
-62 -63 -760 0
62 -63 760 0
-62 63 760 0
760 67 -761 0
-760 -67 -761 0
760 -67 761 0
-760 67 761 0
761 68 -762 0
-761 -68 -762 0
761 -68 762 0
-761 68 762 0
762 188 -763 0
-762 -188 -763 0
762 -188 763 0
-762 188 763 0
763 198 -764 0
-763 -198 -764 0
763 -198 764 0
-763 198 764 0
764 203 -765 0
-764 -203 -765 0
764 -203 765 0
-764 203 765 0
765 213 -766 0
-765 -213 -766 0
765 -213 766 0
-765 213 766 0
-766 0
63 64 -767 0
-63 -64 -767 0
63 -64 767 0
-63 64 767 0
767 68 -768 0
-767 -68 -768 0
767 -68 768 0
-767 68 768 0
768 69 -769 0
-768 -69 -769 0
768 -69 769 0
-768 69 769 0
769 189 -770 0
-769 -189 -770 0
769 -189 770 0
-769 189 770 0
770 199 -771 0
-770 -199 -771 0
770 -199 771 0
-770 199 771 0
771 204 -772 0
-771 -204 -772 0
771 -204 772 0
-771 204 772 0
772 214 -773 0
-772 -214 -773 0
772 -214 773 0
-772 214 773 0
-773 0
64 65 -774 0
-64 -65 -774 0
64 -65 774 0
-64 65 774 0
774 69 -775 0
-774 -69 -775 0
774 -69 775 0
-774 69 775 0
775 70 -776 0
-775 -70 -776 0
775 -70 776 0
-775 70 776 0
776 190 -777 0
-776 -190 -777 0
776 -190 777 0
-776 190 777 0
777 200 -778 0
-777 -200 -778 0
777 -200 778 0
-777 200 778 0
778 205 -779 0
-778 -205 -779 0
778 -205 779 0
-778 205 779 0
779 215 -780 0
-779 -215 -780 0
779 -215 780 0
-779 215 780 0
-780 0
65 66 -781 0
-65 -66 -781 0
65 -66 781 0
-65 66 781 0
781 70 -782 0
-781 -70 -782 0
781 -70 782 0
-781 70 782 0
782 71 -783 0
-782 -71 -783 0
782 -71 783 0
-782 71 783 0
783 191 -784 0
-783 -191 -784 0
783 -191 784 0
-783 191 784 0
784 201 -785 0
-784 -201 -785 0
784 -201 785 0
-784 201 785 0
785 206 -786 0
-785 -206 -786 0
785 -206 786 0
-785 206 786 0
786 216 -787 0
-786 -216 -787 0
786 -216 787 0
-786 216 787 0
-787 0
66 67 -788 0
-66 -67 -788 0
66 -67 788 0
-66 67 788 0
788 71 -789 0
-788 -71 -789 0
788 -71 789 0
-788 71 789 0
789 72 -790 0
-789 -72 -790 0
789 -72 790 0
-789 72 790 0
790 192 -791 0
-790 -192 -791 0
790 -192 791 0
-790 192 791 0
791 202 -792 0
-791 -202 -792 0
791 -202 792 0
-791 202 792 0
792 207 -793 0
-792 -207 -793 0
792 -207 793 0
-792 207 793 0
793 217 -794 0
-793 -217 -794 0
793 -217 794 0
-793 217 794 0
-794 0
67 68 -795 0
-67 -68 -795 0
67 -68 795 0
-67 68 795 0
795 72 -796 0
-795 -72 -796 0
795 -72 796 0
-795 72 796 0
796 73 -797 0
-796 -73 -797 0
796 -73 797 0
-796 73 797 0
797 193 -798 0
-797 -193 -798 0
797 -193 798 0
-797 193 798 0
798 203 -799 0
-798 -203 -799 0
798 -203 799 0
-798 203 799 0
799 208 -800 0
-799 -208 -800 0
799 -208 800 0
-799 208 800 0
800 218 -801 0
-800 -218 -801 0
800 -218 801 0
-800 218 801 0
-801 0
68 69 -802 0
-68 -69 -802 0
68 -69 802 0
-68 69 802 0
802 73 -803 0
-802 -73 -803 0
802 -73 803 0
-802 73 803 0
803 74 -804 0
-803 -74 -804 0
803 -74 804 0
-803 74 804 0
804 194 -805 0
-804 -194 -805 0
804 -194 805 0
-804 194 805 0
805 204 -806 0
-805 -204 -806 0
805 -204 806 0
-805 204 806 0
806 209 -807 0
-806 -209 -807 0
806 -209 807 0
-806 209 807 0
807 219 -808 0
-807 -219 -808 0
807 -219 808 0
-807 219 808 0
-808 0
69 70 -809 0
-69 -70 -809 0
69 -70 809 0
-69 70 809 0
809 74 -810 0
-809 -74 -810 0
809 -74 810 0
-809 74 810 0
810 75 -811 0
-810 -75 -811 0
810 -75 811 0
-810 75 811 0
811 195 -812 0
-811 -195 -812 0
811 -195 812 0
-811 195 812 0
812 205 -813 0
-812 -205 -813 0
812 -205 813 0
-812 205 813 0
813 210 -814 0
-813 -210 -814 0
813 -210 814 0
-813 210 814 0
814 220 -815 0
-814 -220 -815 0
814 -220 815 0
-814 220 815 0
-815 0
70 71 -816 0
-70 -71 -816 0
70 -71 816 0
-70 71 816 0
816 75 -817 0
-816 -75 -817 0
816 -75 817 0
-816 75 817 0
817 76 -818 0
-817 -76 -818 0
817 -76 818 0
-817 76 818 0
818 196 -819 0
-818 -196 -819 0
818 -196 819 0
-818 196 819 0
819 206 -820 0
-819 -206 -820 0
819 -206 820 0
-819 206 820 0
820 211 -821 0
-820 -211 -821 0
820 -211 821 0
-820 211 821 0
821 221 -822 0
-821 -221 -822 0
821 -221 822 0
-821 221 822 0
-822 0
71 72 -823 0
-71 -72 -823 0
71 -72 823 0
-71 72 823 0
823 76 -824 0
-823 -76 -824 0
823 -76 824 0
-823 76 824 0
824 77 -825 0
-824 -77 -825 0
824 -77 825 0
-824 77 825 0
825 197 -826 0
-825 -197 -826 0
825 -197 826 0
-825 197 826 0
826 207 -827 0
-826 -207 -827 0
826 -207 827 0
-826 207 827 0
827 212 -828 0
-827 -212 -828 0
827 -212 828 0
-827 212 828 0
828 222 -829 0
-828 -222 -829 0
828 -222 829 0
-828 222 829 0
-829 0
72 73 -830 0
-72 -73 -830 0
72 -73 830 0
-72 73 830 0
830 77 -831 0
-830 -77 -831 0
830 -77 831 0
-830 77 831 0
831 78 -832 0
-831 -78 -832 0
831 -78 832 0
-831 78 832 0
832 198 -833 0
-832 -198 -833 0
832 -198 833 0
-832 198 833 0
833 208 -834 0
-833 -208 -834 0
833 -208 834 0
-833 208 834 0
834 213 -835 0
-834 -213 -835 0
834 -213 835 0
-834 213 835 0
835 223 -836 0
-835 -223 -836 0
835 -223 836 0
-835 223 836 0
-836 0
73 74 -837 0
-73 -74 -837 0
73 -74 837 0
-73 74 837 0
837 78 -838 0
-837 -78 -838 0
837 -78 838 0
-837 78 838 0
838 79 -839 0
-838 -79 -839 0
838 -79 839 0
-838 79 839 0
839 199 -840 0
-839 -199 -840 0
839 -199 840 0
-839 199 840 0
840 209 -841 0
-840 -209 -841 0
840 -209 841 0
-840 209 841 0
841 214 -842 0
-841 -214 -842 0
841 -214 842 0
-841 214 842 0
842 224 -843 0
-842 -224 -843 0
842 -224 843 0
-842 224 843 0
-843 0
74 75 -844 0
-74 -75 -844 0
74 -75 844 0
-74 75 844 0
844 79 -845 0
-844 -79 -845 0
844 -79 845 0
-844 79 845 0
845 80 -846 0
-845 -80 -846 0
845 -80 846 0
-845 80 846 0
846 200 -847 0
-846 -200 -847 0
846 -200 847 0
-846 200 847 0
847 210 -848 0
-847 -210 -848 0
847 -210 848 0
-847 210 848 0
848 215 -849 0
-848 -215 -849 0
848 -215 849 0
-848 215 849 0
849 225 -850 0
-849 -225 -850 0
849 -225 850 0
-849 225 850 0
-850 0
75 76 -851 0
-75 -76 -851 0
75 -76 851 0
-75 76 851 0
851 80 -852 0
-851 -80 -852 0
851 -80 852 0
-851 80 852 0
852 81 -853 0
-852 -81 -853 0
852 -81 853 0
-852 81 853 0
853 201 -854 0
-853 -201 -854 0
853 -201 854 0
-853 201 854 0
854 211 -855 0
-854 -211 -855 0
854 -211 855 0
-854 211 855 0
855 216 -856 0
-855 -216 -856 0
855 -216 856 0
-855 216 856 0
856 226 -857 0
-856 -226 -857 0
856 -226 857 0
-856 226 857 0
-857 0
76 77 -858 0
-76 -77 -858 0
76 -77 858 0
-76 77 858 0
858 81 -859 0
-858 -81 -859 0
858 -81 859 0
-858 81 859 0
859 82 -860 0
-859 -82 -860 0
859 -82 860 0
-859 82 860 0
860 202 -861 0
-860 -202 -861 0
860 -202 861 0
-860 202 861 0
861 212 -862 0
-861 -212 -862 0
861 -212 862 0
-861 212 862 0
862 217 -863 0
-862 -217 -863 0
862 -217 863 0
-862 217 863 0
863 227 -864 0
-863 -227 -864 0
863 -227 864 0
-863 227 864 0
-864 0
77 78 -865 0
-77 -78 -865 0
77 -78 865 0
-77 78 865 0
865 82 -866 0
-865 -82 -866 0
865 -82 866 0
-865 82 866 0
866 83 -867 0
-866 -83 -867 0
866 -83 867 0
-866 83 867 0
867 203 -868 0
-867 -203 -868 0
867 -203 868 0
-867 203 868 0
868 213 -869 0
-868 -213 -869 0
868 -213 869 0
-868 213 869 0
869 218 -870 0
-869 -218 -870 0
869 -218 870 0
-869 218 870 0
870 228 -871 0
-870 -228 -871 0
870 -228 871 0
-870 228 871 0
-871 0
78 79 -872 0
-78 -79 -872 0
78 -79 872 0
-78 79 872 0
872 83 -873 0
-872 -83 -873 0
872 -83 873 0
-872 83 873 0
873 84 -874 0
-873 -84 -874 0
873 -84 874 0
-873 84 874 0
874 204 -875 0
-874 -204 -875 0
874 -204 875 0
-874 204 875 0
875 214 -876 0
-875 -214 -876 0
875 -214 876 0
-875 214 876 0
876 219 -877 0
-876 -219 -877 0
876 -219 877 0
-876 219 877 0
877 229 -878 0
-877 -229 -878 0
877 -229 878 0
-877 229 878 0
-878 0
79 80 -879 0
-79 -80 -879 0
79 -80 879 0
-79 80 879 0
879 84 -880 0
-879 -84 -880 0
879 -84 880 0
-879 84 880 0
880 85 -881 0
-880 -85 -881 0
880 -85 881 0
-880 85 881 0
881 205 -882 0
-881 -205 -882 0
881 -205 882 0
-881 205 882 0
882 215 -883 0
-882 -215 -883 0
882 -215 883 0
-882 215 883 0
883 220 -884 0
-883 -220 -884 0
883 -220 884 0
-883 220 884 0
884 230 -885 0
-884 -230 -885 0
884 -230 885 0
-884 230 885 0
-885 0
80 81 -886 0
-80 -81 -886 0
80 -81 886 0
-80 81 886 0
886 85 -887 0
-886 -85 -887 0
886 -85 887 0
-886 85 887 0
887 86 -888 0
-887 -86 -888 0
887 -86 888 0
-887 86 888 0
888 206 -889 0
-888 -206 -889 0
888 -206 889 0
-888 206 889 0
889 216 -890 0
-889 -216 -890 0
889 -216 890 0
-889 216 890 0
890 221 -891 0
-890 -221 -891 0
890 -221 891 0
-890 221 891 0
891 231 -892 0
-891 -231 -892 0
891 -231 892 0
-891 231 892 0
-892 0
81 82 -893 0
-81 -82 -893 0
81 -82 893 0
-81 82 893 0
893 86 -894 0
-893 -86 -894 0
893 -86 894 0
-893 86 894 0
894 87 -895 0
-894 -87 -895 0
894 -87 895 0
-894 87 895 0
895 207 -896 0
-895 -207 -896 0
895 -207 896 0
-895 207 896 0
896 217 -897 0
-896 -217 -897 0
896 -217 897 0
-896 217 897 0
897 222 -898 0
-897 -222 -898 0
897 -222 898 0
-897 222 898 0
898 232 -899 0
-898 -232 -899 0
898 -232 899 0
-898 232 899 0
-899 0
82 83 -900 0
-82 -83 -900 0
82 -83 900 0
-82 83 900 0
900 87 -901 0
-900 -87 -901 0
900 -87 901 0
-900 87 901 0
901 88 -902 0
-901 -88 -902 0
901 -88 902 0
-901 88 902 0
902 208 -903 0
-902 -208 -903 0
902 -208 903 0
-902 208 903 0
903 218 -904 0
-903 -218 -904 0
903 -218 904 0
-903 218 904 0
904 223 -905 0
-904 -223 -905 0
904 -223 905 0
-904 223 905 0
905 233 -906 0
-905 -233 -906 0
905 -233 906 0
-905 233 906 0
-906 0
83 84 -907 0
-83 -84 -907 0
83 -84 907 0
-83 84 907 0
907 88 -908 0
-907 -88 -908 0
907 -88 908 0
-907 88 908 0
908 89 -909 0
-908 -89 -909 0
908 -89 909 0
-908 89 909 0
909 209 -910 0
-909 -209 -910 0
909 -209 910 0
-909 209 910 0
910 219 -911 0
-910 -219 -911 0
910 -219 911 0
-910 219 911 0
911 224 -912 0
-911 -224 -912 0
911 -224 912 0
-911 224 912 0
912 234 -913 0
-912 -234 -913 0
912 -234 913 0
-912 234 913 0
-913 0
84 85 -914 0
-84 -85 -914 0
84 -85 914 0
-84 85 914 0
914 89 -915 0
-914 -89 -915 0
914 -89 915 0
-914 89 915 0
915 90 -916 0
-915 -90 -916 0
915 -90 916 0
-915 90 916 0
916 210 -917 0
-916 -210 -917 0
916 -210 917 0
-916 210 917 0
917 220 -918 0
-917 -220 -918 0
917 -220 918 0
-917 220 918 0
918 225 -919 0
-918 -225 -919 0
918 -225 919 0
-918 225 919 0
919 235 -920 0
-919 -235 -920 0
919 -235 920 0
-919 235 920 0
-920 0
85 86 -921 0
-85 -86 -921 0
85 -86 921 0
-85 86 921 0
921 90 -922 0
-921 -90 -922 0
921 -90 922 0
-921 90 922 0
922 91 -923 0
-922 -91 -923 0
922 -91 923 0
-922 91 923 0
923 211 -924 0
-923 -211 -924 0
923 -211 924 0
-923 211 924 0
924 221 -925 0
-924 -221 -925 0
924 -221 925 0
-924 221 925 0
925 226 -926 0
-925 -226 -926 0
925 -226 926 0
-925 226 926 0
926 236 -927 0
-926 -236 -927 0
926 -236 927 0
-926 236 927 0
-927 0
86 87 -928 0
-86 -87 -928 0
86 -87 928 0
-86 87 928 0
928 91 -929 0
-928 -91 -929 0
928 -91 929 0
-928 91 929 0
929 92 -930 0
-929 -92 -930 0
929 -92 930 0
-929 92 930 0
930 212 -931 0
-930 -212 -931 0
930 -212 931 0
-930 212 931 0
931 222 -932 0
-931 -222 -932 0
931 -222 932 0
-931 222 932 0
932 227 -933 0
-932 -227 -933 0
932 -227 933 0
-932 227 933 0
933 237 -934 0
-933 -237 -934 0
933 -237 934 0
-933 237 934 0
-934 0
87 88 -935 0
-87 -88 -935 0
87 -88 935 0
-87 88 935 0
935 92 -936 0
-935 -92 -936 0
935 -92 936 0
-935 92 936 0
936 93 -937 0
-936 -93 -937 0
936 -93 937 0
-936 93 937 0
937 213 -938 0
-937 -213 -938 0
937 -213 938 0
-937 213 938 0
938 223 -939 0
-938 -223 -939 0
938 -223 939 0
-938 223 939 0
939 228 -940 0
-939 -228 -940 0
939 -228 940 0
-939 228 940 0
940 238 -941 0
-940 -238 -941 0
940 -238 941 0
-940 238 941 0
-941 0
88 89 -942 0
-88 -89 -942 0
88 -89 942 0
-88 89 942 0
942 93 -943 0
-942 -93 -943 0
942 -93 943 0
-942 93 943 0
943 94 -944 0
-943 -94 -944 0
943 -94 944 0
-943 94 944 0
944 214 -945 0
-944 -214 -945 0
944 -214 945 0
-944 214 945 0
945 224 -946 0
-945 -224 -946 0
945 -224 946 0
-945 224 946 0
946 229 -947 0
-946 -229 -947 0
946 -229 947 0
-946 229 947 0
947 239 -948 0
-947 -239 -948 0
947 -239 948 0
-947 239 948 0
-948 0
89 90 -949 0
-89 -90 -949 0
89 -90 949 0
-89 90 949 0
949 94 -950 0
-949 -94 -950 0
949 -94 950 0
-949 94 950 0
950 95 -951 0
-950 -95 -951 0
950 -95 951 0
-950 95 951 0
951 215 -952 0
-951 -215 -952 0
951 -215 952 0
-951 215 952 0
952 225 -953 0
-952 -225 -953 0
952 -225 953 0
-952 225 953 0
953 230 -954 0
-953 -230 -954 0
953 -230 954 0
-953 230 954 0
954 240 -955 0
-954 -240 -955 0
954 -240 955 0
-954 240 955 0
-955 0
90 91 -956 0
-90 -91 -956 0
90 -91 956 0
-90 91 956 0
956 95 -957 0
-956 -95 -957 0
956 -95 957 0
-956 95 957 0
957 96 -958 0
-957 -96 -958 0
957 -96 958 0
-957 96 958 0
958 216 -959 0
-958 -216 -959 0
958 -216 959 0
-958 216 959 0
959 226 -960 0
-959 -226 -960 0
959 -226 960 0
-959 226 960 0
960 231 -961 0
-960 -231 -961 0
960 -231 961 0
-960 231 961 0
961 241 -962 0
-961 -241 -962 0
961 -241 962 0
-961 241 962 0
-962 0
91 92 -963 0
-91 -92 -963 0
91 -92 963 0
-91 92 963 0
963 96 -964 0
-963 -96 -964 0
963 -96 964 0
-963 96 964 0
964 97 -965 0
-964 -97 -965 0
964 -97 965 0
-964 97 965 0
965 217 -966 0
-965 -217 -966 0
965 -217 966 0
-965 217 966 0
966 227 -967 0
-966 -227 -967 0
966 -227 967 0
-966 227 967 0
967 232 -968 0
-967 -232 -968 0
967 -232 968 0
-967 232 968 0
968 242 -969 0
-968 -242 -969 0
968 -242 969 0
-968 242 969 0
-969 0
92 93 -970 0
-92 -93 -970 0
92 -93 970 0
-92 93 970 0
970 97 -971 0
-970 -97 -971 0
970 -97 971 0
-970 97 971 0
971 98 -972 0
-971 -98 -972 0
971 -98 972 0
-971 98 972 0
972 218 -973 0
-972 -218 -973 0
972 -218 973 0
-972 218 973 0
973 228 -974 0
-973 -228 -974 0
973 -228 974 0
-973 228 974 0
974 233 -975 0
-974 -233 -975 0
974 -233 975 0
-974 233 975 0
975 243 -976 0
-975 -243 -976 0
975 -243 976 0
-975 243 976 0
-976 0
93 94 -977 0
-93 -94 -977 0
93 -94 977 0
-93 94 977 0
977 98 -978 0
-977 -98 -978 0
977 -98 978 0
-977 98 978 0
978 99 -979 0
-978 -99 -979 0
978 -99 979 0
-978 99 979 0
979 219 -980 0
-979 -219 -980 0
979 -219 980 0
-979 219 980 0
980 229 -981 0
-980 -229 -981 0
980 -229 981 0
-980 229 981 0
981 234 -982 0
-981 -234 -982 0
981 -234 982 0
-981 234 982 0
982 244 -983 0
-982 -244 -983 0
982 -244 983 0
-982 244 983 0
-983 0
94 95 -984 0
-94 -95 -984 0
94 -95 984 0
-94 95 984 0
984 99 -985 0
-984 -99 -985 0
984 -99 985 0
-984 99 985 0
985 100 -986 0
-985 -100 -986 0
985 -100 986 0
-985 100 986 0
986 220 -987 0
-986 -220 -987 0
986 -220 987 0
-986 220 987 0
987 230 -988 0
-987 -230 -988 0
987 -230 988 0
-987 230 988 0
988 235 -989 0
-988 -235 -989 0
988 -235 989 0
-988 235 989 0
989 245 -990 0
-989 -245 -990 0
989 -245 990 0
-989 245 990 0
-990 0
95 96 -991 0
-95 -96 -991 0
95 -96 991 0
-95 96 991 0
991 100 -992 0
-991 -100 -992 0
991 -100 992 0
-991 100 992 0
992 101 -993 0
-992 -101 -993 0
992 -101 993 0
-992 101 993 0
993 221 -994 0
-993 -221 -994 0
993 -221 994 0
-993 221 994 0
994 231 -995 0
-994 -231 -995 0
994 -231 995 0
-994 231 995 0
995 236 -996 0
-995 -236 -996 0
995 -236 996 0
-995 236 996 0
996 246 -997 0
-996 -246 -997 0
996 -246 997 0
-996 246 997 0
-997 0
96 97 -998 0
-96 -97 -998 0
96 -97 998 0
-96 97 998 0
998 101 -999 0
-998 -101 -999 0
998 -101 999 0
-998 101 999 0
999 102 -1000 0
-999 -102 -1000 0
999 -102 1000 0
-999 102 1000 0
1000 222 -1001 0
-1000 -222 -1001 0
1000 -222 1001 0
-1000 222 1001 0
1001 232 -1002 0
-1001 -232 -1002 0
1001 -232 1002 0
-1001 232 1002 0
1002 237 -1003 0
-1002 -237 -1003 0
1002 -237 1003 0
-1002 237 1003 0
1003 247 -1004 0
-1003 -247 -1004 0
1003 -247 1004 0
-1003 247 1004 0
-1004 0
97 98 -1005 0
-97 -98 -1005 0
97 -98 1005 0
-97 98 1005 0
1005 102 -1006 0
-1005 -102 -1006 0
1005 -102 1006 0
-1005 102 1006 0
1006 103 -1007 0
-1006 -103 -1007 0
1006 -103 1007 0
-1006 103 1007 0
1007 223 -1008 0
-1007 -223 -1008 0
1007 -223 1008 0
-1007 223 1008 0
1008 233 -1009 0
-1008 -233 -1009 0
1008 -233 1009 0
-1008 233 1009 0
1009 238 -1010 0
-1009 -238 -1010 0
1009 -238 1010 0
-1009 238 1010 0
1010 248 -1011 0
-1010 -248 -1011 0
1010 -248 1011 0
-1010 248 1011 0
-1011 0
98 99 -1012 0
-98 -99 -1012 0
98 -99 1012 0
-98 99 1012 0
1012 103 -1013 0
-1012 -103 -1013 0
1012 -103 1013 0
-1012 103 1013 0
1013 104 -1014 0
-1013 -104 -1014 0
1013 -104 1014 0
-1013 104 1014 0
1014 224 -1015 0
-1014 -224 -1015 0
1014 -224 1015 0
-1014 224 1015 0
1015 234 -1016 0
-1015 -234 -1016 0
1015 -234 1016 0
-1015 234 1016 0
1016 239 -1017 0
-1016 -239 -1017 0
1016 -239 1017 0
-1016 239 1017 0
1017 249 -1018 0
-1017 -249 -1018 0
1017 -249 1018 0
-1017 249 1018 0
-1018 0
99 100 -1019 0
-99 -100 -1019 0
99 -100 1019 0
-99 100 1019 0
1019 104 -1020 0
-1019 -104 -1020 0
1019 -104 1020 0
-1019 104 1020 0
1020 105 -1021 0
-1020 -105 -1021 0
1020 -105 1021 0
-1020 105 1021 0
1021 225 -1022 0
-1021 -225 -1022 0
1021 -225 1022 0
-1021 225 1022 0
1022 235 -1023 0
-1022 -235 -1023 0
1022 -235 1023 0
-1022 235 1023 0
1023 240 -1024 0
-1023 -240 -1024 0
1023 -240 1024 0
-1023 240 1024 0
1024 250 -1025 0
-1024 -250 -1025 0
1024 -250 1025 0
-1024 250 1025 0
-1025 0
100 101 -1026 0
-100 -101 -1026 0
100 -101 1026 0
-100 101 1026 0
1026 105 -1027 0
-1026 -105 -1027 0
1026 -105 1027 0
-1026 105 1027 0
1027 106 -1028 0
-1027 -106 -1028 0
1027 -106 1028 0
-1027 106 1028 0
1028 226 -1029 0
-1028 -226 -1029 0
1028 -226 1029 0
-1028 226 1029 0
1029 236 -1030 0
-1029 -236 -1030 0
1029 -236 1030 0
-1029 236 1030 0
1030 241 -1031 0
-1030 -241 -1031 0
1030 -241 1031 0
-1030 241 1031 0
1031 251 -1032 0
-1031 -251 -1032 0
1031 -251 1032 0
-1031 251 1032 0
-1032 0
101 102 -1033 0
-101 -102 -1033 0
101 -102 1033 0
-101 102 1033 0
1033 106 -1034 0
-1033 -106 -1034 0
1033 -106 1034 0
-1033 106 1034 0
1034 107 -1035 0
-1034 -107 -1035 0
1034 -107 1035 0
-1034 107 1035 0
1035 227 -1036 0
-1035 -227 -1036 0
1035 -227 1036 0
-1035 227 1036 0
1036 237 -1037 0
-1036 -237 -1037 0
1036 -237 1037 0
-1036 237 1037 0
1037 242 -1038 0
-1037 -242 -1038 0
1037 -242 1038 0
-1037 242 1038 0
1038 252 -1039 0
-1038 -252 -1039 0
1038 -252 1039 0
-1038 252 1039 0
-1039 0
102 103 -1040 0
-102 -103 -1040 0
102 -103 1040 0
-102 103 1040 0
1040 107 -1041 0
-1040 -107 -1041 0
1040 -107 1041 0
-1040 107 1041 0
1041 108 -1042 0
-1041 -108 -1042 0
1041 -108 1042 0
-1041 108 1042 0
1042 228 -1043 0
-1042 -228 -1043 0
1042 -228 1043 0
-1042 228 1043 0
1043 238 -1044 0
-1043 -238 -1044 0
1043 -238 1044 0
-1043 238 1044 0
1044 243 -1045 0
-1044 -243 -1045 0
1044 -243 1045 0
-1044 243 1045 0
1045 253 -1046 0
-1045 -253 -1046 0
1045 -253 1046 0
-1045 253 1046 0
-1046 0
103 104 -1047 0
-103 -104 -1047 0
103 -104 1047 0
-103 104 1047 0
1047 108 -1048 0
-1047 -108 -1048 0
1047 -108 1048 0
-1047 108 1048 0
1048 109 -1049 0
-1048 -109 -1049 0
1048 -109 1049 0
-1048 109 1049 0
1049 229 -1050 0
-1049 -229 -1050 0
1049 -229 1050 0
-1049 229 1050 0
1050 239 -1051 0
-1050 -239 -1051 0
1050 -239 1051 0
-1050 239 1051 0
1051 244 -1052 0
-1051 -244 -1052 0
1051 -244 1052 0
-1051 244 1052 0
1052 254 -1053 0
-1052 -254 -1053 0
1052 -254 1053 0
-1052 254 1053 0
-1053 0
104 105 -1054 0
-104 -105 -1054 0
104 -105 1054 0
-104 105 1054 0
1054 109 -1055 0
-1054 -109 -1055 0
1054 -109 1055 0
-1054 109 1055 0
1055 110 -1056 0
-1055 -110 -1056 0
1055 -110 1056 0
-1055 110 1056 0
1056 230 -1057 0
-1056 -230 -1057 0
1056 -230 1057 0
-1056 230 1057 0
1057 240 -1058 0
-1057 -240 -1058 0
1057 -240 1058 0
-1057 240 1058 0
1058 245 -1059 0
-1058 -245 -1059 0
1058 -245 1059 0
-1058 245 1059 0
1059 255 -1060 0
-1059 -255 -1060 0
1059 -255 1060 0
-1059 255 1060 0
-1060 0
105 106 -1061 0
-105 -106 -1061 0
105 -106 1061 0
-105 106 1061 0
1061 110 -1062 0
-1061 -110 -1062 0
1061 -110 1062 0
-1061 110 1062 0
1062 111 -1063 0
-1062 -111 -1063 0
1062 -111 1063 0
-1062 111 1063 0
1063 231 -1064 0
-1063 -231 -1064 0
1063 -231 1064 0
-1063 231 1064 0
1064 241 -1065 0
-1064 -241 -1065 0
1064 -241 1065 0
-1064 241 1065 0
1065 246 -1066 0
-1065 -246 -1066 0
1065 -246 1066 0
-1065 246 1066 0
1066 256 -1067 0
-1066 -256 -1067 0
1066 -256 1067 0
-1066 256 1067 0
-1067 0
106 107 -1068 0
-106 -107 -1068 0
106 -107 1068 0
-106 107 1068 0
1068 111 -1069 0
-1068 -111 -1069 0
1068 -111 1069 0
-1068 111 1069 0
1069 112 -1070 0
-1069 -112 -1070 0
1069 -112 1070 0
-1069 112 1070 0
1070 232 -1071 0
-1070 -232 -1071 0
1070 -232 1071 0
-1070 232 1071 0
1071 242 -1072 0
-1071 -242 -1072 0
1071 -242 1072 0
-1071 242 1072 0
1072 247 -1073 0
-1072 -247 -1073 0
1072 -247 1073 0
-1072 247 1073 0
1073 257 -1074 0
-1073 -257 -1074 0
1073 -257 1074 0
-1073 257 1074 0
-1074 0
107 108 -1075 0
-107 -108 -1075 0
107 -108 1075 0
-107 108 1075 0
1075 112 -1076 0
-1075 -112 -1076 0
1075 -112 1076 0
-1075 112 1076 0
1076 113 -1077 0
-1076 -113 -1077 0
1076 -113 1077 0
-1076 113 1077 0
1077 233 -1078 0
-1077 -233 -1078 0
1077 -233 1078 0
-1077 233 1078 0
1078 243 -1079 0
-1078 -243 -1079 0
1078 -243 1079 0
-1078 243 1079 0
1079 248 -1080 0
-1079 -248 -1080 0
1079 -248 1080 0
-1079 248 1080 0
1080 258 -1081 0
-1080 -258 -1081 0
1080 -258 1081 0
-1080 258 1081 0
-1081 0
108 109 -1082 0
-108 -109 -1082 0
108 -109 1082 0
-108 109 1082 0
1082 113 -1083 0
-1082 -113 -1083 0
1082 -113 1083 0
-1082 113 1083 0
1083 114 -1084 0
-1083 -114 -1084 0
1083 -114 1084 0
-1083 114 1084 0
1084 234 -1085 0
-1084 -234 -1085 0
1084 -234 1085 0
-1084 234 1085 0
1085 244 -1086 0
-1085 -244 -1086 0
1085 -244 1086 0
-1085 244 1086 0
1086 249 -1087 0
-1086 -249 -1087 0
1086 -249 1087 0
-1086 249 1087 0
1087 259 -1088 0
-1087 -259 -1088 0
1087 -259 1088 0
-1087 259 1088 0
-1088 0
109 110 -1089 0
-109 -110 -1089 0
109 -110 1089 0
-109 110 1089 0
1089 114 -1090 0
-1089 -114 -1090 0
1089 -114 1090 0
-1089 114 1090 0
1090 115 -1091 0
-1090 -115 -1091 0
1090 -115 1091 0
-1090 115 1091 0
1091 235 -1092 0
-1091 -235 -1092 0
1091 -235 1092 0
-1091 235 1092 0
1092 245 -1093 0
-1092 -245 -1093 0
1092 -245 1093 0
-1092 245 1093 0
1093 250 -1094 0
-1093 -250 -1094 0
1093 -250 1094 0
-1093 250 1094 0
1094 260 -1095 0
-1094 -260 -1095 0
1094 -260 1095 0
-1094 260 1095 0
-1095 0
110 111 -1096 0
-110 -111 -1096 0
110 -111 1096 0
-110 111 1096 0
1096 115 -1097 0
-1096 -115 -1097 0
1096 -115 1097 0
-1096 115 1097 0
1097 116 -1098 0
-1097 -116 -1098 0
1097 -116 1098 0
-1097 116 1098 0
1098 236 -1099 0
-1098 -236 -1099 0
1098 -236 1099 0
-1098 236 1099 0
1099 246 -1100 0
-1099 -246 -1100 0
1099 -246 1100 0
-1099 246 1100 0
1100 251 -1101 0
-1100 -251 -1101 0
1100 -251 1101 0
-1100 251 1101 0
1101 261 -1102 0
-1101 -261 -1102 0
1101 -261 1102 0
-1101 261 1102 0
-1102 0
111 112 -1103 0
-111 -112 -1103 0
111 -112 1103 0
-111 112 1103 0
1103 116 -1104 0
-1103 -116 -1104 0
1103 -116 1104 0
-1103 116 1104 0
1104 117 -1105 0
-1104 -117 -1105 0
1104 -117 1105 0
-1104 117 1105 0
1105 237 -1106 0
-1105 -237 -1106 0
1105 -237 1106 0
-1105 237 1106 0
1106 247 -1107 0
-1106 -247 -1107 0
1106 -247 1107 0
-1106 247 1107 0
1107 252 -1108 0
-1107 -252 -1108 0
1107 -252 1108 0
-1107 252 1108 0
1108 262 -1109 0
-1108 -262 -1109 0
1108 -262 1109 0
-1108 262 1109 0
-1109 0
112 113 -1110 0
-112 -113 -1110 0
112 -113 1110 0
-112 113 1110 0
1110 117 -1111 0
-1110 -117 -1111 0
1110 -117 1111 0
-1110 117 1111 0
1111 118 -1112 0
-1111 -118 -1112 0
1111 -118 1112 0
-1111 118 1112 0
1112 238 -1113 0
-1112 -238 -1113 0
1112 -238 1113 0
-1112 238 1113 0
1113 248 -1114 0
-1113 -248 -1114 0
1113 -248 1114 0
-1113 248 1114 0
1114 253 -1115 0
-1114 -253 -1115 0
1114 -253 1115 0
-1114 253 1115 0
1115 263 -1116 0
-1115 -263 -1116 0
1115 -263 1116 0
-1115 263 1116 0
-1116 0
113 114 -1117 0
-113 -114 -1117 0
113 -114 1117 0
-113 114 1117 0
1117 118 -1118 0
-1117 -118 -1118 0
1117 -118 1118 0
-1117 118 1118 0
1118 119 -1119 0
-1118 -119 -1119 0
1118 -119 1119 0
-1118 119 1119 0
1119 239 -1120 0
-1119 -239 -1120 0
1119 -239 1120 0
-1119 239 1120 0
1120 249 -1121 0
-1120 -249 -1121 0
1120 -249 1121 0
-1120 249 1121 0
1121 254 -1122 0
-1121 -254 -1122 0
1121 -254 1122 0
-1121 254 1122 0
1122 264 -1123 0
-1122 -264 -1123 0
1122 -264 1123 0
-1122 264 1123 0
-1123 0
114 115 -1124 0
-114 -115 -1124 0
114 -115 1124 0
-114 115 1124 0
1124 119 -1125 0
-1124 -119 -1125 0
1124 -119 1125 0
-1124 119 1125 0
1125 120 -1126 0
-1125 -120 -1126 0
1125 -120 1126 0
-1125 120 1126 0
1126 240 -1127 0
-1126 -240 -1127 0
1126 -240 1127 0
-1126 240 1127 0
1127 250 -1128 0
-1127 -250 -1128 0
1127 -250 1128 0
-1127 250 1128 0
1128 255 -1129 0
-1128 -255 -1129 0
1128 -255 1129 0
-1128 255 1129 0
1129 265 -1130 0
-1129 -265 -1130 0
1129 -265 1130 0
-1129 265 1130 0
-1130 0
115 116 -1131 0
-115 -116 -1131 0
115 -116 1131 0
-115 116 1131 0
1131 120 -1132 0
-1131 -120 -1132 0
1131 -120 1132 0
-1131 120 1132 0
1132 121 -1133 0
-1132 -121 -1133 0
1132 -121 1133 0
-1132 121 1133 0
1133 241 -1134 0
-1133 -241 -1134 0
1133 -241 1134 0
-1133 241 1134 0
1134 251 -1135 0
-1134 -251 -1135 0
1134 -251 1135 0
-1134 251 1135 0
1135 256 -1136 0
-1135 -256 -1136 0
1135 -256 1136 0
-1135 256 1136 0
1136 266 -1137 0
-1136 -266 -1137 0
1136 -266 1137 0
-1136 266 1137 0
-1137 0
116 117 -1138 0
-116 -117 -1138 0
116 -117 1138 0
-116 117 1138 0
1138 121 -1139 0
-1138 -121 -1139 0
1138 -121 1139 0
-1138 121 1139 0
1139 122 -1140 0
-1139 -122 -1140 0
1139 -122 1140 0
-1139 122 1140 0
1140 242 -1141 0
-1140 -242 -1141 0
1140 -242 1141 0
-1140 242 1141 0
1141 252 -1142 0
-1141 -252 -1142 0
1141 -252 1142 0
-1141 252 1142 0
1142 257 -1143 0
-1142 -257 -1143 0
1142 -257 1143 0
-1142 257 1143 0
1143 267 -1144 0
-1143 -267 -1144 0
1143 -267 1144 0
-1143 267 1144 0
-1144 0
117 118 -1145 0
-117 -118 -1145 0
117 -118 1145 0
-117 118 1145 0
1145 122 -1146 0
-1145 -122 -1146 0
1145 -122 1146 0
-1145 122 1146 0
1146 123 -1147 0
-1146 -123 -1147 0
1146 -123 1147 0
-1146 123 1147 0
1147 243 -1148 0
-1147 -243 -1148 0
1147 -243 1148 0
-1147 243 1148 0
1148 253 -1149 0
-1148 -253 -1149 0
1148 -253 1149 0
-1148 253 1149 0
1149 258 -1150 0
-1149 -258 -1150 0
1149 -258 1150 0
-1149 258 1150 0
1150 268 -1151 0
-1150 -268 -1151 0
1150 -268 1151 0
-1150 268 1151 0
-1151 0
118 119 -1152 0
-118 -119 -1152 0
118 -119 1152 0
-118 119 1152 0
1152 123 -1153 0
-1152 -123 -1153 0
1152 -123 1153 0
-1152 123 1153 0
1153 124 -1154 0
-1153 -124 -1154 0
1153 -124 1154 0
-1153 124 1154 0
1154 244 -1155 0
-1154 -244 -1155 0
1154 -244 1155 0
-1154 244 1155 0
1155 254 -1156 0
-1155 -254 -1156 0
1155 -254 1156 0
-1155 254 1156 0
1156 259 -1157 0
-1156 -259 -1157 0
1156 -259 1157 0
-1156 259 1157 0
1157 269 -1158 0
-1157 -269 -1158 0
1157 -269 1158 0
-1157 269 1158 0
-1158 0
119 120 -1159 0
-119 -120 -1159 0
119 -120 1159 0
-119 120 1159 0
1159 124 -1160 0
-1159 -124 -1160 0
1159 -124 1160 0
-1159 124 1160 0
1160 125 -1161 0
-1160 -125 -1161 0
1160 -125 1161 0
-1160 125 1161 0
1161 245 -1162 0
-1161 -245 -1162 0
1161 -245 1162 0
-1161 245 1162 0
1162 255 -1163 0
-1162 -255 -1163 0
1162 -255 1163 0
-1162 255 1163 0
1163 260 -1164 0
-1163 -260 -1164 0
1163 -260 1164 0
-1163 260 1164 0
1164 270 -1165 0
-1164 -270 -1165 0
1164 -270 1165 0
-1164 270 1165 0
-1165 0
120 121 -1166 0
-120 -121 -1166 0
120 -121 1166 0
-120 121 1166 0
1166 125 -1167 0
-1166 -125 -1167 0
1166 -125 1167 0
-1166 125 1167 0
1167 126 -1168 0
-1167 -126 -1168 0
1167 -126 1168 0
-1167 126 1168 0
1168 246 -1169 0
-1168 -246 -1169 0
1168 -246 1169 0
-1168 246 1169 0
1169 256 -1170 0
-1169 -256 -1170 0
1169 -256 1170 0
-1169 256 1170 0
1170 261 -1171 0
-1170 -261 -1171 0
1170 -261 1171 0
-1170 261 1171 0
1171 271 -1172 0
-1171 -271 -1172 0
1171 -271 1172 0
-1171 271 1172 0
-1172 0
121 122 -1173 0
-121 -122 -1173 0
121 -122 1173 0
-121 122 1173 0
1173 126 -1174 0
-1173 -126 -1174 0
1173 -126 1174 0
-1173 126 1174 0
1174 127 -1175 0
-1174 -127 -1175 0
1174 -127 1175 0
-1174 127 1175 0
1175 247 -1176 0
-1175 -247 -1176 0
1175 -247 1176 0
-1175 247 1176 0
1176 257 -1177 0
-1176 -257 -1177 0
1176 -257 1177 0
-1176 257 1177 0
1177 262 -1178 0
-1177 -262 -1178 0
1177 -262 1178 0
-1177 262 1178 0
1178 272 -1179 0
-1178 -272 -1179 0
1178 -272 1179 0
-1178 272 1179 0
-1179 0
122 123 -1180 0
-122 -123 -1180 0
122 -123 1180 0
-122 123 1180 0
1180 127 -1181 0
-1180 -127 -1181 0
1180 -127 1181 0
-1180 127 1181 0
1181 128 -1182 0
-1181 -128 -1182 0
1181 -128 1182 0
-1181 128 1182 0
1182 248 -1183 0
-1182 -248 -1183 0
1182 -248 1183 0
-1182 248 1183 0
1183 258 -1184 0
-1183 -258 -1184 0
1183 -258 1184 0
-1183 258 1184 0
1184 263 -1185 0
-1184 -263 -1185 0
1184 -263 1185 0
-1184 263 1185 0
1185 273 -1186 0
-1185 -273 -1186 0
1185 -273 1186 0
-1185 273 1186 0
-1186 0
123 124 -1187 0
-123 -124 -1187 0
123 -124 1187 0
-123 124 1187 0
1187 128 -1188 0
-1187 -128 -1188 0
1187 -128 1188 0
-1187 128 1188 0
1188 129 -1189 0
-1188 -129 -1189 0
1188 -129 1189 0
-1188 129 1189 0
1189 249 -1190 0
-1189 -249 -1190 0
1189 -249 1190 0
-1189 249 1190 0
1190 259 -1191 0
-1190 -259 -1191 0
1190 -259 1191 0
-1190 259 1191 0
1191 264 -1192 0
-1191 -264 -1192 0
1191 -264 1192 0
-1191 264 1192 0
1192 274 -1193 0
-1192 -274 -1193 0
1192 -274 1193 0
-1192 274 1193 0
-1193 0
124 125 -1194 0
-124 -125 -1194 0
124 -125 1194 0
-124 125 1194 0
1194 129 -1195 0
-1194 -129 -1195 0
1194 -129 1195 0
-1194 129 1195 0
1195 130 -1196 0
-1195 -130 -1196 0
1195 -130 1196 0
-1195 130 1196 0
1196 250 -1197 0
-1196 -250 -1197 0
1196 -250 1197 0
-1196 250 1197 0
1197 260 -1198 0
-1197 -260 -1198 0
1197 -260 1198 0
-1197 260 1198 0
1198 265 -1199 0
-1198 -265 -1199 0
1198 -265 1199 0
-1198 265 1199 0
1199 275 -1200 0
-1199 -275 -1200 0
1199 -275 1200 0
-1199 275 1200 0
-1200 0
125 126 -1201 0
-125 -126 -1201 0
125 -126 1201 0
-125 126 1201 0
1201 130 -1202 0
-1201 -130 -1202 0
1201 -130 1202 0
-1201 130 1202 0
1202 131 -1203 0
-1202 -131 -1203 0
1202 -131 1203 0
-1202 131 1203 0
1203 251 -1204 0
-1203 -251 -1204 0
1203 -251 1204 0
-1203 251 1204 0
1204 261 -1205 0
-1204 -261 -1205 0
1204 -261 1205 0
-1204 261 1205 0
1205 266 -1206 0
-1205 -266 -1206 0
1205 -266 1206 0
-1205 266 1206 0
1206 276 -1207 0
-1206 -276 -1207 0
1206 -276 1207 0
-1206 276 1207 0
-1207 0
126 127 -1208 0
-126 -127 -1208 0
126 -127 1208 0
-126 127 1208 0
1208 131 -1209 0
-1208 -131 -1209 0
1208 -131 1209 0
-1208 131 1209 0
1209 132 -1210 0
-1209 -132 -1210 0
1209 -132 1210 0
-1209 132 1210 0
1210 252 -1211 0
-1210 -252 -1211 0
1210 -252 1211 0
-1210 252 1211 0
1211 262 -1212 0
-1211 -262 -1212 0
1211 -262 1212 0
-1211 262 1212 0
1212 267 -1213 0
-1212 -267 -1213 0
1212 -267 1213 0
-1212 267 1213 0
1213 277 -1214 0
-1213 -277 -1214 0
1213 -277 1214 0
-1213 277 1214 0
-1214 0
127 128 -1215 0
-127 -128 -1215 0
127 -128 1215 0
-127 128 1215 0
1215 132 -1216 0
-1215 -132 -1216 0
1215 -132 1216 0
-1215 132 1216 0
1216 133 -1217 0
-1216 -133 -1217 0
1216 -133 1217 0
-1216 133 1217 0
1217 253 -1218 0
-1217 -253 -1218 0
1217 -253 1218 0
-1217 253 1218 0
1218 263 -1219 0
-1218 -263 -1219 0
1218 -263 1219 0
-1218 263 1219 0
1219 268 -1220 0
-1219 -268 -1220 0
1219 -268 1220 0
-1219 268 1220 0
1220 278 -1221 0
-1220 -278 -1221 0
1220 -278 1221 0
-1220 278 1221 0
-1221 0
128 129 -1222 0
-128 -129 -1222 0
128 -129 1222 0
-128 129 1222 0
1222 133 -1223 0
-1222 -133 -1223 0
1222 -133 1223 0
-1222 133 1223 0
1223 134 -1224 0
-1223 -134 -1224 0
1223 -134 1224 0
-1223 134 1224 0
1224 254 -1225 0
-1224 -254 -1225 0
1224 -254 1225 0
-1224 254 1225 0
1225 264 -1226 0
-1225 -264 -1226 0
1225 -264 1226 0
-1225 264 1226 0
1226 269 -1227 0
-1226 -269 -1227 0
1226 -269 1227 0
-1226 269 1227 0
1227 279 -1228 0
-1227 -279 -1228 0
1227 -279 1228 0
-1227 279 1228 0
-1228 0
129 130 -1229 0
-129 -130 -1229 0
129 -130 1229 0
-129 130 1229 0
1229 134 -1230 0
-1229 -134 -1230 0
1229 -134 1230 0
-1229 134 1230 0
1230 135 -1231 0
-1230 -135 -1231 0
1230 -135 1231 0
-1230 135 1231 0
1231 255 -1232 0
-1231 -255 -1232 0
1231 -255 1232 0
-1231 255 1232 0
1232 265 -1233 0
-1232 -265 -1233 0
1232 -265 1233 0
-1232 265 1233 0
1233 270 -1234 0
-1233 -270 -1234 0
1233 -270 1234 0
-1233 270 1234 0
1234 280 -1235 0
-1234 -280 -1235 0
1234 -280 1235 0
-1234 280 1235 0
-1235 0
130 131 -1236 0
-130 -131 -1236 0
130 -131 1236 0
-130 131 1236 0
1236 135 -1237 0
-1236 -135 -1237 0
1236 -135 1237 0
-1236 135 1237 0
1237 136 -1238 0
-1237 -136 -1238 0
1237 -136 1238 0
-1237 136 1238 0
1238 256 -1239 0
-1238 -256 -1239 0
1238 -256 1239 0
-1238 256 1239 0
1239 266 -1240 0
-1239 -266 -1240 0
1239 -266 1240 0
-1239 266 1240 0
1240 271 -1241 0
-1240 -271 -1241 0
1240 -271 1241 0
-1240 271 1241 0
1241 281 -1242 0
-1241 -281 -1242 0
1241 -281 1242 0
-1241 281 1242 0
-1242 0
131 132 -1243 0
-131 -132 -1243 0
131 -132 1243 0
-131 132 1243 0
1243 136 -1244 0
-1243 -136 -1244 0
1243 -136 1244 0
-1243 136 1244 0
1244 137 -1245 0
-1244 -137 -1245 0
1244 -137 1245 0
-1244 137 1245 0
1245 257 -1246 0
-1245 -257 -1246 0
1245 -257 1246 0
-1245 257 1246 0
1246 267 -1247 0
-1246 -267 -1247 0
1246 -267 1247 0
-1246 267 1247 0
1247 272 -1248 0
-1247 -272 -1248 0
1247 -272 1248 0
-1247 272 1248 0
1248 282 -1249 0
-1248 -282 -1249 0
1248 -282 1249 0
-1248 282 1249 0
-1249 0
132 133 -1250 0
-132 -133 -1250 0
132 -133 1250 0
-132 133 1250 0
1250 137 -1251 0
-1250 -137 -1251 0
1250 -137 1251 0
-1250 137 1251 0
1251 138 -1252 0
-1251 -138 -1252 0
1251 -138 1252 0
-1251 138 1252 0
1252 258 -1253 0
-1252 -258 -1253 0
1252 -258 1253 0
-1252 258 1253 0
1253 268 -1254 0
-1253 -268 -1254 0
1253 -268 1254 0
-1253 268 1254 0
1254 273 -1255 0
-1254 -273 -1255 0
1254 -273 1255 0
-1254 273 1255 0
1255 283 -1256 0
-1255 -283 -1256 0
1255 -283 1256 0
-1255 283 1256 0
-1256 0
133 134 -1257 0
-133 -134 -1257 0
133 -134 1257 0
-133 134 1257 0
1257 138 -1258 0
-1257 -138 -1258 0
1257 -138 1258 0
-1257 138 1258 0
1258 139 -1259 0
-1258 -139 -1259 0
1258 -139 1259 0
-1258 139 1259 0
1259 259 -1260 0
-1259 -259 -1260 0
1259 -259 1260 0
-1259 259 1260 0
1260 269 -1261 0
-1260 -269 -1261 0
1260 -269 1261 0
-1260 269 1261 0
1261 274 -1262 0
-1261 -274 -1262 0
1261 -274 1262 0
-1261 274 1262 0
1262 284 -1263 0
-1262 -284 -1263 0
1262 -284 1263 0
-1262 284 1263 0
-1263 0
134 135 -1264 0
-134 -135 -1264 0
134 -135 1264 0
-134 135 1264 0
1264 139 -1265 0
-1264 -139 -1265 0
1264 -139 1265 0
-1264 139 1265 0
1265 140 -1266 0
-1265 -140 -1266 0
1265 -140 1266 0
-1265 140 1266 0
1266 260 -1267 0
-1266 -260 -1267 0
1266 -260 1267 0
-1266 260 1267 0
1267 270 -1268 0
-1267 -270 -1268 0
1267 -270 1268 0
-1267 270 1268 0
1268 275 -1269 0
-1268 -275 -1269 0
1268 -275 1269 0
-1268 275 1269 0
1269 285 -1270 0
-1269 -285 -1270 0
1269 -285 1270 0
-1269 285 1270 0
-1270 0
135 136 -1271 0
-135 -136 -1271 0
135 -136 1271 0
-135 136 1271 0
1271 140 -1272 0
-1271 -140 -1272 0
1271 -140 1272 0
-1271 140 1272 0
1272 141 -1273 0
-1272 -141 -1273 0
1272 -141 1273 0
-1272 141 1273 0
1273 261 -1274 0
-1273 -261 -1274 0
1273 -261 1274 0
-1273 261 1274 0
1274 271 -1275 0
-1274 -271 -1275 0
1274 -271 1275 0
-1274 271 1275 0
1275 276 -1276 0
-1275 -276 -1276 0
1275 -276 1276 0
-1275 276 1276 0
1276 286 -1277 0
-1276 -286 -1277 0
1276 -286 1277 0
-1276 286 1277 0
-1277 0
136 137 -1278 0
-136 -137 -1278 0
136 -137 1278 0
-136 137 1278 0
1278 141 -1279 0
-1278 -141 -1279 0
1278 -141 1279 0
-1278 141 1279 0
1279 142 -1280 0
-1279 -142 -1280 0
1279 -142 1280 0
-1279 142 1280 0
1280 262 -1281 0
-1280 -262 -1281 0
1280 -262 1281 0
-1280 262 1281 0
1281 272 -1282 0
-1281 -272 -1282 0
1281 -272 1282 0
-1281 272 1282 0
1282 277 -1283 0
-1282 -277 -1283 0
1282 -277 1283 0
-1282 277 1283 0
1283 287 -1284 0
-1283 -287 -1284 0
1283 -287 1284 0
-1283 287 1284 0
-1284 0
137 138 -1285 0
-137 -138 -1285 0
137 -138 1285 0
-137 138 1285 0
1285 142 -1286 0
-1285 -142 -1286 0
1285 -142 1286 0
-1285 142 1286 0
1286 143 -1287 0
-1286 -143 -1287 0
1286 -143 1287 0
-1286 143 1287 0
1287 263 -1288 0
-1287 -263 -1288 0
1287 -263 1288 0
-1287 263 1288 0
1288 273 -1289 0
-1288 -273 -1289 0
1288 -273 1289 0
-1288 273 1289 0
1289 278 -1290 0
-1289 -278 -1290 0
1289 -278 1290 0
-1289 278 1290 0
1290 288 -1291 0
-1290 -288 -1291 0
1290 -288 1291 0
-1290 288 1291 0
-1291 0
138 139 -1292 0
-138 -139 -1292 0
138 -139 1292 0
-138 139 1292 0
1292 143 -1293 0
-1292 -143 -1293 0
1292 -143 1293 0
-1292 143 1293 0
1293 144 -1294 0
-1293 -144 -1294 0
1293 -144 1294 0
-1293 144 1294 0
1294 264 -1295 0
-1294 -264 -1295 0
1294 -264 1295 0
-1294 264 1295 0
1295 274 -1296 0
-1295 -274 -1296 0
1295 -274 1296 0
-1295 274 1296 0
1296 279 -1297 0
-1296 -279 -1297 0
1296 -279 1297 0
-1296 279 1297 0
1297 289 -1298 0
-1297 -289 -1298 0
1297 -289 1298 0
-1297 289 1298 0
-1298 0
139 140 -1299 0
-139 -140 -1299 0
139 -140 1299 0
-139 140 1299 0
1299 144 -1300 0
-1299 -144 -1300 0
1299 -144 1300 0
-1299 144 1300 0
1300 145 -1301 0
-1300 -145 -1301 0
1300 -145 1301 0
-1300 145 1301 0
1301 265 -1302 0
-1301 -265 -1302 0
1301 -265 1302 0
-1301 265 1302 0
1302 275 -1303 0
-1302 -275 -1303 0
1302 -275 1303 0
-1302 275 1303 0
1303 280 -1304 0
-1303 -280 -1304 0
1303 -280 1304 0
-1303 280 1304 0
1304 290 -1305 0
-1304 -290 -1305 0
1304 -290 1305 0
-1304 290 1305 0
-1305 0
1 151 -1306 0
-1 -151 -1306 0
1 -151 1306 0
-1 151 1306 0
1306 156 -1307 0
-1306 -156 -1307 0
1306 -156 1307 0
-1306 156 1307 0
1307 161 -1308 0
-1307 -161 -1308 0
1307 -161 1308 0
-1307 161 1308 0
1308 166 -1309 0
-1308 -166 -1309 0
1308 -166 1309 0
-1308 166 1309 0
1309 171 -1310 0
-1309 -171 -1310 0
1309 -171 1310 0
-1309 171 1310 0
1310 176 -1311 0
-1310 -176 -1311 0
1310 -176 1311 0
-1310 176 1311 0
1311 181 -1312 0
-1311 -181 -1312 0
1311 -181 1312 0
-1311 181 1312 0
1312 186 -1313 0
-1312 -186 -1313 0
1312 -186 1313 0
-1312 186 1313 0
1313 191 -1314 0
-1313 -191 -1314 0
1313 -191 1314 0
-1313 191 1314 0
1314 196 -1315 0
-1314 -196 -1315 0
1314 -196 1315 0
-1314 196 1315 0
1315 201 -1316 0
-1315 -201 -1316 0
1315 -201 1316 0
-1315 201 1316 0
1316 206 -1317 0
-1316 -206 -1317 0
1316 -206 1317 0
-1316 206 1317 0
1317 211 -1318 0
-1317 -211 -1318 0
1317 -211 1318 0
-1317 211 1318 0
1318 216 -1319 0
-1318 -216 -1319 0
1318 -216 1319 0
-1318 216 1319 0
1319 221 -1320 0
-1319 -221 -1320 0
1319 -221 1320 0
-1319 221 1320 0
1320 226 -1321 0
-1320 -226 -1321 0
1320 -226 1321 0
-1320 226 1321 0
1321 231 -1322 0
-1321 -231 -1322 0
1321 -231 1322 0
-1321 231 1322 0
1322 236 -1323 0
-1322 -236 -1323 0
1322 -236 1323 0
-1322 236 1323 0
1323 241 -1324 0
-1323 -241 -1324 0
1323 -241 1324 0
-1323 241 1324 0
1324 246 -1325 0
-1324 -246 -1325 0
1324 -246 1325 0
-1324 246 1325 0
1325 251 -1326 0
-1325 -251 -1326 0
1325 -251 1326 0
-1325 251 1326 0
1326 256 -1327 0
-1326 -256 -1327 0
1326 -256 1327 0
-1326 256 1327 0
1327 261 -1328 0
-1327 -261 -1328 0
1327 -261 1328 0
-1327 261 1328 0
1328 266 -1329 0
-1328 -266 -1329 0
1328 -266 1329 0
-1328 266 1329 0
1329 271 -1330 0
-1329 -271 -1330 0
1329 -271 1330 0
-1329 271 1330 0
1330 272 -1331 0
-1330 -272 -1331 0
1330 -272 1331 0
-1330 272 1331 0
1331 273 -1332 0
-1331 -273 -1332 0
1331 -273 1332 0
-1331 273 1332 0
1332 274 -1333 0
-1332 -274 -1333 0
1332 -274 1333 0
-1332 274 1333 0
1333 275 -1334 0
-1333 -275 -1334 0
1333 -275 1334 0
-1333 275 1334 0
1334 281 -1335 0
-1334 -281 -1335 0
1334 -281 1335 0
-1334 281 1335 0
1335 286 -1336 0
-1335 -286 -1336 0
1335 -286 1336 0
-1335 286 1336 0
1336 287 -1337 0
-1336 -287 -1337 0
1336 -287 1337 0
-1336 287 1337 0
1337 288 -1338 0
-1337 -288 -1338 0
1337 -288 1338 0
-1337 288 1338 0
1338 289 -1339 0
-1338 -289 -1339 0
1338 -289 1339 0
-1338 289 1339 0
1339 290 -1340 0
-1339 -290 -1340 0
1339 -290 1340 0
-1339 290 1340 0
2 151 -1341 0
-2 -151 -1341 0
2 -151 1341 0
-2 151 1341 0
1341 152 -1342 0
-1341 -152 -1342 0
1341 -152 1342 0
-1341 152 1342 0
1342 156 -1343 0
-1342 -156 -1343 0
1342 -156 1343 0
-1342 156 1343 0
1343 157 -1344 0
-1343 -157 -1344 0
1343 -157 1344 0
-1343 157 1344 0
1344 161 -1345 0
-1344 -161 -1345 0
1344 -161 1345 0
-1344 161 1345 0
1345 162 -1346 0
-1345 -162 -1346 0
1345 -162 1346 0
-1345 162 1346 0
1346 166 -1347 0
-1346 -166 -1347 0
1346 -166 1347 0
-1346 166 1347 0
1347 167 -1348 0
-1347 -167 -1348 0
1347 -167 1348 0
-1347 167 1348 0
1348 171 -1349 0
-1348 -171 -1349 0
1348 -171 1349 0
-1348 171 1349 0
1349 172 -1350 0
-1349 -172 -1350 0
1349 -172 1350 0
-1349 172 1350 0
1350 176 -1351 0
-1350 -176 -1351 0
1350 -176 1351 0
-1350 176 1351 0
1351 177 -1352 0
-1351 -177 -1352 0
1351 -177 1352 0
-1351 177 1352 0
1352 181 -1353 0
-1352 -181 -1353 0
1352 -181 1353 0
-1352 181 1353 0
1353 182 -1354 0
-1353 -182 -1354 0
1353 -182 1354 0
-1353 182 1354 0
1354 186 -1355 0
-1354 -186 -1355 0
1354 -186 1355 0
-1354 186 1355 0
1355 187 -1356 0
-1355 -187 -1356 0
1355 -187 1356 0
-1355 187 1356 0
1356 191 -1357 0
-1356 -191 -1357 0
1356 -191 1357 0
-1356 191 1357 0
1357 192 -1358 0
-1357 -192 -1358 0
1357 -192 1358 0
-1357 192 1358 0
1358 196 -1359 0
-1358 -196 -1359 0
1358 -196 1359 0
-1358 196 1359 0
1359 197 -1360 0
-1359 -197 -1360 0
1359 -197 1360 0
-1359 197 1360 0
1360 201 -1361 0
-1360 -201 -1361 0
1360 -201 1361 0
-1360 201 1361 0
1361 202 -1362 0
-1361 -202 -1362 0
1361 -202 1362 0
-1361 202 1362 0
1362 206 -1363 0
-1362 -206 -1363 0
1362 -206 1363 0
-1362 206 1363 0
1363 207 -1364 0
-1363 -207 -1364 0
1363 -207 1364 0
-1363 207 1364 0
1364 211 -1365 0
-1364 -211 -1365 0
1364 -211 1365 0
-1364 211 1365 0
1365 212 -1366 0
-1365 -212 -1366 0
1365 -212 1366 0
-1365 212 1366 0
1366 216 -1367 0
-1366 -216 -1367 0
1366 -216 1367 0
-1366 216 1367 0
1367 217 -1368 0
-1367 -217 -1368 0
1367 -217 1368 0
-1367 217 1368 0
1368 221 -1369 0
-1368 -221 -1369 0
1368 -221 1369 0
-1368 221 1369 0
1369 222 -1370 0
-1369 -222 -1370 0
1369 -222 1370 0
-1369 222 1370 0
1370 226 -1371 0
-1370 -226 -1371 0
1370 -226 1371 0
-1370 226 1371 0
1371 227 -1372 0
-1371 -227 -1372 0
1371 -227 1372 0
-1371 227 1372 0
1372 231 -1373 0
-1372 -231 -1373 0
1372 -231 1373 0
-1372 231 1373 0
1373 232 -1374 0
-1373 -232 -1374 0
1373 -232 1374 0
-1373 232 1374 0
1374 236 -1375 0
-1374 -236 -1375 0
1374 -236 1375 0
-1374 236 1375 0
1375 237 -1376 0
-1375 -237 -1376 0
1375 -237 1376 0
-1375 237 1376 0
1376 241 -1377 0
-1376 -241 -1377 0
1376 -241 1377 0
-1376 241 1377 0
1377 242 -1378 0
-1377 -242 -1378 0
1377 -242 1378 0
-1377 242 1378 0
1378 246 -1379 0
-1378 -246 -1379 0
1378 -246 1379 0
-1378 246 1379 0
1379 247 -1380 0
-1379 -247 -1380 0
1379 -247 1380 0
-1379 247 1380 0
1380 251 -1381 0
-1380 -251 -1381 0
1380 -251 1381 0
-1380 251 1381 0
1381 252 -1382 0
-1381 -252 -1382 0
1381 -252 1382 0
-1381 252 1382 0
1382 256 -1383 0
-1382 -256 -1383 0
1382 -256 1383 0
-1382 256 1383 0
1383 257 -1384 0
-1383 -257 -1384 0
1383 -257 1384 0
-1383 257 1384 0
1384 261 -1385 0
-1384 -261 -1385 0
1384 -261 1385 0
-1384 261 1385 0
1385 262 -1386 0
-1385 -262 -1386 0
1385 -262 1386 0
-1385 262 1386 0
1386 266 -1387 0
-1386 -266 -1387 0
1386 -266 1387 0
-1386 266 1387 0
1387 267 -1388 0
-1387 -267 -1388 0
1387 -267 1388 0
-1387 267 1388 0
1388 271 -1389 0
-1388 -271 -1389 0
1388 -271 1389 0
-1388 271 1389 0
1389 272 -1390 0
-1389 -272 -1390 0
1389 -272 1390 0
-1389 272 1390 0
1390 273 -1391 0
-1390 -273 -1391 0
1390 -273 1391 0
-1390 273 1391 0
1391 274 -1392 0
-1391 -274 -1392 0
1391 -274 1392 0
-1391 274 1392 0
1392 275 -1393 0
-1392 -275 -1393 0
1392 -275 1393 0
-1392 275 1393 0
1393 281 -1394 0
-1393 -281 -1394 0
1393 -281 1394 0
-1393 281 1394 0
1394 282 -1395 0
-1394 -282 -1395 0
1394 -282 1395 0
-1394 282 1395 0
1395 286 -1396 0
-1395 -286 -1396 0
1395 -286 1396 0
-1395 286 1396 0
1396 287 -1397 0
-1396 -287 -1397 0
1396 -287 1397 0
-1396 287 1397 0
1397 288 -1398 0
-1397 -288 -1398 0
1397 -288 1398 0
-1397 288 1398 0
1398 289 -1399 0
-1398 -289 -1399 0
1398 -289 1399 0
-1398 289 1399 0
1399 290 -1400 0
-1399 -290 -1400 0
1399 -290 1400 0
-1399 290 1400 0
3 151 -1401 0
-3 -151 -1401 0
3 -151 1401 0
-3 151 1401 0
1401 152 -1402 0
-1401 -152 -1402 0
1401 -152 1402 0
-1401 152 1402 0
1402 153 -1403 0
-1402 -153 -1403 0
1402 -153 1403 0
-1402 153 1403 0
1403 156 -1404 0
-1403 -156 -1404 0
1403 -156 1404 0
-1403 156 1404 0
1404 157 -1405 0
-1404 -157 -1405 0
1404 -157 1405 0
-1404 157 1405 0
1405 158 -1406 0
-1405 -158 -1406 0
1405 -158 1406 0
-1405 158 1406 0
1406 161 -1407 0
-1406 -161 -1407 0
1406 -161 1407 0
-1406 161 1407 0
1407 162 -1408 0
-1407 -162 -1408 0
1407 -162 1408 0
-1407 162 1408 0
1408 163 -1409 0
-1408 -163 -1409 0
1408 -163 1409 0
-1408 163 1409 0
1409 166 -1410 0
-1409 -166 -1410 0
1409 -166 1410 0
-1409 166 1410 0
1410 167 -1411 0
-1410 -167 -1411 0
1410 -167 1411 0
-1410 167 1411 0
1411 168 -1412 0
-1411 -168 -1412 0
1411 -168 1412 0
-1411 168 1412 0
1412 171 -1413 0
-1412 -171 -1413 0
1412 -171 1413 0
-1412 171 1413 0
1413 172 -1414 0
-1413 -172 -1414 0
1413 -172 1414 0
-1413 172 1414 0
1414 173 -1415 0
-1414 -173 -1415 0
1414 -173 1415 0
-1414 173 1415 0
1415 176 -1416 0
-1415 -176 -1416 0
1415 -176 1416 0
-1415 176 1416 0
1416 177 -1417 0
-1416 -177 -1417 0
1416 -177 1417 0
-1416 177 1417 0
1417 178 -1418 0
-1417 -178 -1418 0
1417 -178 1418 0
-1417 178 1418 0
1418 181 -1419 0
-1418 -181 -1419 0
1418 -181 1419 0
-1418 181 1419 0
1419 182 -1420 0
-1419 -182 -1420 0
1419 -182 1420 0
-1419 182 1420 0
1420 183 -1421 0
-1420 -183 -1421 0
1420 -183 1421 0
-1420 183 1421 0
1421 186 -1422 0
-1421 -186 -1422 0
1421 -186 1422 0
-1421 186 1422 0
1422 187 -1423 0
-1422 -187 -1423 0
1422 -187 1423 0
-1422 187 1423 0
1423 188 -1424 0
-1423 -188 -1424 0
1423 -188 1424 0
-1423 188 1424 0
1424 191 -1425 0
-1424 -191 -1425 0
1424 -191 1425 0
-1424 191 1425 0
1425 192 -1426 0
-1425 -192 -1426 0
1425 -192 1426 0
-1425 192 1426 0
1426 193 -1427 0
-1426 -193 -1427 0
1426 -193 1427 0
-1426 193 1427 0
1427 196 -1428 0
-1427 -196 -1428 0
1427 -196 1428 0
-1427 196 1428 0
1428 197 -1429 0
-1428 -197 -1429 0
1428 -197 1429 0
-1428 197 1429 0
1429 198 -1430 0
-1429 -198 -1430 0
1429 -198 1430 0
-1429 198 1430 0
1430 201 -1431 0
-1430 -201 -1431 0
1430 -201 1431 0
-1430 201 1431 0
1431 202 -1432 0
-1431 -202 -1432 0
1431 -202 1432 0
-1431 202 1432 0
1432 203 -1433 0
-1432 -203 -1433 0
1432 -203 1433 0
-1432 203 1433 0
1433 206 -1434 0
-1433 -206 -1434 0
1433 -206 1434 0
-1433 206 1434 0
1434 207 -1435 0
-1434 -207 -1435 0
1434 -207 1435 0
-1434 207 1435 0
1435 208 -1436 0
-1435 -208 -1436 0
1435 -208 1436 0
-1435 208 1436 0
1436 211 -1437 0
-1436 -211 -1437 0
1436 -211 1437 0
-1436 211 1437 0
1437 212 -1438 0
-1437 -212 -1438 0
1437 -212 1438 0
-1437 212 1438 0
1438 213 -1439 0
-1438 -213 -1439 0
1438 -213 1439 0
-1438 213 1439 0
1439 216 -1440 0
-1439 -216 -1440 0
1439 -216 1440 0
-1439 216 1440 0
1440 217 -1441 0
-1440 -217 -1441 0
1440 -217 1441 0
-1440 217 1441 0
1441 218 -1442 0
-1441 -218 -1442 0
1441 -218 1442 0
-1441 218 1442 0
1442 221 -1443 0
-1442 -221 -1443 0
1442 -221 1443 0
-1442 221 1443 0
1443 222 -1444 0
-1443 -222 -1444 0
1443 -222 1444 0
-1443 222 1444 0
1444 223 -1445 0
-1444 -223 -1445 0
1444 -223 1445 0
-1444 223 1445 0
1445 226 -1446 0
-1445 -226 -1446 0
1445 -226 1446 0
-1445 226 1446 0
1446 227 -1447 0
-1446 -227 -1447 0
1446 -227 1447 0
-1446 227 1447 0
1447 228 -1448 0
-1447 -228 -1448 0
1447 -228 1448 0
-1447 228 1448 0
1448 231 -1449 0
-1448 -231 -1449 0
1448 -231 1449 0
-1448 231 1449 0
1449 232 -1450 0
-1449 -232 -1450 0
1449 -232 1450 0
-1449 232 1450 0
1450 233 -1451 0
-1450 -233 -1451 0
1450 -233 1451 0
-1450 233 1451 0
1451 236 -1452 0
-1451 -236 -1452 0
1451 -236 1452 0
-1451 236 1452 0
1452 237 -1453 0
-1452 -237 -1453 0
1452 -237 1453 0
-1452 237 1453 0
1453 238 -1454 0
-1453 -238 -1454 0
1453 -238 1454 0
-1453 238 1454 0
1454 241 -1455 0
-1454 -241 -1455 0
1454 -241 1455 0
-1454 241 1455 0
1455 242 -1456 0
-1455 -242 -1456 0
1455 -242 1456 0
-1455 242 1456 0
1456 243 -1457 0
-1456 -243 -1457 0
1456 -243 1457 0
-1456 243 1457 0
1457 246 -1458 0
-1457 -246 -1458 0
1457 -246 1458 0
-1457 246 1458 0
1458 247 -1459 0
-1458 -247 -1459 0
1458 -247 1459 0
-1458 247 1459 0
1459 248 -1460 0
-1459 -248 -1460 0
1459 -248 1460 0
-1459 248 1460 0
1460 251 -1461 0
-1460 -251 -1461 0
1460 -251 1461 0
-1460 251 1461 0
1461 252 -1462 0
-1461 -252 -1462 0
1461 -252 1462 0
-1461 252 1462 0
1462 253 -1463 0
-1462 -253 -1463 0
1462 -253 1463 0
-1462 253 1463 0
1463 256 -1464 0
-1463 -256 -1464 0
1463 -256 1464 0
-1463 256 1464 0
1464 257 -1465 0
-1464 -257 -1465 0
1464 -257 1465 0
-1464 257 1465 0
1465 258 -1466 0
-1465 -258 -1466 0
1465 -258 1466 0
-1465 258 1466 0
1466 261 -1467 0
-1466 -261 -1467 0
1466 -261 1467 0
-1466 261 1467 0
1467 262 -1468 0
-1467 -262 -1468 0
1467 -262 1468 0
-1467 262 1468 0
1468 263 -1469 0
-1468 -263 -1469 0
1468 -263 1469 0
-1468 263 1469 0
1469 266 -1470 0
-1469 -266 -1470 0
1469 -266 1470 0
-1469 266 1470 0
1470 267 -1471 0
-1470 -267 -1471 0
1470 -267 1471 0
-1470 267 1471 0
1471 268 -1472 0
-1471 -268 -1472 0
1471 -268 1472 0
-1471 268 1472 0
1472 271 -1473 0
-1472 -271 -1473 0
1472 -271 1473 0
-1472 271 1473 0
1473 272 -1474 0
-1473 -272 -1474 0
1473 -272 1474 0
-1473 272 1474 0
1474 273 -1475 0
-1474 -273 -1475 0
1474 -273 1475 0
-1474 273 1475 0
1475 274 -1476 0
-1475 -274 -1476 0
1475 -274 1476 0
-1475 274 1476 0
1476 275 -1477 0
-1476 -275 -1477 0
1476 -275 1477 0
-1476 275 1477 0
1477 281 -1478 0
-1477 -281 -1478 0
1477 -281 1478 0
-1477 281 1478 0
1478 282 -1479 0
-1478 -282 -1479 0
1478 -282 1479 0
-1478 282 1479 0
1479 283 -1480 0
-1479 -283 -1480 0
1479 -283 1480 0
-1479 283 1480 0
1480 286 -1481 0
-1480 -286 -1481 0
1480 -286 1481 0
-1480 286 1481 0
1481 287 -1482 0
-1481 -287 -1482 0
1481 -287 1482 0
-1481 287 1482 0
1482 288 -1483 0
-1482 -288 -1483 0
1482 -288 1483 0
-1482 288 1483 0
1483 289 -1484 0
-1483 -289 -1484 0
1483 -289 1484 0
-1483 289 1484 0
1484 290 -1485 0
-1484 -290 -1485 0
1484 -290 1485 0
-1484 290 1485 0
4 151 -1486 0
-4 -151 -1486 0
4 -151 1486 0
-4 151 1486 0
1486 152 -1487 0
-1486 -152 -1487 0
1486 -152 1487 0
-1486 152 1487 0
1487 153 -1488 0
-1487 -153 -1488 0
1487 -153 1488 0
-1487 153 1488 0
1488 154 -1489 0
-1488 -154 -1489 0
1488 -154 1489 0
-1488 154 1489 0
1489 156 -1490 0
-1489 -156 -1490 0
1489 -156 1490 0
-1489 156 1490 0
1490 157 -1491 0
-1490 -157 -1491 0
1490 -157 1491 0
-1490 157 1491 0
1491 158 -1492 0
-1491 -158 -1492 0
1491 -158 1492 0
-1491 158 1492 0
1492 159 -1493 0
-1492 -159 -1493 0
1492 -159 1493 0
-1492 159 1493 0
1493 161 -1494 0
-1493 -161 -1494 0
1493 -161 1494 0
-1493 161 1494 0
1494 162 -1495 0
-1494 -162 -1495 0
1494 -162 1495 0
-1494 162 1495 0
1495 163 -1496 0
-1495 -163 -1496 0
1495 -163 1496 0
-1495 163 1496 0
1496 164 -1497 0
-1496 -164 -1497 0
1496 -164 1497 0
-1496 164 1497 0
1497 166 -1498 0
-1497 -166 -1498 0
1497 -166 1498 0
-1497 166 1498 0
1498 167 -1499 0
-1498 -167 -1499 0
1498 -167 1499 0
-1498 167 1499 0
1499 168 -1500 0
-1499 -168 -1500 0
1499 -168 1500 0
-1499 168 1500 0
1500 169 -1501 0
-1500 -169 -1501 0
1500 -169 1501 0
-1500 169 1501 0
1501 171 -1502 0
-1501 -171 -1502 0
1501 -171 1502 0
-1501 171 1502 0
1502 172 -1503 0
-1502 -172 -1503 0
1502 -172 1503 0
-1502 172 1503 0
1503 173 -1504 0
-1503 -173 -1504 0
1503 -173 1504 0
-1503 173 1504 0
1504 174 -1505 0
-1504 -174 -1505 0
1504 -174 1505 0
-1504 174 1505 0
1505 176 -1506 0
-1505 -176 -1506 0
1505 -176 1506 0
-1505 176 1506 0
1506 177 -1507 0
-1506 -177 -1507 0
1506 -177 1507 0
-1506 177 1507 0
1507 178 -1508 0
-1507 -178 -1508 0
1507 -178 1508 0
-1507 178 1508 0
1508 179 -1509 0
-1508 -179 -1509 0
1508 -179 1509 0
-1508 179 1509 0
1509 181 -1510 0
-1509 -181 -1510 0
1509 -181 1510 0
-1509 181 1510 0
1510 182 -1511 0
-1510 -182 -1511 0
1510 -182 1511 0
-1510 182 1511 0
1511 183 -1512 0
-1511 -183 -1512 0
1511 -183 1512 0
-1511 183 1512 0
1512 184 -1513 0
-1512 -184 -1513 0
1512 -184 1513 0
-1512 184 1513 0
1513 186 -1514 0
-1513 -186 -1514 0
1513 -186 1514 0
-1513 186 1514 0
1514 187 -1515 0
-1514 -187 -1515 0
1514 -187 1515 0
-1514 187 1515 0
1515 188 -1516 0
-1515 -188 -1516 0
1515 -188 1516 0
-1515 188 1516 0
1516 189 -1517 0
-1516 -189 -1517 0
1516 -189 1517 0
-1516 189 1517 0
1517 191 -1518 0
-1517 -191 -1518 0
1517 -191 1518 0
-1517 191 1518 0
1518 192 -1519 0
-1518 -192 -1519 0
1518 -192 1519 0
-1518 192 1519 0
1519 193 -1520 0
-1519 -193 -1520 0
1519 -193 1520 0
-1519 193 1520 0
1520 194 -1521 0
-1520 -194 -1521 0
1520 -194 1521 0
-1520 194 1521 0
1521 196 -1522 0
-1521 -196 -1522 0
1521 -196 1522 0
-1521 196 1522 0
1522 197 -1523 0
-1522 -197 -1523 0
1522 -197 1523 0
-1522 197 1523 0
1523 198 -1524 0
-1523 -198 -1524 0
1523 -198 1524 0
-1523 198 1524 0
1524 199 -1525 0
-1524 -199 -1525 0
1524 -199 1525 0
-1524 199 1525 0
1525 201 -1526 0
-1525 -201 -1526 0
1525 -201 1526 0
-1525 201 1526 0
1526 202 -1527 0
-1526 -202 -1527 0
1526 -202 1527 0
-1526 202 1527 0
1527 203 -1528 0
-1527 -203 -1528 0
1527 -203 1528 0
-1527 203 1528 0
1528 204 -1529 0
-1528 -204 -1529 0
1528 -204 1529 0
-1528 204 1529 0
1529 206 -1530 0
-1529 -206 -1530 0
1529 -206 1530 0
-1529 206 1530 0
1530 207 -1531 0
-1530 -207 -1531 0
1530 -207 1531 0
-1530 207 1531 0
1531 208 -1532 0
-1531 -208 -1532 0
1531 -208 1532 0
-1531 208 1532 0
1532 209 -1533 0
-1532 -209 -1533 0
1532 -209 1533 0
-1532 209 1533 0
1533 211 -1534 0
-1533 -211 -1534 0
1533 -211 1534 0
-1533 211 1534 0
1534 212 -1535 0
-1534 -212 -1535 0
1534 -212 1535 0
-1534 212 1535 0
1535 213 -1536 0
-1535 -213 -1536 0
1535 -213 1536 0
-1535 213 1536 0
1536 214 -1537 0
-1536 -214 -1537 0
1536 -214 1537 0
-1536 214 1537 0
1537 216 -1538 0
-1537 -216 -1538 0
1537 -216 1538 0
-1537 216 1538 0
1538 217 -1539 0
-1538 -217 -1539 0
1538 -217 1539 0
-1538 217 1539 0
1539 218 -1540 0
-1539 -218 -1540 0
1539 -218 1540 0
-1539 218 1540 0
1540 219 -1541 0
-1540 -219 -1541 0
1540 -219 1541 0
-1540 219 1541 0
1541 221 -1542 0
-1541 -221 -1542 0
1541 -221 1542 0
-1541 221 1542 0
1542 222 -1543 0
-1542 -222 -1543 0
1542 -222 1543 0
-1542 222 1543 0
1543 223 -1544 0
-1543 -223 -1544 0
1543 -223 1544 0
-1543 223 1544 0
1544 224 -1545 0
-1544 -224 -1545 0
1544 -224 1545 0
-1544 224 1545 0
1545 226 -1546 0
-1545 -226 -1546 0
1545 -226 1546 0
-1545 226 1546 0
1546 227 -1547 0
-1546 -227 -1547 0
1546 -227 1547 0
-1546 227 1547 0
1547 228 -1548 0
-1547 -228 -1548 0
1547 -228 1548 0
-1547 228 1548 0
1548 229 -1549 0
-1548 -229 -1549 0
1548 -229 1549 0
-1548 229 1549 0
1549 231 -1550 0
-1549 -231 -1550 0
1549 -231 1550 0
-1549 231 1550 0
1550 232 -1551 0
-1550 -232 -1551 0
1550 -232 1551 0
-1550 232 1551 0
1551 233 -1552 0
-1551 -233 -1552 0
1551 -233 1552 0
-1551 233 1552 0
1552 234 -1553 0
-1552 -234 -1553 0
1552 -234 1553 0
-1552 234 1553 0
1553 236 -1554 0
-1553 -236 -1554 0
1553 -236 1554 0
-1553 236 1554 0
1554 237 -1555 0
-1554 -237 -1555 0
1554 -237 1555 0
-1554 237 1555 0
1555 238 -1556 0
-1555 -238 -1556 0
1555 -238 1556 0
-1555 238 1556 0
1556 239 -1557 0
-1556 -239 -1557 0
1556 -239 1557 0
-1556 239 1557 0
1557 241 -1558 0
-1557 -241 -1558 0
1557 -241 1558 0
-1557 241 1558 0
1558 242 -1559 0
-1558 -242 -1559 0
1558 -242 1559 0
-1558 242 1559 0
1559 243 -1560 0
-1559 -243 -1560 0
1559 -243 1560 0
-1559 243 1560 0
1560 244 -1561 0
-1560 -244 -1561 0
1560 -244 1561 0
-1560 244 1561 0
1561 246 -1562 0
-1561 -246 -1562 0
1561 -246 1562 0
-1561 246 1562 0
1562 247 -1563 0
-1562 -247 -1563 0
1562 -247 1563 0
-1562 247 1563 0
1563 248 -1564 0
-1563 -248 -1564 0
1563 -248 1564 0
-1563 248 1564 0
1564 249 -1565 0
-1564 -249 -1565 0
1564 -249 1565 0
-1564 249 1565 0
1565 251 -1566 0
-1565 -251 -1566 0
1565 -251 1566 0
-1565 251 1566 0
1566 252 -1567 0
-1566 -252 -1567 0
1566 -252 1567 0
-1566 252 1567 0
1567 253 -1568 0
-1567 -253 -1568 0
1567 -253 1568 0
-1567 253 1568 0
1568 254 -1569 0
-1568 -254 -1569 0
1568 -254 1569 0
-1568 254 1569 0
1569 256 -1570 0
-1569 -256 -1570 0
1569 -256 1570 0
-1569 256 1570 0
1570 257 -1571 0
-1570 -257 -1571 0
1570 -257 1571 0
-1570 257 1571 0
1571 258 -1572 0
-1571 -258 -1572 0
1571 -258 1572 0
-1571 258 1572 0
1572 259 -1573 0
-1572 -259 -1573 0
1572 -259 1573 0
-1572 259 1573 0
1573 261 -1574 0
-1573 -261 -1574 0
1573 -261 1574 0
-1573 261 1574 0
1574 262 -1575 0
-1574 -262 -1575 0
1574 -262 1575 0
-1574 262 1575 0
1575 263 -1576 0
-1575 -263 -1576 0
1575 -263 1576 0
-1575 263 1576 0
1576 264 -1577 0
-1576 -264 -1577 0
1576 -264 1577 0
-1576 264 1577 0
1577 266 -1578 0
-1577 -266 -1578 0
1577 -266 1578 0
-1577 266 1578 0
1578 267 -1579 0
-1578 -267 -1579 0
1578 -267 1579 0
-1578 267 1579 0
1579 268 -1580 0
-1579 -268 -1580 0
1579 -268 1580 0
-1579 268 1580 0
1580 269 -1581 0
-1580 -269 -1581 0
1580 -269 1581 0
-1580 269 1581 0
1581 271 -1582 0
-1581 -271 -1582 0
1581 -271 1582 0
-1581 271 1582 0
1582 272 -1583 0
-1582 -272 -1583 0
1582 -272 1583 0
-1582 272 1583 0
1583 273 -1584 0
-1583 -273 -1584 0
1583 -273 1584 0
-1583 273 1584 0
1584 274 -1585 0
-1584 -274 -1585 0
1584 -274 1585 0
-1584 274 1585 0
1585 275 -1586 0
-1585 -275 -1586 0
1585 -275 1586 0
-1585 275 1586 0
1586 281 -1587 0
-1586 -281 -1587 0
1586 -281 1587 0
-1586 281 1587 0
1587 282 -1588 0
-1587 -282 -1588 0
1587 -282 1588 0
-1587 282 1588 0
1588 283 -1589 0
-1588 -283 -1589 0
1588 -283 1589 0
-1588 283 1589 0
1589 284 -1590 0
-1589 -284 -1590 0
1589 -284 1590 0
-1589 284 1590 0
1590 286 -1591 0
-1590 -286 -1591 0
1590 -286 1591 0
-1590 286 1591 0
1591 287 -1592 0
-1591 -287 -1592 0
1591 -287 1592 0
-1591 287 1592 0
1592 288 -1593 0
-1592 -288 -1593 0
1592 -288 1593 0
-1592 288 1593 0
1593 289 -1594 0
-1593 -289 -1594 0
1593 -289 1594 0
-1593 289 1594 0
1594 290 -1595 0
-1594 -290 -1595 0
1594 -290 1595 0
-1594 290 1595 0
5 151 -1596 0
-5 -151 -1596 0
5 -151 1596 0
-5 151 1596 0
1596 152 -1597 0
-1596 -152 -1597 0
1596 -152 1597 0
-1596 152 1597 0
1597 153 -1598 0
-1597 -153 -1598 0
1597 -153 1598 0
-1597 153 1598 0
1598 154 -1599 0
-1598 -154 -1599 0
1598 -154 1599 0
-1598 154 1599 0
1599 155 -1600 0
-1599 -155 -1600 0
1599 -155 1600 0
-1599 155 1600 0
1600 156 -1601 0
-1600 -156 -1601 0
1600 -156 1601 0
-1600 156 1601 0
1601 157 -1602 0
-1601 -157 -1602 0
1601 -157 1602 0
-1601 157 1602 0
1602 158 -1603 0
-1602 -158 -1603 0
1602 -158 1603 0
-1602 158 1603 0
1603 159 -1604 0
-1603 -159 -1604 0
1603 -159 1604 0
-1603 159 1604 0
1604 160 -1605 0
-1604 -160 -1605 0
1604 -160 1605 0
-1604 160 1605 0
1605 161 -1606 0
-1605 -161 -1606 0
1605 -161 1606 0
-1605 161 1606 0
1606 162 -1607 0
-1606 -162 -1607 0
1606 -162 1607 0
-1606 162 1607 0
1607 163 -1608 0
-1607 -163 -1608 0
1607 -163 1608 0
-1607 163 1608 0
1608 164 -1609 0
-1608 -164 -1609 0
1608 -164 1609 0
-1608 164 1609 0
1609 165 -1610 0
-1609 -165 -1610 0
1609 -165 1610 0
-1609 165 1610 0
1610 166 -1611 0
-1610 -166 -1611 0
1610 -166 1611 0
-1610 166 1611 0
1611 167 -1612 0
-1611 -167 -1612 0
1611 -167 1612 0
-1611 167 1612 0
1612 168 -1613 0
-1612 -168 -1613 0
1612 -168 1613 0
-1612 168 1613 0
1613 169 -1614 0
-1613 -169 -1614 0
1613 -169 1614 0
-1613 169 1614 0
1614 170 -1615 0
-1614 -170 -1615 0
1614 -170 1615 0
-1614 170 1615 0
1615 171 -1616 0
-1615 -171 -1616 0
1615 -171 1616 0
-1615 171 1616 0
1616 172 -1617 0
-1616 -172 -1617 0
1616 -172 1617 0
-1616 172 1617 0
1617 173 -1618 0
-1617 -173 -1618 0
1617 -173 1618 0
-1617 173 1618 0
1618 174 -1619 0
-1618 -174 -1619 0
1618 -174 1619 0
-1618 174 1619 0
1619 175 -1620 0
-1619 -175 -1620 0
1619 -175 1620 0
-1619 175 1620 0
1620 176 -1621 0
-1620 -176 -1621 0
1620 -176 1621 0
-1620 176 1621 0
1621 177 -1622 0
-1621 -177 -1622 0
1621 -177 1622 0
-1621 177 1622 0
1622 178 -1623 0
-1622 -178 -1623 0
1622 -178 1623 0
-1622 178 1623 0
1623 179 -1624 0
-1623 -179 -1624 0
1623 -179 1624 0
-1623 179 1624 0
1624 180 -1625 0
-1624 -180 -1625 0
1624 -180 1625 0
-1624 180 1625 0
1625 181 -1626 0
-1625 -181 -1626 0
1625 -181 1626 0
-1625 181 1626 0
1626 182 -1627 0
-1626 -182 -1627 0
1626 -182 1627 0
-1626 182 1627 0
1627 183 -1628 0
-1627 -183 -1628 0
1627 -183 1628 0
-1627 183 1628 0
1628 184 -1629 0
-1628 -184 -1629 0
1628 -184 1629 0
-1628 184 1629 0
1629 185 -1630 0
-1629 -185 -1630 0
1629 -185 1630 0
-1629 185 1630 0
1630 186 -1631 0
-1630 -186 -1631 0
1630 -186 1631 0
-1630 186 1631 0
1631 187 -1632 0
-1631 -187 -1632 0
1631 -187 1632 0
-1631 187 1632 0
1632 188 -1633 0
-1632 -188 -1633 0
1632 -188 1633 0
-1632 188 1633 0
1633 189 -1634 0
-1633 -189 -1634 0
1633 -189 1634 0
-1633 189 1634 0
1634 190 -1635 0
-1634 -190 -1635 0
1634 -190 1635 0
-1634 190 1635 0
1635 191 -1636 0
-1635 -191 -1636 0
1635 -191 1636 0
-1635 191 1636 0
1636 192 -1637 0
-1636 -192 -1637 0
1636 -192 1637 0
-1636 192 1637 0
1637 193 -1638 0
-1637 -193 -1638 0
1637 -193 1638 0
-1637 193 1638 0
1638 194 -1639 0
-1638 -194 -1639 0
1638 -194 1639 0
-1638 194 1639 0
1639 195 -1640 0
-1639 -195 -1640 0
1639 -195 1640 0
-1639 195 1640 0
1640 196 -1641 0
-1640 -196 -1641 0
1640 -196 1641 0
-1640 196 1641 0
1641 197 -1642 0
-1641 -197 -1642 0
1641 -197 1642 0
-1641 197 1642 0
1642 198 -1643 0
-1642 -198 -1643 0
1642 -198 1643 0
-1642 198 1643 0
1643 199 -1644 0
-1643 -199 -1644 0
1643 -199 1644 0
-1643 199 1644 0
1644 200 -1645 0
-1644 -200 -1645 0
1644 -200 1645 0
-1644 200 1645 0
1645 201 -1646 0
-1645 -201 -1646 0
1645 -201 1646 0
-1645 201 1646 0
1646 202 -1647 0
-1646 -202 -1647 0
1646 -202 1647 0
-1646 202 1647 0
1647 203 -1648 0
-1647 -203 -1648 0
1647 -203 1648 0
-1647 203 1648 0
1648 204 -1649 0
-1648 -204 -1649 0
1648 -204 1649 0
-1648 204 1649 0
1649 205 -1650 0
-1649 -205 -1650 0
1649 -205 1650 0
-1649 205 1650 0
1650 206 -1651 0
-1650 -206 -1651 0
1650 -206 1651 0
-1650 206 1651 0
1651 207 -1652 0
-1651 -207 -1652 0
1651 -207 1652 0
-1651 207 1652 0
1652 208 -1653 0
-1652 -208 -1653 0
1652 -208 1653 0
-1652 208 1653 0
1653 209 -1654 0
-1653 -209 -1654 0
1653 -209 1654 0
-1653 209 1654 0
1654 210 -1655 0
-1654 -210 -1655 0
1654 -210 1655 0
-1654 210 1655 0
1655 211 -1656 0
-1655 -211 -1656 0
1655 -211 1656 0
-1655 211 1656 0
1656 212 -1657 0
-1656 -212 -1657 0
1656 -212 1657 0
-1656 212 1657 0
1657 213 -1658 0
-1657 -213 -1658 0
1657 -213 1658 0
-1657 213 1658 0
1658 214 -1659 0
-1658 -214 -1659 0
1658 -214 1659 0
-1658 214 1659 0
1659 215 -1660 0
-1659 -215 -1660 0
1659 -215 1660 0
-1659 215 1660 0
1660 216 -1661 0
-1660 -216 -1661 0
1660 -216 1661 0
-1660 216 1661 0
1661 217 -1662 0
-1661 -217 -1662 0
1661 -217 1662 0
-1661 217 1662 0
1662 218 -1663 0
-1662 -218 -1663 0
1662 -218 1663 0
-1662 218 1663 0
1663 219 -1664 0
-1663 -219 -1664 0
1663 -219 1664 0
-1663 219 1664 0
1664 220 -1665 0
-1664 -220 -1665 0
1664 -220 1665 0
-1664 220 1665 0
1665 221 -1666 0
-1665 -221 -1666 0
1665 -221 1666 0
-1665 221 1666 0
1666 222 -1667 0
-1666 -222 -1667 0
1666 -222 1667 0
-1666 222 1667 0
1667 223 -1668 0
-1667 -223 -1668 0
1667 -223 1668 0
-1667 223 1668 0
1668 224 -1669 0
-1668 -224 -1669 0
1668 -224 1669 0
-1668 224 1669 0
1669 225 -1670 0
-1669 -225 -1670 0
1669 -225 1670 0
-1669 225 1670 0
1670 226 -1671 0
-1670 -226 -1671 0
1670 -226 1671 0
-1670 226 1671 0
1671 227 -1672 0
-1671 -227 -1672 0
1671 -227 1672 0
-1671 227 1672 0
1672 228 -1673 0
-1672 -228 -1673 0
1672 -228 1673 0
-1672 228 1673 0
1673 229 -1674 0
-1673 -229 -1674 0
1673 -229 1674 0
-1673 229 1674 0
1674 230 -1675 0
-1674 -230 -1675 0
1674 -230 1675 0
-1674 230 1675 0
1675 231 -1676 0
-1675 -231 -1676 0
1675 -231 1676 0
-1675 231 1676 0
1676 232 -1677 0
-1676 -232 -1677 0
1676 -232 1677 0
-1676 232 1677 0
1677 233 -1678 0
-1677 -233 -1678 0
1677 -233 1678 0
-1677 233 1678 0
1678 234 -1679 0
-1678 -234 -1679 0
1678 -234 1679 0
-1678 234 1679 0
1679 235 -1680 0
-1679 -235 -1680 0
1679 -235 1680 0
-1679 235 1680 0
1680 236 -1681 0
-1680 -236 -1681 0
1680 -236 1681 0
-1680 236 1681 0
1681 237 -1682 0
-1681 -237 -1682 0
1681 -237 1682 0
-1681 237 1682 0
1682 238 -1683 0
-1682 -238 -1683 0
1682 -238 1683 0
-1682 238 1683 0
1683 239 -1684 0
-1683 -239 -1684 0
1683 -239 1684 0
-1683 239 1684 0
1684 240 -1685 0
-1684 -240 -1685 0
1684 -240 1685 0
-1684 240 1685 0
1685 241 -1686 0
-1685 -241 -1686 0
1685 -241 1686 0
-1685 241 1686 0
1686 242 -1687 0
-1686 -242 -1687 0
1686 -242 1687 0
-1686 242 1687 0
1687 243 -1688 0
-1687 -243 -1688 0
1687 -243 1688 0
-1687 243 1688 0
1688 244 -1689 0
-1688 -244 -1689 0
1688 -244 1689 0
-1688 244 1689 0
1689 245 -1690 0
-1689 -245 -1690 0
1689 -245 1690 0
-1689 245 1690 0
1690 246 -1691 0
-1690 -246 -1691 0
1690 -246 1691 0
-1690 246 1691 0
1691 247 -1692 0
-1691 -247 -1692 0
1691 -247 1692 0
-1691 247 1692 0
1692 248 -1693 0
-1692 -248 -1693 0
1692 -248 1693 0
-1692 248 1693 0
1693 249 -1694 0
-1693 -249 -1694 0
1693 -249 1694 0
-1693 249 1694 0
1694 250 -1695 0
-1694 -250 -1695 0
1694 -250 1695 0
-1694 250 1695 0
1695 251 -1696 0
-1695 -251 -1696 0
1695 -251 1696 0
-1695 251 1696 0
1696 252 -1697 0
-1696 -252 -1697 0
1696 -252 1697 0
-1696 252 1697 0
1697 253 -1698 0
-1697 -253 -1698 0
1697 -253 1698 0
-1697 253 1698 0
1698 254 -1699 0
-1698 -254 -1699 0
1698 -254 1699 0
-1698 254 1699 0
1699 255 -1700 0
-1699 -255 -1700 0
1699 -255 1700 0
-1699 255 1700 0
1700 256 -1701 0
-1700 -256 -1701 0
1700 -256 1701 0
-1700 256 1701 0
1701 257 -1702 0
-1701 -257 -1702 0
1701 -257 1702 0
-1701 257 1702 0
1702 258 -1703 0
-1702 -258 -1703 0
1702 -258 1703 0
-1702 258 1703 0
1703 259 -1704 0
-1703 -259 -1704 0
1703 -259 1704 0
-1703 259 1704 0
1704 260 -1705 0
-1704 -260 -1705 0
1704 -260 1705 0
-1704 260 1705 0
1705 261 -1706 0
-1705 -261 -1706 0
1705 -261 1706 0
-1705 261 1706 0
1706 262 -1707 0
-1706 -262 -1707 0
1706 -262 1707 0
-1706 262 1707 0
1707 263 -1708 0
-1707 -263 -1708 0
1707 -263 1708 0
-1707 263 1708 0
1708 264 -1709 0
-1708 -264 -1709 0
1708 -264 1709 0
-1708 264 1709 0
1709 265 -1710 0
-1709 -265 -1710 0
1709 -265 1710 0
-1709 265 1710 0
1710 266 -1711 0
-1710 -266 -1711 0
1710 -266 1711 0
-1710 266 1711 0
1711 267 -1712 0
-1711 -267 -1712 0
1711 -267 1712 0
-1711 267 1712 0
1712 268 -1713 0
-1712 -268 -1713 0
1712 -268 1713 0
-1712 268 1713 0
1713 269 -1714 0
-1713 -269 -1714 0
1713 -269 1714 0
-1713 269 1714 0
1714 270 -1715 0
-1714 -270 -1715 0
1714 -270 1715 0
-1714 270 1715 0
1715 271 -1716 0
-1715 -271 -1716 0
1715 -271 1716 0
-1715 271 1716 0
1716 272 -1717 0
-1716 -272 -1717 0
1716 -272 1717 0
-1716 272 1717 0
1717 273 -1718 0
-1717 -273 -1718 0
1717 -273 1718 0
-1717 273 1718 0
1718 274 -1719 0
-1718 -274 -1719 0
1718 -274 1719 0
-1718 274 1719 0
1719 275 -1720 0
-1719 -275 -1720 0
1719 -275 1720 0
-1719 275 1720 0
1720 281 -1721 0
-1720 -281 -1721 0
1720 -281 1721 0
-1720 281 1721 0
1721 282 -1722 0
-1721 -282 -1722 0
1721 -282 1722 0
-1721 282 1722 0
1722 283 -1723 0
-1722 -283 -1723 0
1722 -283 1723 0
-1722 283 1723 0
1723 284 -1724 0
-1723 -284 -1724 0
1723 -284 1724 0
-1723 284 1724 0
1724 285 -1725 0
-1724 -285 -1725 0
1724 -285 1725 0
-1724 285 1725 0
1725 286 -1726 0
-1725 -286 -1726 0
1725 -286 1726 0
-1725 286 1726 0
1726 287 -1727 0
-1726 -287 -1727 0
1726 -287 1727 0
-1726 287 1727 0
1727 288 -1728 0
-1727 -288 -1728 0
1727 -288 1728 0
-1727 288 1728 0
1728 289 -1729 0
-1728 -289 -1729 0
1728 -289 1729 0
-1728 289 1729 0
1729 290 -1730 0
-1729 -290 -1730 0
1729 -290 1730 0
-1729 290 1730 0
6 151 -1731 0
-6 -151 -1731 0
6 -151 1731 0
-6 151 1731 0
1731 152 -1732 0
-1731 -152 -1732 0
1731 -152 1732 0
-1731 152 1732 0
1732 153 -1733 0
-1732 -153 -1733 0
1732 -153 1733 0
-1732 153 1733 0
1733 154 -1734 0
-1733 -154 -1734 0
1733 -154 1734 0
-1733 154 1734 0
1734 155 -1735 0
-1734 -155 -1735 0
1734 -155 1735 0
-1734 155 1735 0
1735 157 -1736 0
-1735 -157 -1736 0
1735 -157 1736 0
-1735 157 1736 0
1736 158 -1737 0
-1736 -158 -1737 0
1736 -158 1737 0
-1736 158 1737 0
1737 159 -1738 0
-1737 -159 -1738 0
1737 -159 1738 0
-1737 159 1738 0
1738 160 -1739 0
-1738 -160 -1739 0
1738 -160 1739 0
-1738 160 1739 0
1739 162 -1740 0
-1739 -162 -1740 0
1739 -162 1740 0
-1739 162 1740 0
1740 163 -1741 0
-1740 -163 -1741 0
1740 -163 1741 0
-1740 163 1741 0
1741 164 -1742 0
-1741 -164 -1742 0
1741 -164 1742 0
-1741 164 1742 0
1742 165 -1743 0
-1742 -165 -1743 0
1742 -165 1743 0
-1742 165 1743 0
1743 167 -1744 0
-1743 -167 -1744 0
1743 -167 1744 0
-1743 167 1744 0
1744 168 -1745 0
-1744 -168 -1745 0
1744 -168 1745 0
-1744 168 1745 0
1745 169 -1746 0
-1745 -169 -1746 0
1745 -169 1746 0
-1745 169 1746 0
1746 170 -1747 0
-1746 -170 -1747 0
1746 -170 1747 0
-1746 170 1747 0
1747 172 -1748 0
-1747 -172 -1748 0
1747 -172 1748 0
-1747 172 1748 0
1748 173 -1749 0
-1748 -173 -1749 0
1748 -173 1749 0
-1748 173 1749 0
1749 174 -1750 0
-1749 -174 -1750 0
1749 -174 1750 0
-1749 174 1750 0
1750 175 -1751 0
-1750 -175 -1751 0
1750 -175 1751 0
-1750 175 1751 0
1751 177 -1752 0
-1751 -177 -1752 0
1751 -177 1752 0
-1751 177 1752 0
1752 178 -1753 0
-1752 -178 -1753 0
1752 -178 1753 0
-1752 178 1753 0
1753 179 -1754 0
-1753 -179 -1754 0
1753 -179 1754 0
-1753 179 1754 0
1754 180 -1755 0
-1754 -180 -1755 0
1754 -180 1755 0
-1754 180 1755 0
1755 182 -1756 0
-1755 -182 -1756 0
1755 -182 1756 0
-1755 182 1756 0
1756 183 -1757 0
-1756 -183 -1757 0
1756 -183 1757 0
-1756 183 1757 0
1757 184 -1758 0
-1757 -184 -1758 0
1757 -184 1758 0
-1757 184 1758 0
1758 185 -1759 0
-1758 -185 -1759 0
1758 -185 1759 0
-1758 185 1759 0
1759 187 -1760 0
-1759 -187 -1760 0
1759 -187 1760 0
-1759 187 1760 0
1760 188 -1761 0
-1760 -188 -1761 0
1760 -188 1761 0
-1760 188 1761 0
1761 189 -1762 0
-1761 -189 -1762 0
1761 -189 1762 0
-1761 189 1762 0
1762 190 -1763 0
-1762 -190 -1763 0
1762 -190 1763 0
-1762 190 1763 0
1763 192 -1764 0
-1763 -192 -1764 0
1763 -192 1764 0
-1763 192 1764 0
1764 193 -1765 0
-1764 -193 -1765 0
1764 -193 1765 0
-1764 193 1765 0
1765 194 -1766 0
-1765 -194 -1766 0
1765 -194 1766 0
-1765 194 1766 0
1766 195 -1767 0
-1766 -195 -1767 0
1766 -195 1767 0
-1766 195 1767 0
1767 197 -1768 0
-1767 -197 -1768 0
1767 -197 1768 0
-1767 197 1768 0
1768 198 -1769 0
-1768 -198 -1769 0
1768 -198 1769 0
-1768 198 1769 0
1769 199 -1770 0
-1769 -199 -1770 0
1769 -199 1770 0
-1769 199 1770 0
1770 200 -1771 0
-1770 -200 -1771 0
1770 -200 1771 0
-1770 200 1771 0
1771 202 -1772 0
-1771 -202 -1772 0
1771 -202 1772 0
-1771 202 1772 0
1772 203 -1773 0
-1772 -203 -1773 0
1772 -203 1773 0
-1772 203 1773 0
1773 204 -1774 0
-1773 -204 -1774 0
1773 -204 1774 0
-1773 204 1774 0
1774 205 -1775 0
-1774 -205 -1775 0
1774 -205 1775 0
-1774 205 1775 0
1775 207 -1776 0
-1775 -207 -1776 0
1775 -207 1776 0
-1775 207 1776 0
1776 208 -1777 0
-1776 -208 -1777 0
1776 -208 1777 0
-1776 208 1777 0
1777 209 -1778 0
-1777 -209 -1778 0
1777 -209 1778 0
-1777 209 1778 0
1778 210 -1779 0
-1778 -210 -1779 0
1778 -210 1779 0
-1778 210 1779 0
1779 212 -1780 0
-1779 -212 -1780 0
1779 -212 1780 0
-1779 212 1780 0
1780 213 -1781 0
-1780 -213 -1781 0
1780 -213 1781 0
-1780 213 1781 0
1781 214 -1782 0
-1781 -214 -1782 0
1781 -214 1782 0
-1781 214 1782 0
1782 215 -1783 0
-1782 -215 -1783 0
1782 -215 1783 0
-1782 215 1783 0
1783 217 -1784 0
-1783 -217 -1784 0
1783 -217 1784 0
-1783 217 1784 0
1784 218 -1785 0
-1784 -218 -1785 0
1784 -218 1785 0
-1784 218 1785 0
1785 219 -1786 0
-1785 -219 -1786 0
1785 -219 1786 0
-1785 219 1786 0
1786 220 -1787 0
-1786 -220 -1787 0
1786 -220 1787 0
-1786 220 1787 0
1787 222 -1788 0
-1787 -222 -1788 0
1787 -222 1788 0
-1787 222 1788 0
1788 223 -1789 0
-1788 -223 -1789 0
1788 -223 1789 0
-1788 223 1789 0
1789 224 -1790 0
-1789 -224 -1790 0
1789 -224 1790 0
-1789 224 1790 0
1790 225 -1791 0
-1790 -225 -1791 0
1790 -225 1791 0
-1790 225 1791 0
1791 227 -1792 0
-1791 -227 -1792 0
1791 -227 1792 0
-1791 227 1792 0
1792 228 -1793 0
-1792 -228 -1793 0
1792 -228 1793 0
-1792 228 1793 0
1793 229 -1794 0
-1793 -229 -1794 0
1793 -229 1794 0
-1793 229 1794 0
1794 230 -1795 0
-1794 -230 -1795 0
1794 -230 1795 0
-1794 230 1795 0
1795 232 -1796 0
-1795 -232 -1796 0
1795 -232 1796 0
-1795 232 1796 0
1796 233 -1797 0
-1796 -233 -1797 0
1796 -233 1797 0
-1796 233 1797 0
1797 234 -1798 0
-1797 -234 -1798 0
1797 -234 1798 0
-1797 234 1798 0
1798 235 -1799 0
-1798 -235 -1799 0
1798 -235 1799 0
-1798 235 1799 0
1799 237 -1800 0
-1799 -237 -1800 0
1799 -237 1800 0
-1799 237 1800 0
1800 238 -1801 0
-1800 -238 -1801 0
1800 -238 1801 0
-1800 238 1801 0
1801 239 -1802 0
-1801 -239 -1802 0
1801 -239 1802 0
-1801 239 1802 0
1802 240 -1803 0
-1802 -240 -1803 0
1802 -240 1803 0
-1802 240 1803 0
1803 242 -1804 0
-1803 -242 -1804 0
1803 -242 1804 0
-1803 242 1804 0
1804 243 -1805 0
-1804 -243 -1805 0
1804 -243 1805 0
-1804 243 1805 0
1805 244 -1806 0
-1805 -244 -1806 0
1805 -244 1806 0
-1805 244 1806 0
1806 245 -1807 0
-1806 -245 -1807 0
1806 -245 1807 0
-1806 245 1807 0
1807 247 -1808 0
-1807 -247 -1808 0
1807 -247 1808 0
-1807 247 1808 0
1808 248 -1809 0
-1808 -248 -1809 0
1808 -248 1809 0
-1808 248 1809 0
1809 249 -1810 0
-1809 -249 -1810 0
1809 -249 1810 0
-1809 249 1810 0
1810 250 -1811 0
-1810 -250 -1811 0
1810 -250 1811 0
-1810 250 1811 0
1811 252 -1812 0
-1811 -252 -1812 0
1811 -252 1812 0
-1811 252 1812 0
1812 253 -1813 0
-1812 -253 -1813 0
1812 -253 1813 0
-1812 253 1813 0
1813 254 -1814 0
-1813 -254 -1814 0
1813 -254 1814 0
-1813 254 1814 0
1814 255 -1815 0
-1814 -255 -1815 0
1814 -255 1815 0
-1814 255 1815 0
1815 257 -1816 0
-1815 -257 -1816 0
1815 -257 1816 0
-1815 257 1816 0
1816 258 -1817 0
-1816 -258 -1817 0
1816 -258 1817 0
-1816 258 1817 0
1817 259 -1818 0
-1817 -259 -1818 0
1817 -259 1818 0
-1817 259 1818 0
1818 260 -1819 0
-1818 -260 -1819 0
1818 -260 1819 0
-1818 260 1819 0
1819 262 -1820 0
-1819 -262 -1820 0
1819 -262 1820 0
-1819 262 1820 0
1820 263 -1821 0
-1820 -263 -1821 0
1820 -263 1821 0
-1820 263 1821 0
1821 264 -1822 0
-1821 -264 -1822 0
1821 -264 1822 0
-1821 264 1822 0
1822 265 -1823 0
-1822 -265 -1823 0
1822 -265 1823 0
-1822 265 1823 0
1823 267 -1824 0
-1823 -267 -1824 0
1823 -267 1824 0
-1823 267 1824 0
1824 268 -1825 0
-1824 -268 -1825 0
1824 -268 1825 0
-1824 268 1825 0
1825 269 -1826 0
-1825 -269 -1826 0
1825 -269 1826 0
-1825 269 1826 0
1826 270 -1827 0
-1826 -270 -1827 0
1826 -270 1827 0
-1826 270 1827 0
1827 272 -1828 0
-1827 -272 -1828 0
1827 -272 1828 0
-1827 272 1828 0
1828 273 -1829 0
-1828 -273 -1829 0
1828 -273 1829 0
-1828 273 1829 0
1829 274 -1830 0
-1829 -274 -1830 0
1829 -274 1830 0
-1829 274 1830 0
1830 275 -1831 0
-1830 -275 -1831 0
1830 -275 1831 0
-1830 275 1831 0
1831 281 -1832 0
-1831 -281 -1832 0
1831 -281 1832 0
-1831 281 1832 0
1832 282 -1833 0
-1832 -282 -1833 0
1832 -282 1833 0
-1832 282 1833 0
1833 283 -1834 0
-1833 -283 -1834 0
1833 -283 1834 0
-1833 283 1834 0
1834 284 -1835 0
-1834 -284 -1835 0
1834 -284 1835 0
-1834 284 1835 0
1835 285 -1836 0
-1835 -285 -1836 0
1835 -285 1836 0
-1835 285 1836 0
1836 287 -1837 0
-1836 -287 -1837 0
1836 -287 1837 0
-1836 287 1837 0
1837 288 -1838 0
-1837 -288 -1838 0
1837 -288 1838 0
-1837 288 1838 0
1838 289 -1839 0
-1838 -289 -1839 0
1838 -289 1839 0
-1838 289 1839 0
1839 290 -1840 0
-1839 -290 -1840 0
1839 -290 1840 0
-1839 290 1840 0
11 152 -1841 0
-11 -152 -1841 0
11 -152 1841 0
-11 152 1841 0
1841 153 -1842 0
-1841 -153 -1842 0
1841 -153 1842 0
-1841 153 1842 0
1842 154 -1843 0
-1842 -154 -1843 0
1842 -154 1843 0
-1842 154 1843 0
1843 155 -1844 0
-1843 -155 -1844 0
1843 -155 1844 0
-1843 155 1844 0
1844 156 -1845 0
-1844 -156 -1845 0
1844 -156 1845 0
-1844 156 1845 0
1845 282 -1846 0
-1845 -282 -1846 0
1845 -282 1846 0
-1845 282 1846 0
1846 283 -1847 0
-1846 -283 -1847 0
1846 -283 1847 0
-1846 283 1847 0
1847 284 -1848 0
-1847 -284 -1848 0
1847 -284 1848 0
-1847 284 1848 0
1848 285 -1849 0
-1848 -285 -1849 0
1848 -285 1849 0
-1848 285 1849 0
1849 286 -1850 0
-1849 -286 -1850 0
1849 -286 1850 0
-1849 286 1850 0
12 153 -1851 0
-12 -153 -1851 0
12 -153 1851 0
-12 153 1851 0
1851 154 -1852 0
-1851 -154 -1852 0
1851 -154 1852 0
-1851 154 1852 0
1852 155 -1853 0
-1852 -155 -1853 0
1852 -155 1853 0
-1852 155 1853 0
1853 156 -1854 0
-1853 -156 -1854 0
1853 -156 1854 0
-1853 156 1854 0
1854 157 -1855 0
-1854 -157 -1855 0
1854 -157 1855 0
-1854 157 1855 0
1855 283 -1856 0
-1855 -283 -1856 0
1855 -283 1856 0
-1855 283 1856 0
1856 284 -1857 0
-1856 -284 -1857 0
1856 -284 1857 0
-1856 284 1857 0
1857 285 -1858 0
-1857 -285 -1858 0
1857 -285 1858 0
-1857 285 1858 0
1858 286 -1859 0
-1858 -286 -1859 0
1858 -286 1859 0
-1858 286 1859 0
1859 287 -1860 0
-1859 -287 -1860 0
1859 -287 1860 0
-1859 287 1860 0
13 154 -1861 0
-13 -154 -1861 0
13 -154 1861 0
-13 154 1861 0
1861 155 -1862 0
-1861 -155 -1862 0
1861 -155 1862 0
-1861 155 1862 0
1862 156 -1863 0
-1862 -156 -1863 0
1862 -156 1863 0
-1862 156 1863 0
1863 157 -1864 0
-1863 -157 -1864 0
1863 -157 1864 0
-1863 157 1864 0
1864 158 -1865 0
-1864 -158 -1865 0
1864 -158 1865 0
-1864 158 1865 0
1865 284 -1866 0
-1865 -284 -1866 0
1865 -284 1866 0
-1865 284 1866 0
1866 285 -1867 0
-1866 -285 -1867 0
1866 -285 1867 0
-1866 285 1867 0
1867 286 -1868 0
-1867 -286 -1868 0
1867 -286 1868 0
-1867 286 1868 0
1868 287 -1869 0
-1868 -287 -1869 0
1868 -287 1869 0
-1868 287 1869 0
1869 288 -1870 0
-1869 -288 -1870 0
1869 -288 1870 0
-1869 288 1870 0
14 155 -1871 0
-14 -155 -1871 0
14 -155 1871 0
-14 155 1871 0
1871 156 -1872 0
-1871 -156 -1872 0
1871 -156 1872 0
-1871 156 1872 0
1872 157 -1873 0
-1872 -157 -1873 0
1872 -157 1873 0
-1872 157 1873 0
1873 158 -1874 0
-1873 -158 -1874 0
1873 -158 1874 0
-1873 158 1874 0
1874 159 -1875 0
-1874 -159 -1875 0
1874 -159 1875 0
-1874 159 1875 0
1875 285 -1876 0
-1875 -285 -1876 0
1875 -285 1876 0
-1875 285 1876 0
1876 286 -1877 0
-1876 -286 -1877 0
1876 -286 1877 0
-1876 286 1877 0
1877 287 -1878 0
-1877 -287 -1878 0
1877 -287 1878 0
-1877 287 1878 0
1878 288 -1879 0
-1878 -288 -1879 0
1878 -288 1879 0
-1878 288 1879 0
1879 289 -1880 0
-1879 -289 -1880 0
1879 -289 1880 0
-1879 289 1880 0
1340 1400 1485 1595 1730 1840 1850 1860 1870 1880 0
-1 0
-2 0
-3 0
-4 0
-5 0
-6 0
-7 0
-8 0
-9 0
-10 0
-11 0
-12 0
-13 0
-14 0
-15 0
-16 0
-17 0
-18 0
-19 0
-20 0
-21 0
-22 0
-23 0
-24 0
-25 0
-26 0
-27 0
-28 0
-29 0
-30 0
-31 0
-32 0
-33 0
-34 0
-35 0
-36 0
-37 0
-38 0
-39 0
-40 0
-41 0
-42 0
-43 0
-44 0
-45 0
-46 0
-47 0
-48 0
-49 0
-50 0
-51 0
-52 0
-53 0
-54 0
-55 0
-56 0
-57 0
-58 0
-59 0
-60 0
-61 0
-62 0
-63 0
-64 0
-65 0
-66 0
-67 0
-68 0
-69 0
-70 0
-71 0
-72 0
-73 0
-74 0
-75 0
-76 0
-77 0
-78 0
-79 0
-80 0
-81 0
-82 0
-83 0
-84 0
-85 0
-86 0
-87 0
-88 0
-89 0
-90 0
-91 0
-92 0
-93 0
-94 0
-95 0
-96 0
-97 0
-98 0
-99 0
-100 0
-101 0
-102 0
-103 0
-104 0
-105 0
-106 0
-107 0
-108 0
-109 0
-110 0
-111 0
-112 0
-113 0
-114 0
-115 0
-116 0
-117 0
-118 0
-119 0
-120 0
-121 0
-122 0
-123 0
-124 0
-125 0
-126 0
-127 0
-128 0
-129 0
-130 0
-131 0
-132 0
-133 0
-134 0
-135 0
-136 0
-137 0
-138 0
-139 0
-140 0
-141 0
-142 0
-143 0
-144 0
-145 0
146 0
-1889 1883 1890 0
-1886 1883 1890 0
-1886 -1889 1890 0
-1890 1881 0
-1887 1881 0
-1890 -1887 1882 0
-1888 1882 0
-1890 -1888 0
-1884 1881 0
-1890 -1884 1882 0
-1885 1882 0
-1890 -1885 0
-1884 -1887 1882 0
-1890 -1884 -1887 0
-1884 -1888 0
-1890 -1884 -1888 0
-1885 -1887 0
-1890 -1885 -1887 0
-1885 -1888 0
-1890 -1885 -1888 0
-1896 1889 1897 0
-1893 1889 1897 0
-1893 -1896 1897 0
-1897 1887 0
-1894 1887 0
-1897 -1894 1888 0
-1895 1888 0
-1897 -1895 0
-1891 1887 0
-1897 -1891 1888 0
-1892 1888 0
-1897 -1892 0
-1891 -1894 1888 0
-1897 -1891 -1894 0
-1891 -1895 0
-1897 -1891 -1895 0
-1892 -1894 0
-1897 -1892 -1894 0
-1892 -1895 0
-1897 -1892 -1895 0
-1903 1896 1904 0
-1900 1896 1904 0
-1900 -1903 1904 0
-1904 1894 0
-1901 1894 0
-1904 -1901 1895 0
-1902 1895 0
-1904 -1902 0
-1898 1894 0
-1904 -1898 1895 0
-1899 1895 0
-1904 -1899 0
-1898 -1901 1895 0
-1904 -1898 -1901 0
-1898 -1902 0
-1904 -1898 -1902 0
-1899 -1901 0
-1904 -1899 -1901 0
-1899 -1902 0
-1904 -1899 -1902 0
-1910 1903 1911 0
-1907 1903 1911 0
-1907 -1910 1911 0
-1911 1901 0
-1908 1901 0
-1911 -1908 1902 0
-1909 1902 0
-1911 -1909 0
-1905 1901 0
-1911 -1905 1902 0
-1906 1902 0
-1911 -1906 0
-1905 -1908 1902 0
-1911 -1905 -1908 0
-1905 -1909 0
-1911 -1905 -1909 0
-1906 -1908 0
-1911 -1906 -1908 0
-1906 -1909 0
-1911 -1906 -1909 0
-1917 1910 1918 0
-1914 1910 1918 0
-1914 -1917 1918 0
-1918 1908 0
-1915 1908 0
-1918 -1915 1909 0
-1916 1909 0
-1918 -1916 0
-1912 1908 0
-1918 -1912 1909 0
-1913 1909 0
-1918 -1913 0
-1912 -1915 1909 0
-1918 -1912 -1915 0
-1912 -1916 0
-1918 -1912 -1916 0
-1913 -1915 0
-1918 -1913 -1915 0
-1913 -1916 0
-1918 -1913 -1916 0
-1924 1917 1925 0
-1921 1917 1925 0
-1921 -1924 1925 0
-1925 1915 0
-1922 1915 0
-1925 -1922 1916 0
-1923 1916 0
-1925 -1923 0
-1919 1915 0
-1925 -1919 1916 0
-1920 1916 0
-1925 -1920 0
-1919 -1922 1916 0
-1925 -1919 -1922 0
-1919 -1923 0
-1925 -1919 -1923 0
-1920 -1922 0
-1925 -1920 -1922 0
-1920 -1923 0
-1925 -1920 -1923 0
-1929 1924 1930 0
-1927 1924 1930 0
-1927 -1929 1930 0
-1930 1922 0
-1928 1922 0
-1930 -1928 1923 0
-1926 1922 0
-1930 -1926 1923 0
-1926 -1928 1923 0
-1930 -1926 -1928 0
-290 1929 1931 0
-289 1929 1931 0
-289 -290 1931 0
-1931 1928 0
-288 1927 1932 0
-287 1927 1932 0
-287 -288 1932 0
-1932 1926 0
-1936 1921 1937 0
-1934 1921 1937 0
-1934 -1936 1937 0
-1937 1919 0
-1935 1919 0
-1937 -1935 1920 0
-1933 1919 0
-1937 -1933 1920 0
-1933 -1935 1920 0
-1937 -1933 -1935 0
-286 1936 1938 0
-285 1936 1938 0
-285 -286 1938 0
-1938 1935 0
-284 1934 1941 0
-1940 1934 1941 0
-1940 -284 1941 0
-1941 1933 0
-1939 1933 0
-1941 -1939 0
-283 1940 1942 0
-282 1940 1942 0
-282 -283 1942 0
-1942 1939 0
-1948 1914 1949 0
-1945 1914 1949 0
-1945 -1948 1949 0
-1949 1912 0
-1946 1912 0
-1949 -1946 1913 0
-1947 1913 0
-1949 -1947 0
-1943 1912 0
-1949 -1943 1913 0
-1944 1913 0
-1949 -1944 0
-1943 -1946 1913 0
-1949 -1943 -1946 0
-1943 -1947 0
-1949 -1943 -1947 0
-1944 -1946 0
-1949 -1944 -1946 0
-1944 -1947 0
-1949 -1944 -1947 0
-1953 1948 1954 0
-1951 1948 1954 0
-1951 -1953 1954 0
-1954 1946 0
-1952 1946 0
-1954 -1952 1947 0
-1950 1946 0
-1954 -1950 1947 0
-1950 -1952 1947 0
-1954 -1950 -1952 0
-281 1953 1955 0
-280 1953 1955 0
-280 -281 1955 0
-1955 1952 0
-279 1951 1956 0
-278 1951 1956 0
-278 -279 1956 0
-1956 1950 0
-1960 1945 1961 0
-1958 1945 1961 0
-1958 -1960 1961 0
-1961 1943 0
-1959 1943 0
-1961 -1959 1944 0
-1957 1943 0
-1961 -1957 1944 0
-1957 -1959 1944 0
-1961 -1957 -1959 0
-277 1960 1962 0
-276 1960 1962 0
-276 -277 1962 0
-1962 1959 0
-275 1958 1965 0
-1964 1958 1965 0
-1964 -275 1965 0
-1965 1957 0
-1963 1957 0
-1965 -1963 0
-274 1964 1966 0
-273 1964 1966 0
-273 -274 1966 0
-1966 1963 0
-1972 1907 1973 0
-1969 1907 1973 0
-1969 -1972 1973 0
-1973 1905 0
-1970 1905 0
-1973 -1970 1906 0
-1971 1906 0
-1973 -1971 0
-1967 1905 0
-1973 -1967 1906 0
-1968 1906 0
-1973 -1968 0
-1967 -1970 1906 0
-1973 -1967 -1970 0
-1967 -1971 0
-1973 -1967 -1971 0
-1968 -1970 0
-1973 -1968 -1970 0
-1968 -1971 0
-1973 -1968 -1971 0
-1979 1972 1980 0
-1976 1972 1980 0
-1976 -1979 1980 0
-1980 1970 0
-1977 1970 0
-1980 -1977 1971 0
-1978 1971 0
-1980 -1978 0
-1974 1970 0
-1980 -1974 1971 0
-1975 1971 0
-1980 -1975 0
-1974 -1977 1971 0
-1980 -1974 -1977 0
-1974 -1978 0
-1980 -1974 -1978 0
-1975 -1977 0
-1980 -1975 -1977 0
-1975 -1978 0
-1980 -1975 -1978 0
-1984 1979 1985 0
-1982 1979 1985 0
-1982 -1984 1985 0
-1985 1977 0
-1983 1977 0
-1985 -1983 1978 0
-1981 1977 0
-1985 -1981 1978 0
-1981 -1983 1978 0
-1985 -1981 -1983 0
-272 1984 1986 0
-271 1984 1986 0
-271 -272 1986 0
-1986 1983 0
-270 1982 1987 0
-269 1982 1987 0
-269 -270 1987 0
-1987 1981 0
-1991 1976 1992 0
-1989 1976 1992 0
-1989 -1991 1992 0
-1992 1974 0
-1990 1974 0
-1992 -1990 1975 0
-1988 1974 0
-1992 -1988 1975 0
-1988 -1990 1975 0
-1992 -1988 -1990 0
-268 1991 1993 0
-267 1991 1993 0
-267 -268 1993 0
-1993 1990 0
-266 1989 1996 0
-1995 1989 1996 0
-1995 -266 1996 0
-1996 1988 0
-1994 1988 0
-1996 -1994 0
-265 1995 1997 0
-264 1995 1997 0
-264 -265 1997 0
-1997 1994 0
-2003 1969 2004 0
-2000 1969 2004 0
-2000 -2003 2004 0
-2004 1967 0
-2001 1967 0
-2004 -2001 1968 0
-2002 1968 0
-2004 -2002 0
-1998 1967 0
-2004 -1998 1968 0
-1999 1968 0
-2004 -1999 0
-1998 -2001 1968 0
-2004 -1998 -2001 0
-1998 -2002 0
-2004 -1998 -2002 0
-1999 -2001 0
-2004 -1999 -2001 0
-1999 -2002 0
-2004 -1999 -2002 0
-2008 2003 2009 0
-2006 2003 2009 0
-2006 -2008 2009 0
-2009 2001 0
-2007 2001 0
-2009 -2007 2002 0
-2005 2001 0
-2009 -2005 2002 0
-2005 -2007 2002 0
-2009 -2005 -2007 0
-263 2008 2010 0
-262 2008 2010 0
-262 -263 2010 0
-2010 2007 0
-261 2006 2011 0
-260 2006 2011 0
-260 -261 2011 0
-2011 2005 0
-2015 2000 2016 0
-2013 2000 2016 0
-2013 -2015 2016 0
-2016 1998 0
-2014 1998 0
-2016 -2014 1999 0
-2012 1998 0
-2016 -2012 1999 0
-2012 -2014 1999 0
-2016 -2012 -2014 0
-259 2015 2017 0
-258 2015 2017 0
-258 -259 2017 0
-2017 2014 0
-257 2013 2020 0
-2019 2013 2020 0
-2019 -257 2020 0
-2020 2012 0
-2018 2012 0
-2020 -2018 0
-256 2019 2021 0
-255 2019 2021 0
-255 -256 2021 0
-2021 2018 0
-2027 1900 2028 0
-2024 1900 2028 0
-2024 -2027 2028 0
-2028 1898 0
-2025 1898 0
-2028 -2025 1899 0
-2026 1899 0
-2028 -2026 0
-2022 1898 0
-2028 -2022 1899 0
-2023 1899 0
-2028 -2023 0
-2022 -2025 1899 0
-2028 -2022 -2025 0
-2022 -2026 0
-2028 -2022 -2026 0
-2023 -2025 0
-2028 -2023 -2025 0
-2023 -2026 0
-2028 -2023 -2026 0
-2034 2027 2035 0
-2031 2027 2035 0
-2031 -2034 2035 0
-2035 2025 0
-2032 2025 0
-2035 -2032 2026 0
-2033 2026 0
-2035 -2033 0
-2029 2025 0
-2035 -2029 2026 0
-2030 2026 0
-2035 -2030 0
-2029 -2032 2026 0
-2035 -2029 -2032 0
-2029 -2033 0
-2035 -2029 -2033 0
-2030 -2032 0
-2035 -2030 -2032 0
-2030 -2033 0
-2035 -2030 -2033 0
-2041 2034 2042 0
-2038 2034 2042 0
-2038 -2041 2042 0
-2042 2032 0
-2039 2032 0
-2042 -2039 2033 0
-2040 2033 0
-2042 -2040 0
-2036 2032 0
-2042 -2036 2033 0
-2037 2033 0
-2042 -2037 0
-2036 -2039 2033 0
-2042 -2036 -2039 0
-2036 -2040 0
-2042 -2036 -2040 0
-2037 -2039 0
-2042 -2037 -2039 0
-2037 -2040 0
-2042 -2037 -2040 0
-2046 2041 2047 0
-2044 2041 2047 0
-2044 -2046 2047 0
-2047 2039 0
-2045 2039 0
-2047 -2045 2040 0
-2043 2039 0
-2047 -2043 2040 0
-2043 -2045 2040 0
-2047 -2043 -2045 0
-254 2046 2048 0
-253 2046 2048 0
-253 -254 2048 0
-2048 2045 0
-252 2044 2049 0
-251 2044 2049 0
-251 -252 2049 0
-2049 2043 0
-2053 2038 2054 0
-2051 2038 2054 0
-2051 -2053 2054 0
-2054 2036 0
-2052 2036 0
-2054 -2052 2037 0
-2050 2036 0
-2054 -2050 2037 0
-2050 -2052 2037 0
-2054 -2050 -2052 0
-250 2053 2055 0
-249 2053 2055 0
-249 -250 2055 0
-2055 2052 0
-248 2051 2058 0
-2057 2051 2058 0
-2057 -248 2058 0
-2058 2050 0
-2056 2050 0
-2058 -2056 0
-247 2057 2059 0
-246 2057 2059 0
-246 -247 2059 0
-2059 2056 0
-2065 2031 2066 0
-2062 2031 2066 0
-2062 -2065 2066 0
-2066 2029 0
-2063 2029 0
-2066 -2063 2030 0
-2064 2030 0
-2066 -2064 0
-2060 2029 0
-2066 -2060 2030 0
-2061 2030 0
-2066 -2061 0
-2060 -2063 2030 0
-2066 -2060 -2063 0
-2060 -2064 0
-2066 -2060 -2064 0
-2061 -2063 0
-2066 -2061 -2063 0
-2061 -2064 0
-2066 -2061 -2064 0
-2070 2065 2071 0
-2068 2065 2071 0
-2068 -2070 2071 0
-2071 2063 0
-2069 2063 0
-2071 -2069 2064 0
-2067 2063 0
-2071 -2067 2064 0
-2067 -2069 2064 0
-2071 -2067 -2069 0
-245 2070 2072 0
-244 2070 2072 0
-244 -245 2072 0
-2072 2069 0
-243 2068 2073 0
-242 2068 2073 0
-242 -243 2073 0
-2073 2067 0
-2077 2062 2078 0
-2075 2062 2078 0
-2075 -2077 2078 0
-2078 2060 0
-2076 2060 0
-2078 -2076 2061 0
-2074 2060 0
-2078 -2074 2061 0
-2074 -2076 2061 0
-2078 -2074 -2076 0
-241 2077 2079 0
-240 2077 2079 0
-240 -241 2079 0
-2079 2076 0
-239 2075 2082 0
-2081 2075 2082 0
-2081 -239 2082 0
-2082 2074 0
-2080 2074 0
-2082 -2080 0
-238 2081 2083 0
-237 2081 2083 0
-237 -238 2083 0
-2083 2080 0
-2089 2024 2090 0
-2086 2024 2090 0
-2086 -2089 2090 0
-2090 2022 0
-2087 2022 0
-2090 -2087 2023 0
-2088 2023 0
-2090 -2088 0
-2084 2022 0
-2090 -2084 2023 0
-2085 2023 0
-2090 -2085 0
-2084 -2087 2023 0
-2090 -2084 -2087 0
-2084 -2088 0
-2090 -2084 -2088 0
-2085 -2087 0
-2090 -2085 -2087 0
-2085 -2088 0
-2090 -2085 -2088 0
-2096 2089 2097 0
-2093 2089 2097 0
-2093 -2096 2097 0
-2097 2087 0
-2094 2087 0
-2097 -2094 2088 0
-2095 2088 0
-2097 -2095 0
-2091 2087 0
-2097 -2091 2088 0
-2092 2088 0
-2097 -2092 0
-2091 -2094 2088 0
-2097 -2091 -2094 0
-2091 -2095 0
-2097 -2091 -2095 0
-2092 -2094 0
-2097 -2092 -2094 0
-2092 -2095 0
-2097 -2092 -2095 0
-2101 2096 2102 0
-2099 2096 2102 0
-2099 -2101 2102 0
-2102 2094 0
-2100 2094 0
-2102 -2100 2095 0
-2098 2094 0
-2102 -2098 2095 0
-2098 -2100 2095 0
-2102 -2098 -2100 0
-236 2101 2103 0
-235 2101 2103 0
-235 -236 2103 0
-2103 2100 0
-234 2099 2104 0
-233 2099 2104 0
-233 -234 2104 0
-2104 2098 0
-2108 2093 2109 0
-2106 2093 2109 0
-2106 -2108 2109 0
-2109 2091 0
-2107 2091 0
-2109 -2107 2092 0
-2105 2091 0
-2109 -2105 2092 0
-2105 -2107 2092 0
-2109 -2105 -2107 0
-232 2108 2110 0
-231 2108 2110 0
-231 -232 2110 0
-2110 2107 0
-230 2106 2113 0
-2112 2106 2113 0
-2112 -230 2113 0
-2113 2105 0
-2111 2105 0
-2113 -2111 0
-229 2112 2114 0
-228 2112 2114 0
-228 -229 2114 0
-2114 2111 0
-2120 2086 2121 0
-2117 2086 2121 0
-2117 -2120 2121 0
-2121 2084 0
-2118 2084 0
-2121 -2118 2085 0
-2119 2085 0
-2121 -2119 0
-2115 2084 0
-2121 -2115 2085 0
-2116 2085 0
-2121 -2116 0
-2115 -2118 2085 0
-2121 -2115 -2118 0
-2115 -2119 0
-2121 -2115 -2119 0
-2116 -2118 0
-2121 -2116 -2118 0
-2116 -2119 0
-2121 -2116 -2119 0
-2125 2120 2126 0
-2123 2120 2126 0
-2123 -2125 2126 0
-2126 2118 0
-2124 2118 0
-2126 -2124 2119 0
-2122 2118 0
-2126 -2122 2119 0
-2122 -2124 2119 0
-2126 -2122 -2124 0
-227 2125 2127 0
-226 2125 2127 0
-226 -227 2127 0
-2127 2124 0
-225 2123 2128 0
-224 2123 2128 0
-224 -225 2128 0
-2128 2122 0
-2132 2117 2133 0
-2130 2117 2133 0
-2130 -2132 2133 0
-2133 2115 0
-2131 2115 0
-2133 -2131 2116 0
-2129 2115 0
-2133 -2129 2116 0
-2129 -2131 2116 0
-2133 -2129 -2131 0
-223 2132 2134 0
-222 2132 2134 0
-222 -223 2134 0
-2134 2131 0
-221 2130 2137 0
-2136 2130 2137 0
-2136 -221 2137 0
-2137 2129 0
-2135 2129 0
-2137 -2135 0
-220 2136 2138 0
-219 2136 2138 0
-219 -220 2138 0
-2138 2135 0
-2144 1893 2145 0
-2141 1893 2145 0
-2141 -2144 2145 0
-2145 1891 0
-2142 1891 0
-2145 -2142 1892 0
-2143 1892 0
-2145 -2143 0
-2139 1891 0
-2145 -2139 1892 0
-2140 1892 0
-2145 -2140 0
-2139 -2142 1892 0
-2145 -2139 -2142 0
-2139 -2143 0
-2145 -2139 -2143 0
-2140 -2142 0
-2145 -2140 -2142 0
-2140 -2143 0
-2145 -2140 -2143 0
-2151 2144 2152 0
-2148 2144 2152 0
-2148 -2151 2152 0
-2152 2142 0
-2149 2142 0
-2152 -2149 2143 0
-2150 2143 0
-2152 -2150 0
-2146 2142 0
-2152 -2146 2143 0
-2147 2143 0
-2152 -2147 0
-2146 -2149 2143 0
-2152 -2146 -2149 0
-2146 -2150 0
-2152 -2146 -2150 0
-2147 -2149 0
-2152 -2147 -2149 0
-2147 -2150 0
-2152 -2147 -2150 0
-2158 2151 2159 0
-2155 2151 2159 0
-2155 -2158 2159 0
-2159 2149 0
-2156 2149 0
-2159 -2156 2150 0
-2157 2150 0
-2159 -2157 0
-2153 2149 0
-2159 -2153 2150 0
-2154 2150 0
-2159 -2154 0
-2153 -2156 2150 0
-2159 -2153 -2156 0
-2153 -2157 0
-2159 -2153 -2157 0
-2154 -2156 0
-2159 -2154 -2156 0
-2154 -2157 0
-2159 -2154 -2157 0
-2165 2158 2166 0
-2162 2158 2166 0
-2162 -2165 2166 0
-2166 2156 0
-2163 2156 0
-2166 -2163 2157 0
-2164 2157 0
-2166 -2164 0
-2160 2156 0
-2166 -2160 2157 0
-2161 2157 0
-2166 -2161 0
-2160 -2163 2157 0
-2166 -2160 -2163 0
-2160 -2164 0
-2166 -2160 -2164 0
-2161 -2163 0
-2166 -2161 -2163 0
-2161 -2164 0
-2166 -2161 -2164 0
-2170 2165 2171 0
-2168 2165 2171 0
-2168 -2170 2171 0
-2171 2163 0
-2169 2163 0
-2171 -2169 2164 0
-2167 2163 0
-2171 -2167 2164 0
-2167 -2169 2164 0
-2171 -2167 -2169 0
-218 2170 2172 0
-217 2170 2172 0
-217 -218 2172 0
-2172 2169 0
-216 2168 2173 0
-215 2168 2173 0
-215 -216 2173 0
-2173 2167 0
-2177 2162 2178 0
-2175 2162 2178 0
-2175 -2177 2178 0
-2178 2160 0
-2176 2160 0
-2178 -2176 2161 0
-2174 2160 0
-2178 -2174 2161 0
-2174 -2176 2161 0
-2178 -2174 -2176 0
-214 2177 2179 0
-213 2177 2179 0
-213 -214 2179 0
-2179 2176 0
-212 2175 2182 0
-2181 2175 2182 0
-2181 -212 2182 0
-2182 2174 0
-2180 2174 0
-2182 -2180 0
-211 2181 2183 0
-210 2181 2183 0
-210 -211 2183 0
-2183 2180 0
-2189 2155 2190 0
-2186 2155 2190 0
-2186 -2189 2190 0
-2190 2153 0
-2187 2153 0
-2190 -2187 2154 0
-2188 2154 0
-2190 -2188 0
-2184 2153 0
-2190 -2184 2154 0
-2185 2154 0
-2190 -2185 0
-2184 -2187 2154 0
-2190 -2184 -2187 0
-2184 -2188 0
-2190 -2184 -2188 0
-2185 -2187 0
-2190 -2185 -2187 0
-2185 -2188 0
-2190 -2185 -2188 0
-2194 2189 2195 0
-2192 2189 2195 0
-2192 -2194 2195 0
-2195 2187 0
-2193 2187 0
-2195 -2193 2188 0
-2191 2187 0
-2195 -2191 2188 0
-2191 -2193 2188 0
-2195 -2191 -2193 0
-209 2194 2196 0
-208 2194 2196 0
-208 -209 2196 0
-2196 2193 0
-207 2192 2197 0
-206 2192 2197 0
-206 -207 2197 0
-2197 2191 0
-2201 2186 2202 0
-2199 2186 2202 0
-2199 -2201 2202 0
-2202 2184 0
-2200 2184 0
-2202 -2200 2185 0
-2198 2184 0
-2202 -2198 2185 0
-2198 -2200 2185 0
-2202 -2198 -2200 0
-205 2201 2203 0
-204 2201 2203 0
-204 -205 2203 0
-2203 2200 0
-203 2199 2206 0
-2205 2199 2206 0
-2205 -203 2206 0
-2206 2198 0
-2204 2198 0
-2206 -2204 0
-202 2205 2207 0
-201 2205 2207 0
-201 -202 2207 0
-2207 2204 0
-2213 2148 2214 0
-2210 2148 2214 0
-2210 -2213 2214 0
-2214 2146 0
-2211 2146 0
-2214 -2211 2147 0
-2212 2147 0
-2214 -2212 0
-2208 2146 0
-2214 -2208 2147 0
-2209 2147 0
-2214 -2209 0
-2208 -2211 2147 0
-2214 -2208 -2211 0
-2208 -2212 0
-2214 -2208 -2212 0
-2209 -2211 0
-2214 -2209 -2211 0
-2209 -2212 0
-2214 -2209 -2212 0
-2220 2213 2221 0
-2217 2213 2221 0
-2217 -2220 2221 0
-2221 2211 0
-2218 2211 0
-2221 -2218 2212 0
-2219 2212 0
-2221 -2219 0
-2215 2211 0
-2221 -2215 2212 0
-2216 2212 0
-2221 -2216 0
-2215 -2218 2212 0
-2221 -2215 -2218 0
-2215 -2219 0
-2221 -2215 -2219 0
-2216 -2218 0
-2221 -2216 -2218 0
-2216 -2219 0
-2221 -2216 -2219 0
-2225 2220 2226 0
-2223 2220 2226 0
-2223 -2225 2226 0
-2226 2218 0
-2224 2218 0
-2226 -2224 2219 0
-2222 2218 0
-2226 -2222 2219 0
-2222 -2224 2219 0
-2226 -2222 -2224 0
-200 2225 2227 0
-199 2225 2227 0
-199 -200 2227 0
-2227 2224 0
-198 2223 2228 0
-197 2223 2228 0
-197 -198 2228 0
-2228 2222 0
-2232 2217 2233 0
-2230 2217 2233 0
-2230 -2232 2233 0
-2233 2215 0
-2231 2215 0
-2233 -2231 2216 0
-2229 2215 0
-2233 -2229 2216 0
-2229 -2231 2216 0
-2233 -2229 -2231 0
-196 2232 2234 0
-195 2232 2234 0
-195 -196 2234 0
-2234 2231 0
-194 2230 2237 0
-2236 2230 2237 0
-2236 -194 2237 0
-2237 2229 0
-2235 2229 0
-2237 -2235 0
-193 2236 2238 0
-192 2236 2238 0
-192 -193 2238 0
-2238 2235 0
-2244 2210 2245 0
-2241 2210 2245 0
-2241 -2244 2245 0
-2245 2208 0
-2242 2208 0
-2245 -2242 2209 0
-2243 2209 0
-2245 -2243 0
-2239 2208 0
-2245 -2239 2209 0
-2240 2209 0
-2245 -2240 0
-2239 -2242 2209 0
-2245 -2239 -2242 0
-2239 -2243 0
-2245 -2239 -2243 0
-2240 -2242 0
-2245 -2240 -2242 0
-2240 -2243 0
-2245 -2240 -2243 0
-2249 2244 2250 0
-2247 2244 2250 0
-2247 -2249 2250 0
-2250 2242 0
-2248 2242 0
-2250 -2248 2243 0
-2246 2242 0
-2250 -2246 2243 0
-2246 -2248 2243 0
-2250 -2246 -2248 0
-191 2249 2251 0
-190 2249 2251 0
-190 -191 2251 0
-2251 2248 0
-189 2247 2252 0
-188 2247 2252 0
-188 -189 2252 0
-2252 2246 0
-2256 2241 2257 0
-2254 2241 2257 0
-2254 -2256 2257 0
-2257 2239 0
-2255 2239 0
-2257 -2255 2240 0
-2253 2239 0
-2257 -2253 2240 0
-2253 -2255 2240 0
-2257 -2253 -2255 0
-187 2256 2258 0
-186 2256 2258 0
-186 -187 2258 0
-2258 2255 0
-185 2254 2261 0
-2260 2254 2261 0
-2260 -185 2261 0
-2261 2253 0
-2259 2253 0
-2261 -2259 0
-184 2260 2262 0
-183 2260 2262 0
-183 -184 2262 0
-2262 2259 0
-2268 2141 2269 0
-2265 2141 2269 0
-2265 -2268 2269 0
-2269 2139 0
-2266 2139 0
-2269 -2266 2140 0
-2267 2140 0
-2269 -2267 0
-2263 2139 0
-2269 -2263 2140 0
-2264 2140 0
-2269 -2264 0
-2263 -2266 2140 0
-2269 -2263 -2266 0
-2263 -2267 0
-2269 -2263 -2267 0
-2264 -2266 0
-2269 -2264 -2266 0
-2264 -2267 0
-2269 -2264 -2267 0
-2275 2268 2276 0
-2272 2268 2276 0
-2272 -2275 2276 0
-2276 2266 0
-2273 2266 0
-2276 -2273 2267 0
-2274 2267 0
-2276 -2274 0
-2270 2266 0
-2276 -2270 2267 0
-2271 2267 0
-2276 -2271 0
-2270 -2273 2267 0
-2276 -2270 -2273 0
-2270 -2274 0
-2276 -2270 -2274 0
-2271 -2273 0
-2276 -2271 -2273 0
-2271 -2274 0
-2276 -2271 -2274 0
-2282 2275 2283 0
-2279 2275 2283 0
-2279 -2282 2283 0
-2283 2273 0
-2280 2273 0
-2283 -2280 2274 0
-2281 2274 0
-2283 -2281 0
-2277 2273 0
-2283 -2277 2274 0
-2278 2274 0
-2283 -2278 0
-2277 -2280 2274 0
-2283 -2277 -2280 0
-2277 -2281 0
-2283 -2277 -2281 0
-2278 -2280 0
-2283 -2278 -2280 0
-2278 -2281 0
-2283 -2278 -2281 0
-2287 2282 2288 0
-2285 2282 2288 0
-2285 -2287 2288 0
-2288 2280 0
-2286 2280 0
-2288 -2286 2281 0
-2284 2280 0
-2288 -2284 2281 0
-2284 -2286 2281 0
-2288 -2284 -2286 0
-182 2287 2289 0
-181 2287 2289 0
-181 -182 2289 0
-2289 2286 0
-180 2285 2290 0
-179 2285 2290 0
-179 -180 2290 0
-2290 2284 0
-2294 2279 2295 0
-2292 2279 2295 0
-2292 -2294 2295 0
-2295 2277 0
-2293 2277 0
-2295 -2293 2278 0
-2291 2277 0
-2295 -2291 2278 0
-2291 -2293 2278 0
-2295 -2291 -2293 0
-178 2294 2296 0
-177 2294 2296 0
-177 -178 2296 0
-2296 2293 0
-176 2292 2299 0
-2298 2292 2299 0
-2298 -176 2299 0
-2299 2291 0
-2297 2291 0
-2299 -2297 0
-175 2298 2300 0
-174 2298 2300 0
-174 -175 2300 0
-2300 2297 0
-2306 2272 2307 0
-2303 2272 2307 0
-2303 -2306 2307 0
-2307 2270 0
-2304 2270 0
-2307 -2304 2271 0
-2305 2271 0
-2307 -2305 0
-2301 2270 0
-2307 -2301 2271 0
-2302 2271 0
-2307 -2302 0
-2301 -2304 2271 0
-2307 -2301 -2304 0
-2301 -2305 0
-2307 -2301 -2305 0
-2302 -2304 0
-2307 -2302 -2304 0
-2302 -2305 0
-2307 -2302 -2305 0
-2311 2306 2312 0
-2309 2306 2312 0
-2309 -2311 2312 0
-2312 2304 0
-2310 2304 0
-2312 -2310 2305 0
-2308 2304 0
-2312 -2308 2305 0
-2308 -2310 2305 0
-2312 -2308 -2310 0
-173 2311 2313 0
-172 2311 2313 0
-172 -173 2313 0
-2313 2310 0
-171 2309 2314 0
-170 2309 2314 0
-170 -171 2314 0
-2314 2308 0
-2318 2303 2319 0
-2316 2303 2319 0
-2316 -2318 2319 0
-2319 2301 0
-2317 2301 0
-2319 -2317 2302 0
-2315 2301 0
-2319 -2315 2302 0
-2315 -2317 2302 0
-2319 -2315 -2317 0
-169 2318 2320 0
-168 2318 2320 0
-168 -169 2320 0
-2320 2317 0
-167 2316 2323 0
-2322 2316 2323 0
-2322 -167 2323 0
-2323 2315 0
-2321 2315 0
-2323 -2321 0
-166 2322 2324 0
-165 2322 2324 0
-165 -166 2324 0
-2324 2321 0
-2330 2265 2331 0
-2327 2265 2331 0
-2327 -2330 2331 0
-2331 2263 0
-2328 2263 0
-2331 -2328 2264 0
-2329 2264 0
-2331 -2329 0
-2325 2263 0
-2331 -2325 2264 0
-2326 2264 0
-2331 -2326 0
-2325 -2328 2264 0
-2331 -2325 -2328 0
-2325 -2329 0
-2331 -2325 -2329 0
-2326 -2328 0
-2331 -2326 -2328 0
-2326 -2329 0
-2331 -2326 -2329 0
-2337 2330 2338 0
-2334 2330 2338 0
-2334 -2337 2338 0
-2338 2328 0
-2335 2328 0
-2338 -2335 2329 0
-2336 2329 0
-2338 -2336 0
-2332 2328 0
-2338 -2332 2329 0
-2333 2329 0
-2338 -2333 0
-2332 -2335 2329 0
-2338 -2332 -2335 0
-2332 -2336 0
-2338 -2332 -2336 0
-2333 -2335 0
-2338 -2333 -2335 0
-2333 -2336 0
-2338 -2333 -2336 0
-2342 2337 2343 0
-2340 2337 2343 0
-2340 -2342 2343 0
-2343 2335 0
-2341 2335 0
-2343 -2341 2336 0
-2339 2335 0
-2343 -2339 2336 0
-2339 -2341 2336 0
-2343 -2339 -2341 0
-164 2342 2344 0
-163 2342 2344 0
-163 -164 2344 0
-2344 2341 0
-162 2340 2345 0
-161 2340 2345 0
-161 -162 2345 0
-2345 2339 0
-2349 2334 2350 0
-2347 2334 2350 0
-2347 -2349 2350 0
-2350 2332 0
-2348 2332 0
-2350 -2348 2333 0
-2346 2332 0
-2350 -2346 2333 0
-2346 -2348 2333 0
-2350 -2346 -2348 0
-160 2349 2351 0
-159 2349 2351 0
-159 -160 2351 0
-2351 2348 0
-158 2347 2354 0
-2353 2347 2354 0
-2353 -158 2354 0
-2354 2346 0
-2352 2346 0
-2354 -2352 0
-157 2353 2355 0
-156 2353 2355 0
-156 -157 2355 0
-2355 2352 0
-2361 2327 2362 0
-2358 2327 2362 0
-2358 -2361 2362 0
-2362 2325 0
-2359 2325 0
-2362 -2359 2326 0
-2360 2326 0
-2362 -2360 0
-2356 2325 0
-2362 -2356 2326 0
-2357 2326 0
-2362 -2357 0
-2356 -2359 2326 0
-2362 -2356 -2359 0
-2356 -2360 0
-2362 -2356 -2360 0
-2357 -2359 0
-2362 -2357 -2359 0
-2357 -2360 0
-2362 -2357 -2360 0
-2366 2361 2367 0
-2364 2361 2367 0
-2364 -2366 2367 0
-2367 2359 0
-2365 2359 0
-2367 -2365 2360 0
-2363 2359 0
-2367 -2363 2360 0
-2363 -2365 2360 0
-2367 -2363 -2365 0
-155 2366 2368 0
-154 2366 2368 0
-154 -155 2368 0
-2368 2365 0
-153 2364 2371 0
-2370 2364 2371 0
-2370 -153 2371 0
-2371 2363 0
-2369 2363 0
-2371 -2369 0
-152 2370 2372 0
-151 2370 2372 0
-151 -152 2372 0
-2372 2369 0
-2376 2358 2377 0
-2374 2358 2377 0
-2374 -2376 2377 0
-2377 2356 0
-2375 2356 0
-2377 -2375 2357 0
-2373 2356 0
-2377 -2373 2357 0
-2373 -2375 2357 0
-2377 -2373 -2375 0
-150 2376 2378 0
-149 2376 2378 0
-149 -150 2378 0
-2378 2375 0
-148 2374 2381 0
-2380 2374 2381 0
-2380 -148 2381 0
-2381 2373 0
-2379 2373 0
-2381 -2379 0
-147 2380 2382 0
-146 2380 2382 0
-146 -147 2382 0
-2382 2379 0
-2388 1886 2389 0
-2385 1886 2389 0
-2385 -2388 2389 0
-2389 1884 0
-2386 1884 0
-2389 -2386 1885 0
-2387 1885 0
-2389 -2387 0
-2383 1884 0
-2389 -2383 1885 0
-2384 1885 0
-2389 -2384 0
-2383 -2386 1885 0
-2389 -2383 -2386 0
-2383 -2387 0
-2389 -2383 -2387 0
-2384 -2386 0
-2389 -2384 -2386 0
-2384 -2387 0
-2389 -2384 -2387 0
-2395 2388 2396 0
-2392 2388 2396 0
-2392 -2395 2396 0
-2396 2386 0
-2393 2386 0
-2396 -2393 2387 0
-2394 2387 0
-2396 -2394 0
-2390 2386 0
-2396 -2390 2387 0
-2391 2387 0
-2396 -2391 0
-2390 -2393 2387 0
-2396 -2390 -2393 0
-2390 -2394 0
-2396 -2390 -2394 0
-2391 -2393 0
-2396 -2391 -2393 0
-2391 -2394 0
-2396 -2391 -2394 0
-2402 2395 2403 0
-2399 2395 2403 0
-2399 -2402 2403 0
-2403 2393 0
-2400 2393 0
-2403 -2400 2394 0
-2401 2394 0
-2403 -2401 0
-2397 2393 0
-2403 -2397 2394 0
-2398 2394 0
-2403 -2398 0
-2397 -2400 2394 0
-2403 -2397 -2400 0
-2397 -2401 0
-2403 -2397 -2401 0
-2398 -2400 0
-2403 -2398 -2400 0
-2398 -2401 0
-2403 -2398 -2401 0
-2409 2402 2410 0
-2406 2402 2410 0
-2406 -2409 2410 0
-2410 2400 0
-2407 2400 0
-2410 -2407 2401 0
-2408 2401 0
-2410 -2408 0
-2404 2400 0
-2410 -2404 2401 0
-2405 2401 0
-2410 -2405 0
-2404 -2407 2401 0
-2410 -2404 -2407 0
-2404 -2408 0
-2410 -2404 -2408 0
-2405 -2407 0
-2410 -2405 -2407 0
-2405 -2408 0
-2410 -2405 -2408 0
-2416 2409 2417 0
-2413 2409 2417 0
-2413 -2416 2417 0
-2417 2407 0
-2414 2407 0
-2417 -2414 2408 0
-2415 2408 0
-2417 -2415 0
-2411 2407 0
-2417 -2411 2408 0
-2412 2408 0
-2417 -2412 0
-2411 -2414 2408 0
-2417 -2411 -2414 0
-2411 -2415 0
-2417 -2411 -2415 0
-2412 -2414 0
-2417 -2412 -2414 0
-2412 -2415 0
-2417 -2412 -2415 0
-2421 2416 2422 0
-2419 2416 2422 0
-2419 -2421 2422 0
-2422 2414 0
-2420 2414 0
-2422 -2420 2415 0
-2418 2414 0
-2422 -2418 2415 0
-2418 -2420 2415 0
-2422 -2418 -2420 0
-145 2421 2423 0
-144 2421 2423 0
-144 -145 2423 0
-2423 2420 0
-143 2419 2424 0
-142 2419 2424 0
-142 -143 2424 0
-2424 2418 0
-2428 2413 2429 0
-2426 2413 2429 0
-2426 -2428 2429 0
-2429 2411 0
-2427 2411 0
-2429 -2427 2412 0
-2425 2411 0
-2429 -2425 2412 0
-2425 -2427 2412 0
-2429 -2425 -2427 0
-141 2428 2430 0
-140 2428 2430 0
-140 -141 2430 0
-2430 2427 0
-139 2426 2433 0
-2432 2426 2433 0
-2432 -139 2433 0
-2433 2425 0
-2431 2425 0
-2433 -2431 0
-138 2432 2434 0
-137 2432 2434 0
-137 -138 2434 0
-2434 2431 0
-2440 2406 2441 0
-2437 2406 2441 0
-2437 -2440 2441 0
-2441 2404 0
-2438 2404 0
-2441 -2438 2405 0
-2439 2405 0
-2441 -2439 0
-2435 2404 0
-2441 -2435 2405 0
-2436 2405 0
-2441 -2436 0
-2435 -2438 2405 0
-2441 -2435 -2438 0
-2435 -2439 0
-2441 -2435 -2439 0
-2436 -2438 0
-2441 -2436 -2438 0
-2436 -2439 0
-2441 -2436 -2439 0
-2445 2440 2446 0
-2443 2440 2446 0
-2443 -2445 2446 0
-2446 2438 0
-2444 2438 0
-2446 -2444 2439 0
-2442 2438 0
-2446 -2442 2439 0
-2442 -2444 2439 0
-2446 -2442 -2444 0
-136 2445 2447 0
-135 2445 2447 0
-135 -136 2447 0
-2447 2444 0
-134 2443 2448 0
-133 2443 2448 0
-133 -134 2448 0
-2448 2442 0
-2452 2437 2453 0
-2450 2437 2453 0
-2450 -2452 2453 0
-2453 2435 0
-2451 2435 0
-2453 -2451 2436 0
-2449 2435 0
-2453 -2449 2436 0
-2449 -2451 2436 0
-2453 -2449 -2451 0
-132 2452 2454 0
-131 2452 2454 0
-131 -132 2454 0
-2454 2451 0
-130 2450 2457 0
-2456 2450 2457 0
-2456 -130 2457 0
-2457 2449 0
-2455 2449 0
-2457 -2455 0
-129 2456 2458 0
-128 2456 2458 0
-128 -129 2458 0
-2458 2455 0
-2464 2399 2465 0
-2461 2399 2465 0
-2461 -2464 2465 0
-2465 2397 0
-2462 2397 0
-2465 -2462 2398 0
-2463 2398 0
-2465 -2463 0
-2459 2397 0
-2465 -2459 2398 0
-2460 2398 0
-2465 -2460 0
-2459 -2462 2398 0
-2465 -2459 -2462 0
-2459 -2463 0
-2465 -2459 -2463 0
-2460 -2462 0
-2465 -2460 -2462 0
-2460 -2463 0
-2465 -2460 -2463 0
-2471 2464 2472 0
-2468 2464 2472 0
-2468 -2471 2472 0
-2472 2462 0
-2469 2462 0
-2472 -2469 2463 0
-2470 2463 0
-2472 -2470 0
-2466 2462 0
-2472 -2466 2463 0
-2467 2463 0
-2472 -2467 0
-2466 -2469 2463 0
-2472 -2466 -2469 0
-2466 -2470 0
-2472 -2466 -2470 0
-2467 -2469 0
-2472 -2467 -2469 0
-2467 -2470 0
-2472 -2467 -2470 0
-2476 2471 2477 0
-2474 2471 2477 0
-2474 -2476 2477 0
-2477 2469 0
-2475 2469 0
-2477 -2475 2470 0
-2473 2469 0
-2477 -2473 2470 0
-2473 -2475 2470 0
-2477 -2473 -2475 0
-127 2476 2478 0
-126 2476 2478 0
-126 -127 2478 0
-2478 2475 0
-125 2474 2479 0
-124 2474 2479 0
-124 -125 2479 0
-2479 2473 0
-2483 2468 2484 0
-2481 2468 2484 0
-2481 -2483 2484 0
-2484 2466 0
-2482 2466 0
-2484 -2482 2467 0
-2480 2466 0
-2484 -2480 2467 0
-2480 -2482 2467 0
-2484 -2480 -2482 0
-123 2483 2485 0
-122 2483 2485 0
-122 -123 2485 0
-2485 2482 0
-121 2481 2488 0
-2487 2481 2488 0
-2487 -121 2488 0
-2488 2480 0
-2486 2480 0
-2488 -2486 0
-120 2487 2489 0
-119 2487 2489 0
-119 -120 2489 0
-2489 2486 0
-2495 2461 2496 0
-2492 2461 2496 0
-2492 -2495 2496 0
-2496 2459 0
-2493 2459 0
-2496 -2493 2460 0
-2494 2460 0
-2496 -2494 0
-2490 2459 0
-2496 -2490 2460 0
-2491 2460 0
-2496 -2491 0
-2490 -2493 2460 0
-2496 -2490 -2493 0
-2490 -2494 0
-2496 -2490 -2494 0
-2491 -2493 0
-2496 -2491 -2493 0
-2491 -2494 0
-2496 -2491 -2494 0
-2500 2495 2501 0
-2498 2495 2501 0
-2498 -2500 2501 0
-2501 2493 0
-2499 2493 0
-2501 -2499 2494 0
-2497 2493 0
-2501 -2497 2494 0
-2497 -2499 2494 0
-2501 -2497 -2499 0
-118 2500 2502 0
-117 2500 2502 0
-117 -118 2502 0
-2502 2499 0
-116 2498 2503 0
-115 2498 2503 0
-115 -116 2503 0
-2503 2497 0
-2507 2492 2508 0
-2505 2492 2508 0
-2505 -2507 2508 0
-2508 2490 0
-2506 2490 0
-2508 -2506 2491 0
-2504 2490 0
-2508 -2504 2491 0
-2504 -2506 2491 0
-2508 -2504 -2506 0
-114 2507 2509 0
-113 2507 2509 0
-113 -114 2509 0
-2509 2506 0
-112 2505 2512 0
-2511 2505 2512 0
-2511 -112 2512 0
-2512 2504 0
-2510 2504 0
-2512 -2510 0
-111 2511 2513 0
-110 2511 2513 0
-110 -111 2513 0
-2513 2510 0
-2519 2392 2520 0
-2516 2392 2520 0
-2516 -2519 2520 0
-2520 2390 0
-2517 2390 0
-2520 -2517 2391 0
-2518 2391 0
-2520 -2518 0
-2514 2390 0
-2520 -2514 2391 0
-2515 2391 0
-2520 -2515 0
-2514 -2517 2391 0
-2520 -2514 -2517 0
-2514 -2518 0
-2520 -2514 -2518 0
-2515 -2517 0
-2520 -2515 -2517 0
-2515 -2518 0
-2520 -2515 -2518 0
-2526 2519 2527 0
-2523 2519 2527 0
-2523 -2526 2527 0
-2527 2517 0
-2524 2517 0
-2527 -2524 2518 0
-2525 2518 0
-2527 -2525 0
-2521 2517 0
-2527 -2521 2518 0
-2522 2518 0
-2527 -2522 0
-2521 -2524 2518 0
-2527 -2521 -2524 0
-2521 -2525 0
-2527 -2521 -2525 0
-2522 -2524 0
-2527 -2522 -2524 0
-2522 -2525 0
-2527 -2522 -2525 0
-2533 2526 2534 0
-2530 2526 2534 0
-2530 -2533 2534 0
-2534 2524 0
-2531 2524 0
-2534 -2531 2525 0
-2532 2525 0
-2534 -2532 0
-2528 2524 0
-2534 -2528 2525 0
-2529 2525 0
-2534 -2529 0
-2528 -2531 2525 0
-2534 -2528 -2531 0
-2528 -2532 0
-2534 -2528 -2532 0
-2529 -2531 0
-2534 -2529 -2531 0
-2529 -2532 0
-2534 -2529 -2532 0
-2538 2533 2539 0
-2536 2533 2539 0
-2536 -2538 2539 0
-2539 2531 0
-2537 2531 0
-2539 -2537 2532 0
-2535 2531 0
-2539 -2535 2532 0
-2535 -2537 2532 0
-2539 -2535 -2537 0
-109 2538 2540 0
-108 2538 2540 0
-108 -109 2540 0
-2540 2537 0
-107 2536 2541 0
-106 2536 2541 0
-106 -107 2541 0
-2541 2535 0
-2545 2530 2546 0
-2543 2530 2546 0
-2543 -2545 2546 0
-2546 2528 0
-2544 2528 0
-2546 -2544 2529 0
-2542 2528 0
-2546 -2542 2529 0
-2542 -2544 2529 0
-2546 -2542 -2544 0
-105 2545 2547 0
-104 2545 2547 0
-104 -105 2547 0
-2547 2544 0
-103 2543 2550 0
-2549 2543 2550 0
-2549 -103 2550 0
-2550 2542 0
-2548 2542 0
-2550 -2548 0
-102 2549 2551 0
-101 2549 2551 0
-101 -102 2551 0
-2551 2548 0
-2557 2523 2558 0
-2554 2523 2558 0
-2554 -2557 2558 0
-2558 2521 0
-2555 2521 0
-2558 -2555 2522 0
-2556 2522 0
-2558 -2556 0
-2552 2521 0
-2558 -2552 2522 0
-2553 2522 0
-2558 -2553 0
-2552 -2555 2522 0
-2558 -2552 -2555 0
-2552 -2556 0
-2558 -2552 -2556 0
-2553 -2555 0
-2558 -2553 -2555 0
-2553 -2556 0
-2558 -2553 -2556 0
-2562 2557 2563 0
-2560 2557 2563 0
-2560 -2562 2563 0
-2563 2555 0
-2561 2555 0
-2563 -2561 2556 0
-2559 2555 0
-2563 -2559 2556 0
-2559 -2561 2556 0
-2563 -2559 -2561 0
-100 2562 2564 0
-99 2562 2564 0
-99 -100 2564 0
-2564 2561 0
-98 2560 2565 0
-97 2560 2565 0
-97 -98 2565 0
-2565 2559 0
-2569 2554 2570 0
-2567 2554 2570 0
-2567 -2569 2570 0
-2570 2552 0
-2568 2552 0
-2570 -2568 2553 0
-2566 2552 0
-2570 -2566 2553 0
-2566 -2568 2553 0
-2570 -2566 -2568 0
-96 2569 2571 0
-95 2569 2571 0
-95 -96 2571 0
-2571 2568 0
-94 2567 2574 0
-2573 2567 2574 0
-2573 -94 2574 0
-2574 2566 0
-2572 2566 0
-2574 -2572 0
-93 2573 2575 0
-92 2573 2575 0
-92 -93 2575 0
-2575 2572 0
-2581 2516 2582 0
-2578 2516 2582 0
-2578 -2581 2582 0
-2582 2514 0
-2579 2514 0
-2582 -2579 2515 0
-2580 2515 0
-2582 -2580 0
-2576 2514 0
-2582 -2576 2515 0
-2577 2515 0
-2582 -2577 0
-2576 -2579 2515 0
-2582 -2576 -2579 0
-2576 -2580 0
-2582 -2576 -2580 0
-2577 -2579 0
-2582 -2577 -2579 0
-2577 -2580 0
-2582 -2577 -2580 0
-2588 2581 2589 0
-2585 2581 2589 0
-2585 -2588 2589 0
-2589 2579 0
-2586 2579 0
-2589 -2586 2580 0
-2587 2580 0
-2589 -2587 0
-2583 2579 0
-2589 -2583 2580 0
-2584 2580 0
-2589 -2584 0
-2583 -2586 2580 0
-2589 -2583 -2586 0
-2583 -2587 0
-2589 -2583 -2587 0
-2584 -2586 0
-2589 -2584 -2586 0
-2584 -2587 0
-2589 -2584 -2587 0
-2593 2588 2594 0
-2591 2588 2594 0
-2591 -2593 2594 0
-2594 2586 0
-2592 2586 0
-2594 -2592 2587 0
-2590 2586 0
-2594 -2590 2587 0
-2590 -2592 2587 0
-2594 -2590 -2592 0
-91 2593 2595 0
-90 2593 2595 0
-90 -91 2595 0
-2595 2592 0
-89 2591 2596 0
-88 2591 2596 0
-88 -89 2596 0
-2596 2590 0
-2600 2585 2601 0
-2598 2585 2601 0
-2598 -2600 2601 0
-2601 2583 0
-2599 2583 0
-2601 -2599 2584 0
-2597 2583 0
-2601 -2597 2584 0
-2597 -2599 2584 0
-2601 -2597 -2599 0
-87 2600 2602 0
-86 2600 2602 0
-86 -87 2602 0
-2602 2599 0
-85 2598 2605 0
-2604 2598 2605 0
-2604 -85 2605 0
-2605 2597 0
-2603 2597 0
-2605 -2603 0
-84 2604 2606 0
-83 2604 2606 0
-83 -84 2606 0
-2606 2603 0
-2612 2578 2613 0
-2609 2578 2613 0
-2609 -2612 2613 0
-2613 2576 0
-2610 2576 0
-2613 -2610 2577 0
-2611 2577 0
-2613 -2611 0
-2607 2576 0
-2613 -2607 2577 0
-2608 2577 0
-2613 -2608 0
-2607 -2610 2577 0
-2613 -2607 -2610 0
-2607 -2611 0
-2613 -2607 -2611 0
-2608 -2610 0
-2613 -2608 -2610 0
-2608 -2611 0
-2613 -2608 -2611 0
-2617 2612 2618 0
-2615 2612 2618 0
-2615 -2617 2618 0
-2618 2610 0
-2616 2610 0
-2618 -2616 2611 0
-2614 2610 0
-2618 -2614 2611 0
-2614 -2616 2611 0
-2618 -2614 -2616 0
-82 2617 2619 0
-81 2617 2619 0
-81 -82 2619 0
-2619 2616 0
-80 2615 2620 0
-79 2615 2620 0
-79 -80 2620 0
-2620 2614 0
-2624 2609 2625 0
-2622 2609 2625 0
-2622 -2624 2625 0
-2625 2607 0
-2623 2607 0
-2625 -2623 2608 0
-2621 2607 0
-2625 -2621 2608 0
-2621 -2623 2608 0
-2625 -2621 -2623 0
-78 2624 2626 0
-77 2624 2626 0
-77 -78 2626 0
-2626 2623 0
-76 2622 2629 0
-2628 2622 2629 0
-2628 -76 2629 0
-2629 2621 0
-2627 2621 0
-2629 -2627 0
-75 2628 2630 0
-74 2628 2630 0
-74 -75 2630 0
-2630 2627 0
-2636 2385 2637 0
-2633 2385 2637 0
-2633 -2636 2637 0
-2637 2383 0
-2634 2383 0
-2637 -2634 2384 0
-2635 2384 0
-2637 -2635 0
-2631 2383 0
-2637 -2631 2384 0
-2632 2384 0
-2637 -2632 0
-2631 -2634 2384 0
-2637 -2631 -2634 0
-2631 -2635 0
-2637 -2631 -2635 0
-2632 -2634 0
-2637 -2632 -2634 0
-2632 -2635 0
-2637 -2632 -2635 0
-2643 2636 2644 0
-2640 2636 2644 0
-2640 -2643 2644 0
-2644 2634 0
-2641 2634 0
-2644 -2641 2635 0
-2642 2635 0
-2644 -2642 0
-2638 2634 0
-2644 -2638 2635 0
-2639 2635 0
-2644 -2639 0
-2638 -2641 2635 0
-2644 -2638 -2641 0
-2638 -2642 0
-2644 -2638 -2642 0
-2639 -2641 0
-2644 -2639 -2641 0
-2639 -2642 0
-2644 -2639 -2642 0
-2650 2643 2651 0
-2647 2643 2651 0
-2647 -2650 2651 0
-2651 2641 0
-2648 2641 0
-2651 -2648 2642 0
-2649 2642 0
-2651 -2649 0
-2645 2641 0
-2651 -2645 2642 0
-2646 2642 0
-2651 -2646 0
-2645 -2648 2642 0
-2651 -2645 -2648 0
-2645 -2649 0
-2651 -2645 -2649 0
-2646 -2648 0
-2651 -2646 -2648 0
-2646 -2649 0
-2651 -2646 -2649 0
-2657 2650 2658 0
-2654 2650 2658 0
-2654 -2657 2658 0
-2658 2648 0
-2655 2648 0
-2658 -2655 2649 0
-2656 2649 0
-2658 -2656 0
-2652 2648 0
-2658 -2652 2649 0
-2653 2649 0
-2658 -2653 0
-2652 -2655 2649 0
-2658 -2652 -2655 0
-2652 -2656 0
-2658 -2652 -2656 0
-2653 -2655 0
-2658 -2653 -2655 0
-2653 -2656 0
-2658 -2653 -2656 0
-2662 2657 2663 0
-2660 2657 2663 0
-2660 -2662 2663 0
-2663 2655 0
-2661 2655 0
-2663 -2661 2656 0
-2659 2655 0
-2663 -2659 2656 0
-2659 -2661 2656 0
-2663 -2659 -2661 0
-73 2662 2664 0
-72 2662 2664 0
-72 -73 2664 0
-2664 2661 0
-71 2660 2665 0
-70 2660 2665 0
-70 -71 2665 0
-2665 2659 0
-2669 2654 2670 0
-2667 2654 2670 0
-2667 -2669 2670 0
-2670 2652 0
-2668 2652 0
-2670 -2668 2653 0
-2666 2652 0
-2670 -2666 2653 0
-2666 -2668 2653 0
-2670 -2666 -2668 0
-69 2669 2671 0
-68 2669 2671 0
-68 -69 2671 0
-2671 2668 0
-67 2667 2674 0
-2673 2667 2674 0
-2673 -67 2674 0
-2674 2666 0
-2672 2666 0
-2674 -2672 0
-66 2673 2675 0
-65 2673 2675 0
-65 -66 2675 0
-2675 2672 0
-2681 2647 2682 0
-2678 2647 2682 0
-2678 -2681 2682 0
-2682 2645 0
-2679 2645 0
-2682 -2679 2646 0
-2680 2646 0
-2682 -2680 0
-2676 2645 0
-2682 -2676 2646 0
-2677 2646 0
-2682 -2677 0
-2676 -2679 2646 0
-2682 -2676 -2679 0
-2676 -2680 0
-2682 -2676 -2680 0
-2677 -2679 0
-2682 -2677 -2679 0
-2677 -2680 0
-2682 -2677 -2680 0
-2686 2681 2687 0
-2684 2681 2687 0
-2684 -2686 2687 0
-2687 2679 0
-2685 2679 0
-2687 -2685 2680 0
-2683 2679 0
-2687 -2683 2680 0
-2683 -2685 2680 0
-2687 -2683 -2685 0
-64 2686 2688 0
-63 2686 2688 0
-63 -64 2688 0
-2688 2685 0
-62 2684 2689 0
-61 2684 2689 0
-61 -62 2689 0
-2689 2683 0
-2693 2678 2694 0
-2691 2678 2694 0
-2691 -2693 2694 0
-2694 2676 0
-2692 2676 0
-2694 -2692 2677 0
-2690 2676 0
-2694 -2690 2677 0
-2690 -2692 2677 0
-2694 -2690 -2692 0
-60 2693 2695 0
-59 2693 2695 0
-59 -60 2695 0
-2695 2692 0
-58 2691 2698 0
-2697 2691 2698 0
-2697 -58 2698 0
-2698 2690 0
-2696 2690 0
-2698 -2696 0
-57 2697 2699 0
-56 2697 2699 0
-56 -57 2699 0
-2699 2696 0
-2705 2640 2706 0
-2702 2640 2706 0
-2702 -2705 2706 0
-2706 2638 0
-2703 2638 0
-2706 -2703 2639 0
-2704 2639 0
-2706 -2704 0
-2700 2638 0
-2706 -2700 2639 0
-2701 2639 0
-2706 -2701 0
-2700 -2703 2639 0
-2706 -2700 -2703 0
-2700 -2704 0
-2706 -2700 -2704 0
-2701 -2703 0
-2706 -2701 -2703 0
-2701 -2704 0
-2706 -2701 -2704 0
-2712 2705 2713 0
-2709 2705 2713 0
-2709 -2712 2713 0
-2713 2703 0
-2710 2703 0
-2713 -2710 2704 0
-2711 2704 0
-2713 -2711 0
-2707 2703 0
-2713 -2707 2704 0
-2708 2704 0
-2713 -2708 0
-2707 -2710 2704 0
-2713 -2707 -2710 0
-2707 -2711 0
-2713 -2707 -2711 0
-2708 -2710 0
-2713 -2708 -2710 0
-2708 -2711 0
-2713 -2708 -2711 0
-2717 2712 2718 0
-2715 2712 2718 0
-2715 -2717 2718 0
-2718 2710 0
-2716 2710 0
-2718 -2716 2711 0
-2714 2710 0
-2718 -2714 2711 0
-2714 -2716 2711 0
-2718 -2714 -2716 0
-55 2717 2719 0
-54 2717 2719 0
-54 -55 2719 0
-2719 2716 0
-53 2715 2720 0
-52 2715 2720 0
-52 -53 2720 0
-2720 2714 0
-2724 2709 2725 0
-2722 2709 2725 0
-2722 -2724 2725 0
-2725 2707 0
-2723 2707 0
-2725 -2723 2708 0
-2721 2707 0
-2725 -2721 2708 0
-2721 -2723 2708 0
-2725 -2721 -2723 0
-51 2724 2726 0
-50 2724 2726 0
-50 -51 2726 0
-2726 2723 0
-49 2722 2729 0
-2728 2722 2729 0
-2728 -49 2729 0
-2729 2721 0
-2727 2721 0
-2729 -2727 0
-48 2728 2730 0
-47 2728 2730 0
-47 -48 2730 0
-2730 2727 0
-2736 2702 2737 0
-2733 2702 2737 0
-2733 -2736 2737 0
-2737 2700 0
-2734 2700 0
-2737 -2734 2701 0
-2735 2701 0
-2737 -2735 0
-2731 2700 0
-2737 -2731 2701 0
-2732 2701 0
-2737 -2732 0
-2731 -2734 2701 0
-2737 -2731 -2734 0
-2731 -2735 0
-2737 -2731 -2735 0
-2732 -2734 0
-2737 -2732 -2734 0
-2732 -2735 0
-2737 -2732 -2735 0
-2741 2736 2742 0
-2739 2736 2742 0
-2739 -2741 2742 0
-2742 2734 0
-2740 2734 0
-2742 -2740 2735 0
-2738 2734 0
-2742 -2738 2735 0
-2738 -2740 2735 0
-2742 -2738 -2740 0
-46 2741 2743 0
-45 2741 2743 0
-45 -46 2743 0
-2743 2740 0
-44 2739 2744 0
-43 2739 2744 0
-43 -44 2744 0
-2744 2738 0
-2748 2733 2749 0
-2746 2733 2749 0
-2746 -2748 2749 0
-2749 2731 0
-2747 2731 0
-2749 -2747 2732 0
-2745 2731 0
-2749 -2745 2732 0
-2745 -2747 2732 0
-2749 -2745 -2747 0
-42 2748 2750 0
-41 2748 2750 0
-41 -42 2750 0
-2750 2747 0
-40 2746 2753 0
-2752 2746 2753 0
-2752 -40 2753 0
-2753 2745 0
-2751 2745 0
-2753 -2751 0
-39 2752 2754 0
-38 2752 2754 0
-38 -39 2754 0
-2754 2751 0
-2760 2633 2761 0
-2757 2633 2761 0
-2757 -2760 2761 0
-2761 2631 0
-2758 2631 0
-2761 -2758 2632 0
-2759 2632 0
-2761 -2759 0
-2755 2631 0
-2761 -2755 2632 0
-2756 2632 0
-2761 -2756 0
-2755 -2758 2632 0
-2761 -2755 -2758 0
-2755 -2759 0
-2761 -2755 -2759 0
-2756 -2758 0
-2761 -2756 -2758 0
-2756 -2759 0
-2761 -2756 -2759 0
-2767 2760 2768 0
-2764 2760 2768 0
-2764 -2767 2768 0
-2768 2758 0
-2765 2758 0
-2768 -2765 2759 0
-2766 2759 0
-2768 -2766 0
-2762 2758 0
-2768 -2762 2759 0
-2763 2759 0
-2768 -2763 0
-2762 -2765 2759 0
-2768 -2762 -2765 0
-2762 -2766 0
-2768 -2762 -2766 0
-2763 -2765 0
-2768 -2763 -2765 0
-2763 -2766 0
-2768 -2763 -2766 0
-2774 2767 2775 0
-2771 2767 2775 0
-2771 -2774 2775 0
-2775 2765 0
-2772 2765 0
-2775 -2772 2766 0
-2773 2766 0
-2775 -2773 0
-2769 2765 0
-2775 -2769 2766 0
-2770 2766 0
-2775 -2770 0
-2769 -2772 2766 0
-2775 -2769 -2772 0
-2769 -2773 0
-2775 -2769 -2773 0
-2770 -2772 0
-2775 -2770 -2772 0
-2770 -2773 0
-2775 -2770 -2773 0
-2779 2774 2780 0
-2777 2774 2780 0
-2777 -2779 2780 0
-2780 2772 0
-2778 2772 0
-2780 -2778 2773 0
-2776 2772 0
-2780 -2776 2773 0
-2776 -2778 2773 0
-2780 -2776 -2778 0
-37 2779 2781 0
-36 2779 2781 0
-36 -37 2781 0
-2781 2778 0
-35 2777 2782 0
-34 2777 2782 0
-34 -35 2782 0
-2782 2776 0
-2786 2771 2787 0
-2784 2771 2787 0
-2784 -2786 2787 0
-2787 2769 0
-2785 2769 0
-2787 -2785 2770 0
-2783 2769 0
-2787 -2783 2770 0
-2783 -2785 2770 0
-2787 -2783 -2785 0
-33 2786 2788 0
-32 2786 2788 0
-32 -33 2788 0
-2788 2785 0
-31 2784 2791 0
-2790 2784 2791 0
-2790 -31 2791 0
-2791 2783 0
-2789 2783 0
-2791 -2789 0
-30 2790 2792 0
-29 2790 2792 0
-29 -30 2792 0
-2792 2789 0
-2798 2764 2799 0
-2795 2764 2799 0
-2795 -2798 2799 0
-2799 2762 0
-2796 2762 0
-2799 -2796 2763 0
-2797 2763 0
-2799 -2797 0
-2793 2762 0
-2799 -2793 2763 0
-2794 2763 0
-2799 -2794 0
-2793 -2796 2763 0
-2799 -2793 -2796 0
-2793 -2797 0
-2799 -2793 -2797 0
-2794 -2796 0
-2799 -2794 -2796 0
-2794 -2797 0
-2799 -2794 -2797 0
-2803 2798 2804 0
-2801 2798 2804 0
-2801 -2803 2804 0
-2804 2796 0
-2802 2796 0
-2804 -2802 2797 0
-2800 2796 0
-2804 -2800 2797 0
-2800 -2802 2797 0
-2804 -2800 -2802 0
-28 2803 2805 0
-27 2803 2805 0
-27 -28 2805 0
-2805 2802 0
-26 2801 2806 0
-25 2801 2806 0
-25 -26 2806 0
-2806 2800 0
-2810 2795 2811 0
-2808 2795 2811 0
-2808 -2810 2811 0
-2811 2793 0
-2809 2793 0
-2811 -2809 2794 0
-2807 2793 0
-2811 -2807 2794 0
-2807 -2809 2794 0
-2811 -2807 -2809 0
-24 2810 2812 0
-23 2810 2812 0
-23 -24 2812 0
-2812 2809 0
-22 2808 2815 0
-2814 2808 2815 0
-2814 -22 2815 0
-2815 2807 0
-2813 2807 0
-2815 -2813 0
-21 2814 2816 0
-20 2814 2816 0
-20 -21 2816 0
-2816 2813 0
-2822 2757 2823 0
-2819 2757 2823 0
-2819 -2822 2823 0
-2823 2755 0
-2820 2755 0
-2823 -2820 2756 0
-2821 2756 0
-2823 -2821 0
-2817 2755 0
-2823 -2817 2756 0
-2818 2756 0
-2823 -2818 0
-2817 -2820 2756 0
-2823 -2817 -2820 0
-2817 -2821 0
-2823 -2817 -2821 0
-2818 -2820 0
-2823 -2818 -2820 0
-2818 -2821 0
-2823 -2818 -2821 0
-2829 2822 2830 0
-2826 2822 2830 0
-2826 -2829 2830 0
-2830 2820 0
-2827 2820 0
-2830 -2827 2821 0
-2828 2821 0
-2830 -2828 0
-2824 2820 0
-2830 -2824 2821 0
-2825 2821 0
-2830 -2825 0
-2824 -2827 2821 0
-2830 -2824 -2827 0
-2824 -2828 0
-2830 -2824 -2828 0
-2825 -2827 0
-2830 -2825 -2827 0
-2825 -2828 0
-2830 -2825 -2828 0
-2834 2829 2835 0
-2832 2829 2835 0
-2832 -2834 2835 0
-2835 2827 0
-2833 2827 0
-2835 -2833 2828 0
-2831 2827 0
-2835 -2831 2828 0
-2831 -2833 2828 0
-2835 -2831 -2833 0
-19 2834 2836 0
-18 2834 2836 0
-18 -19 2836 0
-2836 2833 0
-17 2832 2837 0
-16 2832 2837 0
-16 -17 2837 0
-2837 2831 0
-2841 2826 2842 0
-2839 2826 2842 0
-2839 -2841 2842 0
-2842 2824 0
-2840 2824 0
-2842 -2840 2825 0
-2838 2824 0
-2842 -2838 2825 0
-2838 -2840 2825 0
-2842 -2838 -2840 0
-15 2841 2843 0
-14 2841 2843 0
-14 -15 2843 0
-2843 2840 0
-13 2839 2846 0
-2845 2839 2846 0
-2845 -13 2846 0
-2846 2838 0
-2844 2838 0
-2846 -2844 0
-12 2845 2847 0
-11 2845 2847 0
-11 -12 2847 0
-2847 2844 0
-2853 2819 2854 0
-2850 2819 2854 0
-2850 -2853 2854 0
-2854 2817 0
-2851 2817 0
-2854 -2851 2818 0
-2852 2818 0
-2854 -2852 0
-2848 2817 0
-2854 -2848 2818 0
-2849 2818 0
-2854 -2849 0
-2848 -2851 2818 0
-2854 -2848 -2851 0
-2848 -2852 0
-2854 -2848 -2852 0
-2849 -2851 0
-2854 -2849 -2851 0
-2849 -2852 0
-2854 -2849 -2852 0
-2858 2853 2859 0
-2856 2853 2859 0
-2856 -2858 2859 0
-2859 2851 0
-2857 2851 0
-2859 -2857 2852 0
-2855 2851 0
-2859 -2855 2852 0
-2855 -2857 2852 0
-2859 -2855 -2857 0
-10 2858 2860 0
-9 2858 2860 0
-9 -10 2860 0
-2860 2857 0
-8 2856 2863 0
-2862 2856 2863 0
-2862 -8 2863 0
-2863 2855 0
-2861 2855 0
-2863 -2861 0
-7 2862 2864 0
-6 2862 2864 0
-6 -7 2864 0
-2864 2861 0
-2868 2850 2869 0
-2866 2850 2869 0
-2866 -2868 2869 0
-2869 2848 0
-2867 2848 0
-2869 -2867 2849 0
-2865 2848 0
-2869 -2865 2849 0
-2865 -2867 2849 0
-2869 -2865 -2867 0
-5 2868 2870 0
-4 2868 2870 0
-4 -5 2870 0
-2870 2867 0
-3 2866 2873 0
-2872 2866 2873 0
-2872 -3 2873 0
-2873 2865 0
-2871 2865 0
-2873 -2871 0
-2 2872 2874 0
-1 2872 2874 0
-1 -2 2874 0
-2874 2871 0
