p cnf 4004 12660
1 192 -397 0
-1 -192 -397 0
1 -192 397 0
-1 192 397 0
397 193 -398 0
-397 -193 -398 0
397 -193 398 0
-397 193 398 0
398 198 -399 0
-398 -198 -399 0
398 -198 399 0
-398 198 399 0
399 199 -400 0
-399 -199 -400 0
399 -199 400 0
-399 199 400 0
400 367 -401 0
-400 -367 -401 0
400 -367 401 0
-400 367 401 0
401 379 -402 0
-401 -379 -402 0
401 -379 402 0
-401 379 402 0
402 385 -403 0
-402 -385 -403 0
402 -385 403 0
-402 385 403 0
-403 0
1 2 -404 0
-1 -2 -404 0
1 -2 404 0
-1 2 404 0
404 193 -405 0
-404 -193 -405 0
404 -193 405 0
-404 193 405 0
405 194 -406 0
-405 -194 -406 0
405 -194 406 0
-405 194 406 0
406 200 -407 0
-406 -200 -407 0
406 -200 407 0
-406 200 407 0
407 368 -408 0
-407 -368 -408 0
407 -368 408 0
-407 368 408 0
408 380 -409 0
-408 -380 -409 0
408 -380 409 0
-408 380 409 0
409 386 -410 0
-409 -386 -410 0
409 -386 410 0
-409 386 410 0
-410 0
2 3 -411 0
-2 -3 -411 0
2 -3 411 0
-2 3 411 0
411 194 -412 0
-411 -194 -412 0
411 -194 412 0
-411 194 412 0
412 195 -413 0
-412 -195 -413 0
412 -195 413 0
-412 195 413 0
413 201 -414 0
-413 -201 -414 0
413 -201 414 0
-413 201 414 0
414 369 -415 0
-414 -369 -415 0
414 -369 415 0
-414 369 415 0
415 381 -416 0
-415 -381 -416 0
415 -381 416 0
-415 381 416 0
416 387 -417 0
-416 -387 -417 0
416 -387 417 0
-416 387 417 0
-417 0
3 4 -418 0
-3 -4 -418 0
3 -4 418 0
-3 4 418 0
418 195 -419 0
-418 -195 -419 0
418 -195 419 0
-418 195 419 0
419 196 -420 0
-419 -196 -420 0
419 -196 420 0
-419 196 420 0
420 202 -421 0
-420 -202 -421 0
420 -202 421 0
-420 202 421 0
421 370 -422 0
-421 -370 -422 0
421 -370 422 0
-421 370 422 0
422 382 -423 0
-422 -382 -423 0
422 -382 423 0
-422 382 423 0
423 388 -424 0
-423 -388 -424 0
423 -388 424 0
-423 388 424 0
-424 0
4 5 -425 0
-4 -5 -425 0
4 -5 425 0
-4 5 425 0
425 196 -426 0
-425 -196 -426 0
425 -196 426 0
-425 196 426 0
426 197 -427 0
-426 -197 -427 0
426 -197 427 0
-426 197 427 0
427 203 -428 0
-427 -203 -428 0
427 -203 428 0
-427 203 428 0
428 371 -429 0
-428 -371 -429 0
428 -371 429 0
-428 371 429 0
429 383 -430 0
-429 -383 -430 0
429 -383 430 0
-429 383 430 0
430 389 -431 0
-430 -389 -431 0
430 -389 431 0
-430 389 431 0
-431 0
5 6 -432 0
-5 -6 -432 0
5 -6 432 0
-5 6 432 0
432 197 -433 0
-432 -197 -433 0
432 -197 433 0
-432 197 433 0
433 198 -434 0
-433 -198 -434 0
433 -198 434 0
-433 198 434 0
434 204 -435 0
-434 -204 -435 0
434 -204 435 0
-434 204 435 0
435 372 -436 0
-435 -372 -436 0
435 -372 436 0
-435 372 436 0
436 384 -437 0
-436 -384 -437 0
436 -384 437 0
-436 384 437 0
437 390 -438 0
-437 -390 -438 0
437 -390 438 0
-437 390 438 0
-438 0
1 6 -439 0
-1 -6 -439 0
1 -6 439 0
-1 6 439 0
439 7 -440 0
-439 -7 -440 0
439 -7 440 0
-439 7 440 0
440 198 -441 0
-440 -198 -441 0
440 -198 441 0
-440 198 441 0
441 205 -442 0
-441 -205 -442 0
441 -205 442 0
-441 205 442 0
442 373 -443 0
-442 -373 -443 0
442 -373 443 0
-442 373 443 0
443 385 -444 0
-443 -385 -444 0
443 -385 444 0
-443 385 444 0
444 391 -445 0
-444 -391 -445 0
444 -391 445 0
-444 391 445 0
-445 0
1 2 -446 0
-1 -2 -446 0
1 -2 446 0
-1 2 446 0
446 7 -447 0
-446 -7 -447 0
446 -7 447 0
-446 7 447 0
447 8 -448 0
-447 -8 -448 0
447 -8 448 0
-447 8 448 0
448 206 -449 0
-448 -206 -449 0
448 -206 449 0
-448 206 449 0
449 374 -450 0
-449 -374 -450 0
449 -374 450 0
-449 374 450 0
450 386 -451 0
-450 -386 -451 0
450 -386 451 0
-450 386 451 0
451 392 -452 0
-451 -392 -452 0
451 -392 452 0
-451 392 452 0
-452 0
2 3 -453 0
-2 -3 -453 0
2 -3 453 0
-2 3 453 0
453 8 -454 0
-453 -8 -454 0
453 -8 454 0
-453 8 454 0
454 9 -455 0
-454 -9 -455 0
454 -9 455 0
-454 9 455 0
455 207 -456 0
-455 -207 -456 0
455 -207 456 0
-455 207 456 0
456 375 -457 0
-456 -375 -457 0
456 -375 457 0
-456 375 457 0
457 387 -458 0
-457 -387 -458 0
457 -387 458 0
-457 387 458 0
458 393 -459 0
-458 -393 -459 0
458 -393 459 0
-458 393 459 0
-459 0
3 4 -460 0
-3 -4 -460 0
3 -4 460 0
-3 4 460 0
460 9 -461 0
-460 -9 -461 0
460 -9 461 0
-460 9 461 0
461 10 -462 0
-461 -10 -462 0
461 -10 462 0
-461 10 462 0
462 208 -463 0
-462 -208 -463 0
462 -208 463 0
-462 208 463 0
463 376 -464 0
-463 -376 -464 0
463 -376 464 0
-463 376 464 0
464 388 -465 0
-464 -388 -465 0
464 -388 465 0
-464 388 465 0
465 394 -466 0
-465 -394 -466 0
465 -394 466 0
-465 394 466 0
-466 0
4 5 -467 0
-4 -5 -467 0
4 -5 467 0
-4 5 467 0
467 10 -468 0
-467 -10 -468 0
467 -10 468 0
-467 10 468 0
468 11 -469 0
-468 -11 -469 0
468 -11 469 0
-468 11 469 0
469 209 -470 0
-469 -209 -470 0
469 -209 470 0
-469 209 470 0
470 377 -471 0
-470 -377 -471 0
470 -377 471 0
-470 377 471 0
471 389 -472 0
-471 -389 -472 0
471 -389 472 0
-471 389 472 0
472 395 -473 0
-472 -395 -473 0
472 -395 473 0
-472 395 473 0
-473 0
5 6 -474 0
-5 -6 -474 0
5 -6 474 0
-5 6 474 0
474 11 -475 0
-474 -11 -475 0
474 -11 475 0
-474 11 475 0
475 12 -476 0
-475 -12 -476 0
475 -12 476 0
-475 12 476 0
476 210 -477 0
-476 -210 -477 0
476 -210 477 0
-476 210 477 0
477 378 -478 0
-477 -378 -478 0
477 -378 478 0
-477 378 478 0
478 390 -479 0
-478 -390 -479 0
478 -390 479 0
-478 390 479 0
479 396 -480 0
-479 -396 -480 0
479 -396 480 0
-479 396 480 0
-480 0
6 7 -481 0
-6 -7 -481 0
6 -7 481 0
-6 7 481 0
481 12 -482 0
-481 -12 -482 0
481 -12 482 0
-481 12 482 0
482 13 -483 0
-482 -13 -483 0
482 -13 483 0
-482 13 483 0
483 199 -484 0
-483 -199 -484 0
483 -199 484 0
-483 199 484 0
484 211 -485 0
-484 -211 -485 0
484 -211 485 0
-484 211 485 0
485 379 -486 0
-485 -379 -486 0
485 -379 486 0
-485 379 486 0
486 391 -487 0
-486 -391 -487 0
486 -391 487 0
-486 391 487 0
-487 0
7 8 -488 0
-7 -8 -488 0
7 -8 488 0
-7 8 488 0
488 13 -489 0
-488 -13 -489 0
488 -13 489 0
-488 13 489 0
489 14 -490 0
-489 -14 -490 0
489 -14 490 0
-489 14 490 0
490 200 -491 0
-490 -200 -491 0
490 -200 491 0
-490 200 491 0
491 212 -492 0
-491 -212 -492 0
491 -212 492 0
-491 212 492 0
492 380 -493 0
-492 -380 -493 0
492 -380 493 0
-492 380 493 0
493 392 -494 0
-493 -392 -494 0
493 -392 494 0
-493 392 494 0
-494 0
8 9 -495 0
-8 -9 -495 0
8 -9 495 0
-8 9 495 0
495 14 -496 0
-495 -14 -496 0
495 -14 496 0
-495 14 496 0
496 15 -497 0
-496 -15 -497 0
496 -15 497 0
-496 15 497 0
497 201 -498 0
-497 -201 -498 0
497 -201 498 0
-497 201 498 0
498 213 -499 0
-498 -213 -499 0
498 -213 499 0
-498 213 499 0
499 381 -500 0
-499 -381 -500 0
499 -381 500 0
-499 381 500 0
500 393 -501 0
-500 -393 -501 0
500 -393 501 0
-500 393 501 0
-501 0
9 10 -502 0
-9 -10 -502 0
9 -10 502 0
-9 10 502 0
502 15 -503 0
-502 -15 -503 0
502 -15 503 0
-502 15 503 0
503 16 -504 0
-503 -16 -504 0
503 -16 504 0
-503 16 504 0
504 202 -505 0
-504 -202 -505 0
504 -202 505 0
-504 202 505 0
505 214 -506 0
-505 -214 -506 0
505 -214 506 0
-505 214 506 0
506 382 -507 0
-506 -382 -507 0
506 -382 507 0
-506 382 507 0
507 394 -508 0
-507 -394 -508 0
507 -394 508 0
-507 394 508 0
-508 0
10 11 -509 0
-10 -11 -509 0
10 -11 509 0
-10 11 509 0
509 16 -510 0
-509 -16 -510 0
509 -16 510 0
-509 16 510 0
510 17 -511 0
-510 -17 -511 0
510 -17 511 0
-510 17 511 0
511 203 -512 0
-511 -203 -512 0
511 -203 512 0
-511 203 512 0
512 215 -513 0
-512 -215 -513 0
512 -215 513 0
-512 215 513 0
513 383 -514 0
-513 -383 -514 0
513 -383 514 0
-513 383 514 0
514 395 -515 0
-514 -395 -515 0
514 -395 515 0
-514 395 515 0
-515 0
11 12 -516 0
-11 -12 -516 0
11 -12 516 0
-11 12 516 0
516 17 -517 0
-516 -17 -517 0
516 -17 517 0
-516 17 517 0
517 18 -518 0
-517 -18 -518 0
517 -18 518 0
-517 18 518 0
518 204 -519 0
-518 -204 -519 0
518 -204 519 0
-518 204 519 0
519 216 -520 0
-519 -216 -520 0
519 -216 520 0
-519 216 520 0
520 384 -521 0
-520 -384 -521 0
520 -384 521 0
-520 384 521 0
521 396 -522 0
-521 -396 -522 0
521 -396 522 0
-521 396 522 0
-522 0
12 13 -523 0
-12 -13 -523 0
12 -13 523 0
-12 13 523 0
523 18 -524 0
-523 -18 -524 0
523 -18 524 0
-523 18 524 0
524 19 -525 0
-524 -19 -525 0
524 -19 525 0
-524 19 525 0
525 199 -526 0
-525 -199 -526 0
525 -199 526 0
-525 199 526 0
526 205 -527 0
-526 -205 -527 0
526 -205 527 0
-526 205 527 0
527 217 -528 0
-527 -217 -528 0
527 -217 528 0
-527 217 528 0
528 385 -529 0
-528 -385 -529 0
528 -385 529 0
-528 385 529 0
-529 0
13 14 -530 0
-13 -14 -530 0
13 -14 530 0
-13 14 530 0
530 19 -531 0
-530 -19 -531 0
530 -19 531 0
-530 19 531 0
531 20 -532 0
-531 -20 -532 0
531 -20 532 0
-531 20 532 0
532 200 -533 0
-532 -200 -533 0
532 -200 533 0
-532 200 533 0
533 206 -534 0
-533 -206 -534 0
533 -206 534 0
-533 206 534 0
534 218 -535 0
-534 -218 -535 0
534 -218 535 0
-534 218 535 0
535 386 -536 0
-535 -386 -536 0
535 -386 536 0
-535 386 536 0
-536 0
14 15 -537 0
-14 -15 -537 0
14 -15 537 0
-14 15 537 0
537 20 -538 0
-537 -20 -538 0
537 -20 538 0
-537 20 538 0
538 21 -539 0
-538 -21 -539 0
538 -21 539 0
-538 21 539 0
539 201 -540 0
-539 -201 -540 0
539 -201 540 0
-539 201 540 0
540 207 -541 0
-540 -207 -541 0
540 -207 541 0
-540 207 541 0
541 219 -542 0
-541 -219 -542 0
541 -219 542 0
-541 219 542 0
542 387 -543 0
-542 -387 -543 0
542 -387 543 0
-542 387 543 0
-543 0
15 16 -544 0
-15 -16 -544 0
15 -16 544 0
-15 16 544 0
544 21 -545 0
-544 -21 -545 0
544 -21 545 0
-544 21 545 0
545 22 -546 0
-545 -22 -546 0
545 -22 546 0
-545 22 546 0
546 202 -547 0
-546 -202 -547 0
546 -202 547 0
-546 202 547 0
547 208 -548 0
-547 -208 -548 0
547 -208 548 0
-547 208 548 0
548 220 -549 0
-548 -220 -549 0
548 -220 549 0
-548 220 549 0
549 388 -550 0
-549 -388 -550 0
549 -388 550 0
-549 388 550 0
-550 0
16 17 -551 0
-16 -17 -551 0
16 -17 551 0
-16 17 551 0
551 22 -552 0
-551 -22 -552 0
551 -22 552 0
-551 22 552 0
552 23 -553 0
-552 -23 -553 0
552 -23 553 0
-552 23 553 0
553 203 -554 0
-553 -203 -554 0
553 -203 554 0
-553 203 554 0
554 209 -555 0
-554 -209 -555 0
554 -209 555 0
-554 209 555 0
555 221 -556 0
-555 -221 -556 0
555 -221 556 0
-555 221 556 0
556 389 -557 0
-556 -389 -557 0
556 -389 557 0
-556 389 557 0
-557 0
17 18 -558 0
-17 -18 -558 0
17 -18 558 0
-17 18 558 0
558 23 -559 0
-558 -23 -559 0
558 -23 559 0
-558 23 559 0
559 24 -560 0
-559 -24 -560 0
559 -24 560 0
-559 24 560 0
560 204 -561 0
-560 -204 -561 0
560 -204 561 0
-560 204 561 0
561 210 -562 0
-561 -210 -562 0
561 -210 562 0
-561 210 562 0
562 222 -563 0
-562 -222 -563 0
562 -222 563 0
-562 222 563 0
563 390 -564 0
-563 -390 -564 0
563 -390 564 0
-563 390 564 0
-564 0
18 19 -565 0
-18 -19 -565 0
18 -19 565 0
-18 19 565 0
565 24 -566 0
-565 -24 -566 0
565 -24 566 0
-565 24 566 0
566 25 -567 0
-566 -25 -567 0
566 -25 567 0
-566 25 567 0
567 205 -568 0
-567 -205 -568 0
567 -205 568 0
-567 205 568 0
568 211 -569 0
-568 -211 -569 0
568 -211 569 0
-568 211 569 0
569 223 -570 0
-569 -223 -570 0
569 -223 570 0
-569 223 570 0
570 391 -571 0
-570 -391 -571 0
570 -391 571 0
-570 391 571 0
-571 0
19 20 -572 0
-19 -20 -572 0
19 -20 572 0
-19 20 572 0
572 25 -573 0
-572 -25 -573 0
572 -25 573 0
-572 25 573 0
573 26 -574 0
-573 -26 -574 0
573 -26 574 0
-573 26 574 0
574 206 -575 0
-574 -206 -575 0
574 -206 575 0
-574 206 575 0
575 212 -576 0
-575 -212 -576 0
575 -212 576 0
-575 212 576 0
576 224 -577 0
-576 -224 -577 0
576 -224 577 0
-576 224 577 0
577 392 -578 0
-577 -392 -578 0
577 -392 578 0
-577 392 578 0
-578 0
20 21 -579 0
-20 -21 -579 0
20 -21 579 0
-20 21 579 0
579 26 -580 0
-579 -26 -580 0
579 -26 580 0
-579 26 580 0
580 27 -581 0
-580 -27 -581 0
580 -27 581 0
-580 27 581 0
581 207 -582 0
-581 -207 -582 0
581 -207 582 0
-581 207 582 0
582 213 -583 0
-582 -213 -583 0
582 -213 583 0
-582 213 583 0
583 225 -584 0
-583 -225 -584 0
583 -225 584 0
-583 225 584 0
584 393 -585 0
-584 -393 -585 0
584 -393 585 0
-584 393 585 0
-585 0
21 22 -586 0
-21 -22 -586 0
21 -22 586 0
-21 22 586 0
586 27 -587 0
-586 -27 -587 0
586 -27 587 0
-586 27 587 0
587 28 -588 0
-587 -28 -588 0
587 -28 588 0
-587 28 588 0
588 208 -589 0
-588 -208 -589 0
588 -208 589 0
-588 208 589 0
589 214 -590 0
-589 -214 -590 0
589 -214 590 0
-589 214 590 0
590 226 -591 0
-590 -226 -591 0
590 -226 591 0
-590 226 591 0
591 394 -592 0
-591 -394 -592 0
591 -394 592 0
-591 394 592 0
-592 0
22 23 -593 0
-22 -23 -593 0
22 -23 593 0
-22 23 593 0
593 28 -594 0
-593 -28 -594 0
593 -28 594 0
-593 28 594 0
594 29 -595 0
-594 -29 -595 0
594 -29 595 0
-594 29 595 0
595 209 -596 0
-595 -209 -596 0
595 -209 596 0
-595 209 596 0
596 215 -597 0
-596 -215 -597 0
596 -215 597 0
-596 215 597 0
597 227 -598 0
-597 -227 -598 0
597 -227 598 0
-597 227 598 0
598 395 -599 0
-598 -395 -599 0
598 -395 599 0
-598 395 599 0
-599 0
23 24 -600 0
-23 -24 -600 0
23 -24 600 0
-23 24 600 0
600 29 -601 0
-600 -29 -601 0
600 -29 601 0
-600 29 601 0
601 30 -602 0
-601 -30 -602 0
601 -30 602 0
-601 30 602 0
602 210 -603 0
-602 -210 -603 0
602 -210 603 0
-602 210 603 0
603 216 -604 0
-603 -216 -604 0
603 -216 604 0
-603 216 604 0
604 228 -605 0
-604 -228 -605 0
604 -228 605 0
-604 228 605 0
605 396 -606 0
-605 -396 -606 0
605 -396 606 0
-605 396 606 0
-606 0
24 25 -607 0
-24 -25 -607 0
24 -25 607 0
-24 25 607 0
607 30 -608 0
-607 -30 -608 0
607 -30 608 0
-607 30 608 0
608 31 -609 0
-608 -31 -609 0
608 -31 609 0
-608 31 609 0
609 199 -610 0
-609 -199 -610 0
609 -199 610 0
-609 199 610 0
610 211 -611 0
-610 -211 -611 0
610 -211 611 0
-610 211 611 0
611 217 -612 0
-611 -217 -612 0
611 -217 612 0
-611 217 612 0
612 229 -613 0
-612 -229 -613 0
612 -229 613 0
-612 229 613 0
-613 0
25 26 -614 0
-25 -26 -614 0
25 -26 614 0
-25 26 614 0
614 31 -615 0
-614 -31 -615 0
614 -31 615 0
-614 31 615 0
615 32 -616 0
-615 -32 -616 0
615 -32 616 0
-615 32 616 0
616 200 -617 0
-616 -200 -617 0
616 -200 617 0
-616 200 617 0
617 212 -618 0
-617 -212 -618 0
617 -212 618 0
-617 212 618 0
618 218 -619 0
-618 -218 -619 0
618 -218 619 0
-618 218 619 0
619 230 -620 0
-619 -230 -620 0
619 -230 620 0
-619 230 620 0
-620 0
26 27 -621 0
-26 -27 -621 0
26 -27 621 0
-26 27 621 0
621 32 -622 0
-621 -32 -622 0
621 -32 622 0
-621 32 622 0
622 33 -623 0
-622 -33 -623 0
622 -33 623 0
-622 33 623 0
623 201 -624 0
-623 -201 -624 0
623 -201 624 0
-623 201 624 0
624 213 -625 0
-624 -213 -625 0
624 -213 625 0
-624 213 625 0
625 219 -626 0
-625 -219 -626 0
625 -219 626 0
-625 219 626 0
626 231 -627 0
-626 -231 -627 0
626 -231 627 0
-626 231 627 0
-627 0
27 28 -628 0
-27 -28 -628 0
27 -28 628 0
-27 28 628 0
628 33 -629 0
-628 -33 -629 0
628 -33 629 0
-628 33 629 0
629 34 -630 0
-629 -34 -630 0
629 -34 630 0
-629 34 630 0
630 202 -631 0
-630 -202 -631 0
630 -202 631 0
-630 202 631 0
631 214 -632 0
-631 -214 -632 0
631 -214 632 0
-631 214 632 0
632 220 -633 0
-632 -220 -633 0
632 -220 633 0
-632 220 633 0
633 232 -634 0
-633 -232 -634 0
633 -232 634 0
-633 232 634 0
-634 0
28 29 -635 0
-28 -29 -635 0
28 -29 635 0
-28 29 635 0
635 34 -636 0
-635 -34 -636 0
635 -34 636 0
-635 34 636 0
636 35 -637 0
-636 -35 -637 0
636 -35 637 0
-636 35 637 0
637 203 -638 0
-637 -203 -638 0
637 -203 638 0
-637 203 638 0
638 215 -639 0
-638 -215 -639 0
638 -215 639 0
-638 215 639 0
639 221 -640 0
-639 -221 -640 0
639 -221 640 0
-639 221 640 0
640 233 -641 0
-640 -233 -641 0
640 -233 641 0
-640 233 641 0
-641 0
29 30 -642 0
-29 -30 -642 0
29 -30 642 0
-29 30 642 0
642 35 -643 0
-642 -35 -643 0
642 -35 643 0
-642 35 643 0
643 36 -644 0
-643 -36 -644 0
643 -36 644 0
-643 36 644 0
644 204 -645 0
-644 -204 -645 0
644 -204 645 0
-644 204 645 0
645 216 -646 0
-645 -216 -646 0
645 -216 646 0
-645 216 646 0
646 222 -647 0
-646 -222 -647 0
646 -222 647 0
-646 222 647 0
647 234 -648 0
-647 -234 -648 0
647 -234 648 0
-647 234 648 0
-648 0
30 31 -649 0
-30 -31 -649 0
30 -31 649 0
-30 31 649 0
649 36 -650 0
-649 -36 -650 0
649 -36 650 0
-649 36 650 0
650 37 -651 0
-650 -37 -651 0
650 -37 651 0
-650 37 651 0
651 205 -652 0
-651 -205 -652 0
651 -205 652 0
-651 205 652 0
652 217 -653 0
-652 -217 -653 0
652 -217 653 0
-652 217 653 0
653 223 -654 0
-653 -223 -654 0
653 -223 654 0
-653 223 654 0
654 235 -655 0
-654 -235 -655 0
654 -235 655 0
-654 235 655 0
-655 0
31 32 -656 0
-31 -32 -656 0
31 -32 656 0
-31 32 656 0
656 37 -657 0
-656 -37 -657 0
656 -37 657 0
-656 37 657 0
657 38 -658 0
-657 -38 -658 0
657 -38 658 0
-657 38 658 0
658 206 -659 0
-658 -206 -659 0
658 -206 659 0
-658 206 659 0
659 218 -660 0
-659 -218 -660 0
659 -218 660 0
-659 218 660 0
660 224 -661 0
-660 -224 -661 0
660 -224 661 0
-660 224 661 0
661 236 -662 0
-661 -236 -662 0
661 -236 662 0
-661 236 662 0
-662 0
32 33 -663 0
-32 -33 -663 0
32 -33 663 0
-32 33 663 0
663 38 -664 0
-663 -38 -664 0
663 -38 664 0
-663 38 664 0
664 39 -665 0
-664 -39 -665 0
664 -39 665 0
-664 39 665 0
665 207 -666 0
-665 -207 -666 0
665 -207 666 0
-665 207 666 0
666 219 -667 0
-666 -219 -667 0
666 -219 667 0
-666 219 667 0
667 225 -668 0
-667 -225 -668 0
667 -225 668 0
-667 225 668 0
668 237 -669 0
-668 -237 -669 0
668 -237 669 0
-668 237 669 0
-669 0
33 34 -670 0
-33 -34 -670 0
33 -34 670 0
-33 34 670 0
670 39 -671 0
-670 -39 -671 0
670 -39 671 0
-670 39 671 0
671 40 -672 0
-671 -40 -672 0
671 -40 672 0
-671 40 672 0
672 208 -673 0
-672 -208 -673 0
672 -208 673 0
-672 208 673 0
673 220 -674 0
-673 -220 -674 0
673 -220 674 0
-673 220 674 0
674 226 -675 0
-674 -226 -675 0
674 -226 675 0
-674 226 675 0
675 238 -676 0
-675 -238 -676 0
675 -238 676 0
-675 238 676 0
-676 0
34 35 -677 0
-34 -35 -677 0
34 -35 677 0
-34 35 677 0
677 40 -678 0
-677 -40 -678 0
677 -40 678 0
-677 40 678 0
678 41 -679 0
-678 -41 -679 0
678 -41 679 0
-678 41 679 0
679 209 -680 0
-679 -209 -680 0
679 -209 680 0
-679 209 680 0
680 221 -681 0
-680 -221 -681 0
680 -221 681 0
-680 221 681 0
681 227 -682 0
-681 -227 -682 0
681 -227 682 0
-681 227 682 0
682 239 -683 0
-682 -239 -683 0
682 -239 683 0
-682 239 683 0
-683 0
35 36 -684 0
-35 -36 -684 0
35 -36 684 0
-35 36 684 0
684 41 -685 0
-684 -41 -685 0
684 -41 685 0
-684 41 685 0
685 42 -686 0
-685 -42 -686 0
685 -42 686 0
-685 42 686 0
686 210 -687 0
-686 -210 -687 0
686 -210 687 0
-686 210 687 0
687 222 -688 0
-687 -222 -688 0
687 -222 688 0
-687 222 688 0
688 228 -689 0
-688 -228 -689 0
688 -228 689 0
-688 228 689 0
689 240 -690 0
-689 -240 -690 0
689 -240 690 0
-689 240 690 0
-690 0
36 37 -691 0
-36 -37 -691 0
36 -37 691 0
-36 37 691 0
691 42 -692 0
-691 -42 -692 0
691 -42 692 0
-691 42 692 0
692 43 -693 0
-692 -43 -693 0
692 -43 693 0
-692 43 693 0
693 211 -694 0
-693 -211 -694 0
693 -211 694 0
-693 211 694 0
694 223 -695 0
-694 -223 -695 0
694 -223 695 0
-694 223 695 0
695 229 -696 0
-695 -229 -696 0
695 -229 696 0
-695 229 696 0
696 241 -697 0
-696 -241 -697 0
696 -241 697 0
-696 241 697 0
-697 0
37 38 -698 0
-37 -38 -698 0
37 -38 698 0
-37 38 698 0
698 43 -699 0
-698 -43 -699 0
698 -43 699 0
-698 43 699 0
699 44 -700 0
-699 -44 -700 0
699 -44 700 0
-699 44 700 0
700 212 -701 0
-700 -212 -701 0
700 -212 701 0
-700 212 701 0
701 224 -702 0
-701 -224 -702 0
701 -224 702 0
-701 224 702 0
702 230 -703 0
-702 -230 -703 0
702 -230 703 0
-702 230 703 0
703 242 -704 0
-703 -242 -704 0
703 -242 704 0
-703 242 704 0
-704 0
38 39 -705 0
-38 -39 -705 0
38 -39 705 0
-38 39 705 0
705 44 -706 0
-705 -44 -706 0
705 -44 706 0
-705 44 706 0
706 45 -707 0
-706 -45 -707 0
706 -45 707 0
-706 45 707 0
707 213 -708 0
-707 -213 -708 0
707 -213 708 0
-707 213 708 0
708 225 -709 0
-708 -225 -709 0
708 -225 709 0
-708 225 709 0
709 231 -710 0
-709 -231 -710 0
709 -231 710 0
-709 231 710 0
710 243 -711 0
-710 -243 -711 0
710 -243 711 0
-710 243 711 0
-711 0
39 40 -712 0
-39 -40 -712 0
39 -40 712 0
-39 40 712 0
712 45 -713 0
-712 -45 -713 0
712 -45 713 0
-712 45 713 0
713 46 -714 0
-713 -46 -714 0
713 -46 714 0
-713 46 714 0
714 214 -715 0
-714 -214 -715 0
714 -214 715 0
-714 214 715 0
715 226 -716 0
-715 -226 -716 0
715 -226 716 0
-715 226 716 0
716 232 -717 0
-716 -232 -717 0
716 -232 717 0
-716 232 717 0
717 244 -718 0
-717 -244 -718 0
717 -244 718 0
-717 244 718 0
-718 0
40 41 -719 0
-40 -41 -719 0
40 -41 719 0
-40 41 719 0
719 46 -720 0
-719 -46 -720 0
719 -46 720 0
-719 46 720 0
720 47 -721 0
-720 -47 -721 0
720 -47 721 0
-720 47 721 0
721 215 -722 0
-721 -215 -722 0
721 -215 722 0
-721 215 722 0
722 227 -723 0
-722 -227 -723 0
722 -227 723 0
-722 227 723 0
723 233 -724 0
-723 -233 -724 0
723 -233 724 0
-723 233 724 0
724 245 -725 0
-724 -245 -725 0
724 -245 725 0
-724 245 725 0
-725 0
41 42 -726 0
-41 -42 -726 0
41 -42 726 0
-41 42 726 0
726 47 -727 0
-726 -47 -727 0
726 -47 727 0
-726 47 727 0
727 48 -728 0
-727 -48 -728 0
727 -48 728 0
-727 48 728 0
728 216 -729 0
-728 -216 -729 0
728 -216 729 0
-728 216 729 0
729 228 -730 0
-729 -228 -730 0
729 -228 730 0
-729 228 730 0
730 234 -731 0
-730 -234 -731 0
730 -234 731 0
-730 234 731 0
731 246 -732 0
-731 -246 -732 0
731 -246 732 0
-731 246 732 0
-732 0
42 43 -733 0
-42 -43 -733 0
42 -43 733 0
-42 43 733 0
733 48 -734 0
-733 -48 -734 0
733 -48 734 0
-733 48 734 0
734 49 -735 0
-734 -49 -735 0
734 -49 735 0
-734 49 735 0
735 217 -736 0
-735 -217 -736 0
735 -217 736 0
-735 217 736 0
736 229 -737 0
-736 -229 -737 0
736 -229 737 0
-736 229 737 0
737 235 -738 0
-737 -235 -738 0
737 -235 738 0
-737 235 738 0
738 247 -739 0
-738 -247 -739 0
738 -247 739 0
-738 247 739 0
-739 0
43 44 -740 0
-43 -44 -740 0
43 -44 740 0
-43 44 740 0
740 49 -741 0
-740 -49 -741 0
740 -49 741 0
-740 49 741 0
741 50 -742 0
-741 -50 -742 0
741 -50 742 0
-741 50 742 0
742 218 -743 0
-742 -218 -743 0
742 -218 743 0
-742 218 743 0
743 230 -744 0
-743 -230 -744 0
743 -230 744 0
-743 230 744 0
744 236 -745 0
-744 -236 -745 0
744 -236 745 0
-744 236 745 0
745 248 -746 0
-745 -248 -746 0
745 -248 746 0
-745 248 746 0
-746 0
44 45 -747 0
-44 -45 -747 0
44 -45 747 0
-44 45 747 0
747 50 -748 0
-747 -50 -748 0
747 -50 748 0
-747 50 748 0
748 51 -749 0
-748 -51 -749 0
748 -51 749 0
-748 51 749 0
749 219 -750 0
-749 -219 -750 0
749 -219 750 0
-749 219 750 0
750 231 -751 0
-750 -231 -751 0
750 -231 751 0
-750 231 751 0
751 237 -752 0
-751 -237 -752 0
751 -237 752 0
-751 237 752 0
752 249 -753 0
-752 -249 -753 0
752 -249 753 0
-752 249 753 0
-753 0
45 46 -754 0
-45 -46 -754 0
45 -46 754 0
-45 46 754 0
754 51 -755 0
-754 -51 -755 0
754 -51 755 0
-754 51 755 0
755 52 -756 0
-755 -52 -756 0
755 -52 756 0
-755 52 756 0
756 220 -757 0
-756 -220 -757 0
756 -220 757 0
-756 220 757 0
757 232 -758 0
-757 -232 -758 0
757 -232 758 0
-757 232 758 0
758 238 -759 0
-758 -238 -759 0
758 -238 759 0
-758 238 759 0
759 250 -760 0
-759 -250 -760 0
759 -250 760 0
-759 250 760 0
-760 0
46 47 -761 0
-46 -47 -761 0
46 -47 761 0
-46 47 761 0
761 52 -762 0
-761 -52 -762 0
761 -52 762 0
-761 52 762 0
762 53 -763 0
-762 -53 -763 0
762 -53 763 0
-762 53 763 0
763 221 -764 0
-763 -221 -764 0
763 -221 764 0
-763 221 764 0
764 233 -765 0
-764 -233 -765 0
764 -233 765 0
-764 233 765 0
765 239 -766 0
-765 -239 -766 0
765 -239 766 0
-765 239 766 0
766 251 -767 0
-766 -251 -767 0
766 -251 767 0
-766 251 767 0
-767 0
47 48 -768 0
-47 -48 -768 0
47 -48 768 0
-47 48 768 0
768 53 -769 0
-768 -53 -769 0
768 -53 769 0
-768 53 769 0
769 54 -770 0
-769 -54 -770 0
769 -54 770 0
-769 54 770 0
770 222 -771 0
-770 -222 -771 0
770 -222 771 0
-770 222 771 0
771 234 -772 0
-771 -234 -772 0
771 -234 772 0
-771 234 772 0
772 240 -773 0
-772 -240 -773 0
772 -240 773 0
-772 240 773 0
773 252 -774 0
-773 -252 -774 0
773 -252 774 0
-773 252 774 0
-774 0
48 49 -775 0
-48 -49 -775 0
48 -49 775 0
-48 49 775 0
775 54 -776 0
-775 -54 -776 0
775 -54 776 0
-775 54 776 0
776 55 -777 0
-776 -55 -777 0
776 -55 777 0
-776 55 777 0
777 223 -778 0
-777 -223 -778 0
777 -223 778 0
-777 223 778 0
778 235 -779 0
-778 -235 -779 0
778 -235 779 0
-778 235 779 0
779 241 -780 0
-779 -241 -780 0
779 -241 780 0
-779 241 780 0
780 253 -781 0
-780 -253 -781 0
780 -253 781 0
-780 253 781 0
-781 0
49 50 -782 0
-49 -50 -782 0
49 -50 782 0
-49 50 782 0
782 55 -783 0
-782 -55 -783 0
782 -55 783 0
-782 55 783 0
783 56 -784 0
-783 -56 -784 0
783 -56 784 0
-783 56 784 0
784 224 -785 0
-784 -224 -785 0
784 -224 785 0
-784 224 785 0
785 236 -786 0
-785 -236 -786 0
785 -236 786 0
-785 236 786 0
786 242 -787 0
-786 -242 -787 0
786 -242 787 0
-786 242 787 0
787 254 -788 0
-787 -254 -788 0
787 -254 788 0
-787 254 788 0
-788 0
50 51 -789 0
-50 -51 -789 0
50 -51 789 0
-50 51 789 0
789 56 -790 0
-789 -56 -790 0
789 -56 790 0
-789 56 790 0
790 57 -791 0
-790 -57 -791 0
790 -57 791 0
-790 57 791 0
791 225 -792 0
-791 -225 -792 0
791 -225 792 0
-791 225 792 0
792 237 -793 0
-792 -237 -793 0
792 -237 793 0
-792 237 793 0
793 243 -794 0
-793 -243 -794 0
793 -243 794 0
-793 243 794 0
794 255 -795 0
-794 -255 -795 0
794 -255 795 0
-794 255 795 0
-795 0
51 52 -796 0
-51 -52 -796 0
51 -52 796 0
-51 52 796 0
796 57 -797 0
-796 -57 -797 0
796 -57 797 0
-796 57 797 0
797 58 -798 0
-797 -58 -798 0
797 -58 798 0
-797 58 798 0
798 226 -799 0
-798 -226 -799 0
798 -226 799 0
-798 226 799 0
799 238 -800 0
-799 -238 -800 0
799 -238 800 0
-799 238 800 0
800 244 -801 0
-800 -244 -801 0
800 -244 801 0
-800 244 801 0
801 256 -802 0
-801 -256 -802 0
801 -256 802 0
-801 256 802 0
-802 0
52 53 -803 0
-52 -53 -803 0
52 -53 803 0
-52 53 803 0
803 58 -804 0
-803 -58 -804 0
803 -58 804 0
-803 58 804 0
804 59 -805 0
-804 -59 -805 0
804 -59 805 0
-804 59 805 0
805 227 -806 0
-805 -227 -806 0
805 -227 806 0
-805 227 806 0
806 239 -807 0
-806 -239 -807 0
806 -239 807 0
-806 239 807 0
807 245 -808 0
-807 -245 -808 0
807 -245 808 0
-807 245 808 0
808 257 -809 0
-808 -257 -809 0
808 -257 809 0
-808 257 809 0
-809 0
53 54 -810 0
-53 -54 -810 0
53 -54 810 0
-53 54 810 0
810 59 -811 0
-810 -59 -811 0
810 -59 811 0
-810 59 811 0
811 60 -812 0
-811 -60 -812 0
811 -60 812 0
-811 60 812 0
812 228 -813 0
-812 -228 -813 0
812 -228 813 0
-812 228 813 0
813 240 -814 0
-813 -240 -814 0
813 -240 814 0
-813 240 814 0
814 246 -815 0
-814 -246 -815 0
814 -246 815 0
-814 246 815 0
815 258 -816 0
-815 -258 -816 0
815 -258 816 0
-815 258 816 0
-816 0
54 55 -817 0
-54 -55 -817 0
54 -55 817 0
-54 55 817 0
817 60 -818 0
-817 -60 -818 0
817 -60 818 0
-817 60 818 0
818 61 -819 0
-818 -61 -819 0
818 -61 819 0
-818 61 819 0
819 229 -820 0
-819 -229 -820 0
819 -229 820 0
-819 229 820 0
820 241 -821 0
-820 -241 -821 0
820 -241 821 0
-820 241 821 0
821 247 -822 0
-821 -247 -822 0
821 -247 822 0
-821 247 822 0
822 259 -823 0
-822 -259 -823 0
822 -259 823 0
-822 259 823 0
-823 0
55 56 -824 0
-55 -56 -824 0
55 -56 824 0
-55 56 824 0
824 61 -825 0
-824 -61 -825 0
824 -61 825 0
-824 61 825 0
825 62 -826 0
-825 -62 -826 0
825 -62 826 0
-825 62 826 0
826 230 -827 0
-826 -230 -827 0
826 -230 827 0
-826 230 827 0
827 242 -828 0
-827 -242 -828 0
827 -242 828 0
-827 242 828 0
828 248 -829 0
-828 -248 -829 0
828 -248 829 0
-828 248 829 0
829 260 -830 0
-829 -260 -830 0
829 -260 830 0
-829 260 830 0
-830 0
56 57 -831 0
-56 -57 -831 0
56 -57 831 0
-56 57 831 0
831 62 -832 0
-831 -62 -832 0
831 -62 832 0
-831 62 832 0
832 63 -833 0
-832 -63 -833 0
832 -63 833 0
-832 63 833 0
833 231 -834 0
-833 -231 -834 0
833 -231 834 0
-833 231 834 0
834 243 -835 0
-834 -243 -835 0
834 -243 835 0
-834 243 835 0
835 249 -836 0
-835 -249 -836 0
835 -249 836 0
-835 249 836 0
836 261 -837 0
-836 -261 -837 0
836 -261 837 0
-836 261 837 0
-837 0
57 58 -838 0
-57 -58 -838 0
57 -58 838 0
-57 58 838 0
838 63 -839 0
-838 -63 -839 0
838 -63 839 0
-838 63 839 0
839 64 -840 0
-839 -64 -840 0
839 -64 840 0
-839 64 840 0
840 232 -841 0
-840 -232 -841 0
840 -232 841 0
-840 232 841 0
841 244 -842 0
-841 -244 -842 0
841 -244 842 0
-841 244 842 0
842 250 -843 0
-842 -250 -843 0
842 -250 843 0
-842 250 843 0
843 262 -844 0
-843 -262 -844 0
843 -262 844 0
-843 262 844 0
-844 0
58 59 -845 0
-58 -59 -845 0
58 -59 845 0
-58 59 845 0
845 64 -846 0
-845 -64 -846 0
845 -64 846 0
-845 64 846 0
846 65 -847 0
-846 -65 -847 0
846 -65 847 0
-846 65 847 0
847 233 -848 0
-847 -233 -848 0
847 -233 848 0
-847 233 848 0
848 245 -849 0
-848 -245 -849 0
848 -245 849 0
-848 245 849 0
849 251 -850 0
-849 -251 -850 0
849 -251 850 0
-849 251 850 0
850 263 -851 0
-850 -263 -851 0
850 -263 851 0
-850 263 851 0
-851 0
59 60 -852 0
-59 -60 -852 0
59 -60 852 0
-59 60 852 0
852 65 -853 0
-852 -65 -853 0
852 -65 853 0
-852 65 853 0
853 66 -854 0
-853 -66 -854 0
853 -66 854 0
-853 66 854 0
854 234 -855 0
-854 -234 -855 0
854 -234 855 0
-854 234 855 0
855 246 -856 0
-855 -246 -856 0
855 -246 856 0
-855 246 856 0
856 252 -857 0
-856 -252 -857 0
856 -252 857 0
-856 252 857 0
857 264 -858 0
-857 -264 -858 0
857 -264 858 0
-857 264 858 0
-858 0
60 61 -859 0
-60 -61 -859 0
60 -61 859 0
-60 61 859 0
859 66 -860 0
-859 -66 -860 0
859 -66 860 0
-859 66 860 0
860 67 -861 0
-860 -67 -861 0
860 -67 861 0
-860 67 861 0
861 235 -862 0
-861 -235 -862 0
861 -235 862 0
-861 235 862 0
862 247 -863 0
-862 -247 -863 0
862 -247 863 0
-862 247 863 0
863 253 -864 0
-863 -253 -864 0
863 -253 864 0
-863 253 864 0
864 265 -865 0
-864 -265 -865 0
864 -265 865 0
-864 265 865 0
-865 0
61 62 -866 0
-61 -62 -866 0
61 -62 866 0
-61 62 866 0
866 67 -867 0
-866 -67 -867 0
866 -67 867 0
-866 67 867 0
867 68 -868 0
-867 -68 -868 0
867 -68 868 0
-867 68 868 0
868 236 -869 0
-868 -236 -869 0
868 -236 869 0
-868 236 869 0
869 248 -870 0
-869 -248 -870 0
869 -248 870 0
-869 248 870 0
870 254 -871 0
-870 -254 -871 0
870 -254 871 0
-870 254 871 0
871 266 -872 0
-871 -266 -872 0
871 -266 872 0
-871 266 872 0
-872 0
62 63 -873 0
-62 -63 -873 0
62 -63 873 0
-62 63 873 0
873 68 -874 0
-873 -68 -874 0
873 -68 874 0
-873 68 874 0
874 69 -875 0
-874 -69 -875 0
874 -69 875 0
-874 69 875 0
875 237 -876 0
-875 -237 -876 0
875 -237 876 0
-875 237 876 0
876 249 -877 0
-876 -249 -877 0
876 -249 877 0
-876 249 877 0
877 255 -878 0
-877 -255 -878 0
877 -255 878 0
-877 255 878 0
878 267 -879 0
-878 -267 -879 0
878 -267 879 0
-878 267 879 0
-879 0
63 64 -880 0
-63 -64 -880 0
63 -64 880 0
-63 64 880 0
880 69 -881 0
-880 -69 -881 0
880 -69 881 0
-880 69 881 0
881 70 -882 0
-881 -70 -882 0
881 -70 882 0
-881 70 882 0
882 238 -883 0
-882 -238 -883 0
882 -238 883 0
-882 238 883 0
883 250 -884 0
-883 -250 -884 0
883 -250 884 0
-883 250 884 0
884 256 -885 0
-884 -256 -885 0
884 -256 885 0
-884 256 885 0
885 268 -886 0
-885 -268 -886 0
885 -268 886 0
-885 268 886 0
-886 0
64 65 -887 0
-64 -65 -887 0
64 -65 887 0
-64 65 887 0
887 70 -888 0
-887 -70 -888 0
887 -70 888 0
-887 70 888 0
888 71 -889 0
-888 -71 -889 0
888 -71 889 0
-888 71 889 0
889 239 -890 0
-889 -239 -890 0
889 -239 890 0
-889 239 890 0
890 251 -891 0
-890 -251 -891 0
890 -251 891 0
-890 251 891 0
891 257 -892 0
-891 -257 -892 0
891 -257 892 0
-891 257 892 0
892 269 -893 0
-892 -269 -893 0
892 -269 893 0
-892 269 893 0
-893 0
65 66 -894 0
-65 -66 -894 0
65 -66 894 0
-65 66 894 0
894 71 -895 0
-894 -71 -895 0
894 -71 895 0
-894 71 895 0
895 72 -896 0
-895 -72 -896 0
895 -72 896 0
-895 72 896 0
896 240 -897 0
-896 -240 -897 0
896 -240 897 0
-896 240 897 0
897 252 -898 0
-897 -252 -898 0
897 -252 898 0
-897 252 898 0
898 258 -899 0
-898 -258 -899 0
898 -258 899 0
-898 258 899 0
899 270 -900 0
-899 -270 -900 0
899 -270 900 0
-899 270 900 0
-900 0
66 67 -901 0
-66 -67 -901 0
66 -67 901 0
-66 67 901 0
901 72 -902 0
-901 -72 -902 0
901 -72 902 0
-901 72 902 0
902 73 -903 0
-902 -73 -903 0
902 -73 903 0
-902 73 903 0
903 241 -904 0
-903 -241 -904 0
903 -241 904 0
-903 241 904 0
904 253 -905 0
-904 -253 -905 0
904 -253 905 0
-904 253 905 0
905 259 -906 0
-905 -259 -906 0
905 -259 906 0
-905 259 906 0
906 271 -907 0
-906 -271 -907 0
906 -271 907 0
-906 271 907 0
-907 0
67 68 -908 0
-67 -68 -908 0
67 -68 908 0
-67 68 908 0
908 73 -909 0
-908 -73 -909 0
908 -73 909 0
-908 73 909 0
909 74 -910 0
-909 -74 -910 0
909 -74 910 0
-909 74 910 0
910 242 -911 0
-910 -242 -911 0
910 -242 911 0
-910 242 911 0
911 254 -912 0
-911 -254 -912 0
911 -254 912 0
-911 254 912 0
912 260 -913 0
-912 -260 -913 0
912 -260 913 0
-912 260 913 0
913 272 -914 0
-913 -272 -914 0
913 -272 914 0
-913 272 914 0
-914 0
68 69 -915 0
-68 -69 -915 0
68 -69 915 0
-68 69 915 0
915 74 -916 0
-915 -74 -916 0
915 -74 916 0
-915 74 916 0
916 75 -917 0
-916 -75 -917 0
916 -75 917 0
-916 75 917 0
917 243 -918 0
-917 -243 -918 0
917 -243 918 0
-917 243 918 0
918 255 -919 0
-918 -255 -919 0
918 -255 919 0
-918 255 919 0
919 261 -920 0
-919 -261 -920 0
919 -261 920 0
-919 261 920 0
920 273 -921 0
-920 -273 -921 0
920 -273 921 0
-920 273 921 0
-921 0
69 70 -922 0
-69 -70 -922 0
69 -70 922 0
-69 70 922 0
922 75 -923 0
-922 -75 -923 0
922 -75 923 0
-922 75 923 0
923 76 -924 0
-923 -76 -924 0
923 -76 924 0
-923 76 924 0
924 244 -925 0
-924 -244 -925 0
924 -244 925 0
-924 244 925 0
925 256 -926 0
-925 -256 -926 0
925 -256 926 0
-925 256 926 0
926 262 -927 0
-926 -262 -927 0
926 -262 927 0
-926 262 927 0
927 274 -928 0
-927 -274 -928 0
927 -274 928 0
-927 274 928 0
-928 0
70 71 -929 0
-70 -71 -929 0
70 -71 929 0
-70 71 929 0
929 76 -930 0
-929 -76 -930 0
929 -76 930 0
-929 76 930 0
930 77 -931 0
-930 -77 -931 0
930 -77 931 0
-930 77 931 0
931 245 -932 0
-931 -245 -932 0
931 -245 932 0
-931 245 932 0
932 257 -933 0
-932 -257 -933 0
932 -257 933 0
-932 257 933 0
933 263 -934 0
-933 -263 -934 0
933 -263 934 0
-933 263 934 0
934 275 -935 0
-934 -275 -935 0
934 -275 935 0
-934 275 935 0
-935 0
71 72 -936 0
-71 -72 -936 0
71 -72 936 0
-71 72 936 0
936 77 -937 0
-936 -77 -937 0
936 -77 937 0
-936 77 937 0
937 78 -938 0
-937 -78 -938 0
937 -78 938 0
-937 78 938 0
938 246 -939 0
-938 -246 -939 0
938 -246 939 0
-938 246 939 0
939 258 -940 0
-939 -258 -940 0
939 -258 940 0
-939 258 940 0
940 264 -941 0
-940 -264 -941 0
940 -264 941 0
-940 264 941 0
941 276 -942 0
-941 -276 -942 0
941 -276 942 0
-941 276 942 0
-942 0
72 73 -943 0
-72 -73 -943 0
72 -73 943 0
-72 73 943 0
943 78 -944 0
-943 -78 -944 0
943 -78 944 0
-943 78 944 0
944 79 -945 0
-944 -79 -945 0
944 -79 945 0
-944 79 945 0
945 247 -946 0
-945 -247 -946 0
945 -247 946 0
-945 247 946 0
946 259 -947 0
-946 -259 -947 0
946 -259 947 0
-946 259 947 0
947 265 -948 0
-947 -265 -948 0
947 -265 948 0
-947 265 948 0
948 277 -949 0
-948 -277 -949 0
948 -277 949 0
-948 277 949 0
-949 0
73 74 -950 0
-73 -74 -950 0
73 -74 950 0
-73 74 950 0
950 79 -951 0
-950 -79 -951 0
950 -79 951 0
-950 79 951 0
951 80 -952 0
-951 -80 -952 0
951 -80 952 0
-951 80 952 0
952 248 -953 0
-952 -248 -953 0
952 -248 953 0
-952 248 953 0
953 260 -954 0
-953 -260 -954 0
953 -260 954 0
-953 260 954 0
954 266 -955 0
-954 -266 -955 0
954 -266 955 0
-954 266 955 0
955 278 -956 0
-955 -278 -956 0
955 -278 956 0
-955 278 956 0
-956 0
74 75 -957 0
-74 -75 -957 0
74 -75 957 0
-74 75 957 0
957 80 -958 0
-957 -80 -958 0
957 -80 958 0
-957 80 958 0
958 81 -959 0
-958 -81 -959 0
958 -81 959 0
-958 81 959 0
959 249 -960 0
-959 -249 -960 0
959 -249 960 0
-959 249 960 0
960 261 -961 0
-960 -261 -961 0
960 -261 961 0
-960 261 961 0
961 267 -962 0
-961 -267 -962 0
961 -267 962 0
-961 267 962 0
962 279 -963 0
-962 -279 -963 0
962 -279 963 0
-962 279 963 0
-963 0
75 76 -964 0
-75 -76 -964 0
75 -76 964 0
-75 76 964 0
964 81 -965 0
-964 -81 -965 0
964 -81 965 0
-964 81 965 0
965 82 -966 0
-965 -82 -966 0
965 -82 966 0
-965 82 966 0
966 250 -967 0
-966 -250 -967 0
966 -250 967 0
-966 250 967 0
967 262 -968 0
-967 -262 -968 0
967 -262 968 0
-967 262 968 0
968 268 -969 0
-968 -268 -969 0
968 -268 969 0
-968 268 969 0
969 280 -970 0
-969 -280 -970 0
969 -280 970 0
-969 280 970 0
-970 0
76 77 -971 0
-76 -77 -971 0
76 -77 971 0
-76 77 971 0
971 82 -972 0
-971 -82 -972 0
971 -82 972 0
-971 82 972 0
972 83 -973 0
-972 -83 -973 0
972 -83 973 0
-972 83 973 0
973 251 -974 0
-973 -251 -974 0
973 -251 974 0
-973 251 974 0
974 263 -975 0
-974 -263 -975 0
974 -263 975 0
-974 263 975 0
975 269 -976 0
-975 -269 -976 0
975 -269 976 0
-975 269 976 0
976 281 -977 0
-976 -281 -977 0
976 -281 977 0
-976 281 977 0
-977 0
77 78 -978 0
-77 -78 -978 0
77 -78 978 0
-77 78 978 0
978 83 -979 0
-978 -83 -979 0
978 -83 979 0
-978 83 979 0
979 84 -980 0
-979 -84 -980 0
979 -84 980 0
-979 84 980 0
980 252 -981 0
-980 -252 -981 0
980 -252 981 0
-980 252 981 0
981 264 -982 0
-981 -264 -982 0
981 -264 982 0
-981 264 982 0
982 270 -983 0
-982 -270 -983 0
982 -270 983 0
-982 270 983 0
983 282 -984 0
-983 -282 -984 0
983 -282 984 0
-983 282 984 0
-984 0
78 79 -985 0
-78 -79 -985 0
78 -79 985 0
-78 79 985 0
985 84 -986 0
-985 -84 -986 0
985 -84 986 0
-985 84 986 0
986 85 -987 0
-986 -85 -987 0
986 -85 987 0
-986 85 987 0
987 253 -988 0
-987 -253 -988 0
987 -253 988 0
-987 253 988 0
988 265 -989 0
-988 -265 -989 0
988 -265 989 0
-988 265 989 0
989 271 -990 0
-989 -271 -990 0
989 -271 990 0
-989 271 990 0
990 283 -991 0
-990 -283 -991 0
990 -283 991 0
-990 283 991 0
-991 0
79 80 -992 0
-79 -80 -992 0
79 -80 992 0
-79 80 992 0
992 85 -993 0
-992 -85 -993 0
992 -85 993 0
-992 85 993 0
993 86 -994 0
-993 -86 -994 0
993 -86 994 0
-993 86 994 0
994 254 -995 0
-994 -254 -995 0
994 -254 995 0
-994 254 995 0
995 266 -996 0
-995 -266 -996 0
995 -266 996 0
-995 266 996 0
996 272 -997 0
-996 -272 -997 0
996 -272 997 0
-996 272 997 0
997 284 -998 0
-997 -284 -998 0
997 -284 998 0
-997 284 998 0
-998 0
80 81 -999 0
-80 -81 -999 0
80 -81 999 0
-80 81 999 0
999 86 -1000 0
-999 -86 -1000 0
999 -86 1000 0
-999 86 1000 0
1000 87 -1001 0
-1000 -87 -1001 0
1000 -87 1001 0
-1000 87 1001 0
1001 255 -1002 0
-1001 -255 -1002 0
1001 -255 1002 0
-1001 255 1002 0
1002 267 -1003 0
-1002 -267 -1003 0
1002 -267 1003 0
-1002 267 1003 0
1003 273 -1004 0
-1003 -273 -1004 0
1003 -273 1004 0
-1003 273 1004 0
1004 285 -1005 0
-1004 -285 -1005 0
1004 -285 1005 0
-1004 285 1005 0
-1005 0
81 82 -1006 0
-81 -82 -1006 0
81 -82 1006 0
-81 82 1006 0
1006 87 -1007 0
-1006 -87 -1007 0
1006 -87 1007 0
-1006 87 1007 0
1007 88 -1008 0
-1007 -88 -1008 0
1007 -88 1008 0
-1007 88 1008 0
1008 256 -1009 0
-1008 -256 -1009 0
1008 -256 1009 0
-1008 256 1009 0
1009 268 -1010 0
-1009 -268 -1010 0
1009 -268 1010 0
-1009 268 1010 0
1010 274 -1011 0
-1010 -274 -1011 0
1010 -274 1011 0
-1010 274 1011 0
1011 286 -1012 0
-1011 -286 -1012 0
1011 -286 1012 0
-1011 286 1012 0
-1012 0
82 83 -1013 0
-82 -83 -1013 0
82 -83 1013 0
-82 83 1013 0
1013 88 -1014 0
-1013 -88 -1014 0
1013 -88 1014 0
-1013 88 1014 0
1014 89 -1015 0
-1014 -89 -1015 0
1014 -89 1015 0
-1014 89 1015 0
1015 257 -1016 0
-1015 -257 -1016 0
1015 -257 1016 0
-1015 257 1016 0
1016 269 -1017 0
-1016 -269 -1017 0
1016 -269 1017 0
-1016 269 1017 0
1017 275 -1018 0
-1017 -275 -1018 0
1017 -275 1018 0
-1017 275 1018 0
1018 287 -1019 0
-1018 -287 -1019 0
1018 -287 1019 0
-1018 287 1019 0
-1019 0
83 84 -1020 0
-83 -84 -1020 0
83 -84 1020 0
-83 84 1020 0
1020 89 -1021 0
-1020 -89 -1021 0
1020 -89 1021 0
-1020 89 1021 0
1021 90 -1022 0
-1021 -90 -1022 0
1021 -90 1022 0
-1021 90 1022 0
1022 258 -1023 0
-1022 -258 -1023 0
1022 -258 1023 0
-1022 258 1023 0
1023 270 -1024 0
-1023 -270 -1024 0
1023 -270 1024 0
-1023 270 1024 0
1024 276 -1025 0
-1024 -276 -1025 0
1024 -276 1025 0
-1024 276 1025 0
1025 288 -1026 0
-1025 -288 -1026 0
1025 -288 1026 0
-1025 288 1026 0
-1026 0
84 85 -1027 0
-84 -85 -1027 0
84 -85 1027 0
-84 85 1027 0
1027 90 -1028 0
-1027 -90 -1028 0
1027 -90 1028 0
-1027 90 1028 0
1028 91 -1029 0
-1028 -91 -1029 0
1028 -91 1029 0
-1028 91 1029 0
1029 259 -1030 0
-1029 -259 -1030 0
1029 -259 1030 0
-1029 259 1030 0
1030 271 -1031 0
-1030 -271 -1031 0
1030 -271 1031 0
-1030 271 1031 0
1031 277 -1032 0
-1031 -277 -1032 0
1031 -277 1032 0
-1031 277 1032 0
1032 289 -1033 0
-1032 -289 -1033 0
1032 -289 1033 0
-1032 289 1033 0
-1033 0
85 86 -1034 0
-85 -86 -1034 0
85 -86 1034 0
-85 86 1034 0
1034 91 -1035 0
-1034 -91 -1035 0
1034 -91 1035 0
-1034 91 1035 0
1035 92 -1036 0
-1035 -92 -1036 0
1035 -92 1036 0
-1035 92 1036 0
1036 260 -1037 0
-1036 -260 -1037 0
1036 -260 1037 0
-1036 260 1037 0
1037 272 -1038 0
-1037 -272 -1038 0
1037 -272 1038 0
-1037 272 1038 0
1038 278 -1039 0
-1038 -278 -1039 0
1038 -278 1039 0
-1038 278 1039 0
1039 290 -1040 0
-1039 -290 -1040 0
1039 -290 1040 0
-1039 290 1040 0
-1040 0
86 87 -1041 0
-86 -87 -1041 0
86 -87 1041 0
-86 87 1041 0
1041 92 -1042 0
-1041 -92 -1042 0
1041 -92 1042 0
-1041 92 1042 0
1042 93 -1043 0
-1042 -93 -1043 0
1042 -93 1043 0
-1042 93 1043 0
1043 261 -1044 0
-1043 -261 -1044 0
1043 -261 1044 0
-1043 261 1044 0
1044 273 -1045 0
-1044 -273 -1045 0
1044 -273 1045 0
-1044 273 1045 0
1045 279 -1046 0
-1045 -279 -1046 0
1045 -279 1046 0
-1045 279 1046 0
1046 291 -1047 0
-1046 -291 -1047 0
1046 -291 1047 0
-1046 291 1047 0
-1047 0
87 88 -1048 0
-87 -88 -1048 0
87 -88 1048 0
-87 88 1048 0
1048 93 -1049 0
-1048 -93 -1049 0
1048 -93 1049 0
-1048 93 1049 0
1049 94 -1050 0
-1049 -94 -1050 0
1049 -94 1050 0
-1049 94 1050 0
1050 262 -1051 0
-1050 -262 -1051 0
1050 -262 1051 0
-1050 262 1051 0
1051 274 -1052 0
-1051 -274 -1052 0
1051 -274 1052 0
-1051 274 1052 0
1052 280 -1053 0
-1052 -280 -1053 0
1052 -280 1053 0
-1052 280 1053 0
1053 292 -1054 0
-1053 -292 -1054 0
1053 -292 1054 0
-1053 292 1054 0
-1054 0
88 89 -1055 0
-88 -89 -1055 0
88 -89 1055 0
-88 89 1055 0
1055 94 -1056 0
-1055 -94 -1056 0
1055 -94 1056 0
-1055 94 1056 0
1056 95 -1057 0
-1056 -95 -1057 0
1056 -95 1057 0
-1056 95 1057 0
1057 263 -1058 0
-1057 -263 -1058 0
1057 -263 1058 0
-1057 263 1058 0
1058 275 -1059 0
-1058 -275 -1059 0
1058 -275 1059 0
-1058 275 1059 0
1059 281 -1060 0
-1059 -281 -1060 0
1059 -281 1060 0
-1059 281 1060 0
1060 293 -1061 0
-1060 -293 -1061 0
1060 -293 1061 0
-1060 293 1061 0
-1061 0
89 90 -1062 0
-89 -90 -1062 0
89 -90 1062 0
-89 90 1062 0
1062 95 -1063 0
-1062 -95 -1063 0
1062 -95 1063 0
-1062 95 1063 0
1063 96 -1064 0
-1063 -96 -1064 0
1063 -96 1064 0
-1063 96 1064 0
1064 264 -1065 0
-1064 -264 -1065 0
1064 -264 1065 0
-1064 264 1065 0
1065 276 -1066 0
-1065 -276 -1066 0
1065 -276 1066 0
-1065 276 1066 0
1066 282 -1067 0
-1066 -282 -1067 0
1066 -282 1067 0
-1066 282 1067 0
1067 294 -1068 0
-1067 -294 -1068 0
1067 -294 1068 0
-1067 294 1068 0
-1068 0
90 91 -1069 0
-90 -91 -1069 0
90 -91 1069 0
-90 91 1069 0
1069 96 -1070 0
-1069 -96 -1070 0
1069 -96 1070 0
-1069 96 1070 0
1070 97 -1071 0
-1070 -97 -1071 0
1070 -97 1071 0
-1070 97 1071 0
1071 265 -1072 0
-1071 -265 -1072 0
1071 -265 1072 0
-1071 265 1072 0
1072 277 -1073 0
-1072 -277 -1073 0
1072 -277 1073 0
-1072 277 1073 0
1073 283 -1074 0
-1073 -283 -1074 0
1073 -283 1074 0
-1073 283 1074 0
1074 295 -1075 0
-1074 -295 -1075 0
1074 -295 1075 0
-1074 295 1075 0
-1075 0
91 92 -1076 0
-91 -92 -1076 0
91 -92 1076 0
-91 92 1076 0
1076 97 -1077 0
-1076 -97 -1077 0
1076 -97 1077 0
-1076 97 1077 0
1077 98 -1078 0
-1077 -98 -1078 0
1077 -98 1078 0
-1077 98 1078 0
1078 266 -1079 0
-1078 -266 -1079 0
1078 -266 1079 0
-1078 266 1079 0
1079 278 -1080 0
-1079 -278 -1080 0
1079 -278 1080 0
-1079 278 1080 0
1080 284 -1081 0
-1080 -284 -1081 0
1080 -284 1081 0
-1080 284 1081 0
1081 296 -1082 0
-1081 -296 -1082 0
1081 -296 1082 0
-1081 296 1082 0
-1082 0
92 93 -1083 0
-92 -93 -1083 0
92 -93 1083 0
-92 93 1083 0
1083 98 -1084 0
-1083 -98 -1084 0
1083 -98 1084 0
-1083 98 1084 0
1084 99 -1085 0
-1084 -99 -1085 0
1084 -99 1085 0
-1084 99 1085 0
1085 267 -1086 0
-1085 -267 -1086 0
1085 -267 1086 0
-1085 267 1086 0
1086 279 -1087 0
-1086 -279 -1087 0
1086 -279 1087 0
-1086 279 1087 0
1087 285 -1088 0
-1087 -285 -1088 0
1087 -285 1088 0
-1087 285 1088 0
1088 297 -1089 0
-1088 -297 -1089 0
1088 -297 1089 0
-1088 297 1089 0
-1089 0
93 94 -1090 0
-93 -94 -1090 0
93 -94 1090 0
-93 94 1090 0
1090 99 -1091 0
-1090 -99 -1091 0
1090 -99 1091 0
-1090 99 1091 0
1091 100 -1092 0
-1091 -100 -1092 0
1091 -100 1092 0
-1091 100 1092 0
1092 268 -1093 0
-1092 -268 -1093 0
1092 -268 1093 0
-1092 268 1093 0
1093 280 -1094 0
-1093 -280 -1094 0
1093 -280 1094 0
-1093 280 1094 0
1094 286 -1095 0
-1094 -286 -1095 0
1094 -286 1095 0
-1094 286 1095 0
1095 298 -1096 0
-1095 -298 -1096 0
1095 -298 1096 0
-1095 298 1096 0
-1096 0
94 95 -1097 0
-94 -95 -1097 0
94 -95 1097 0
-94 95 1097 0
1097 100 -1098 0
-1097 -100 -1098 0
1097 -100 1098 0
-1097 100 1098 0
1098 101 -1099 0
-1098 -101 -1099 0
1098 -101 1099 0
-1098 101 1099 0
1099 269 -1100 0
-1099 -269 -1100 0
1099 -269 1100 0
-1099 269 1100 0
1100 281 -1101 0
-1100 -281 -1101 0
1100 -281 1101 0
-1100 281 1101 0
1101 287 -1102 0
-1101 -287 -1102 0
1101 -287 1102 0
-1101 287 1102 0
1102 299 -1103 0
-1102 -299 -1103 0
1102 -299 1103 0
-1102 299 1103 0
-1103 0
95 96 -1104 0
-95 -96 -1104 0
95 -96 1104 0
-95 96 1104 0
1104 101 -1105 0
-1104 -101 -1105 0
1104 -101 1105 0
-1104 101 1105 0
1105 102 -1106 0
-1105 -102 -1106 0
1105 -102 1106 0
-1105 102 1106 0
1106 270 -1107 0
-1106 -270 -1107 0
1106 -270 1107 0
-1106 270 1107 0
1107 282 -1108 0
-1107 -282 -1108 0
1107 -282 1108 0
-1107 282 1108 0
1108 288 -1109 0
-1108 -288 -1109 0
1108 -288 1109 0
-1108 288 1109 0
1109 300 -1110 0
-1109 -300 -1110 0
1109 -300 1110 0
-1109 300 1110 0
-1110 0
96 97 -1111 0
-96 -97 -1111 0
96 -97 1111 0
-96 97 1111 0
1111 102 -1112 0
-1111 -102 -1112 0
1111 -102 1112 0
-1111 102 1112 0
1112 103 -1113 0
-1112 -103 -1113 0
1112 -103 1113 0
-1112 103 1113 0
1113 271 -1114 0
-1113 -271 -1114 0
1113 -271 1114 0
-1113 271 1114 0
1114 283 -1115 0
-1114 -283 -1115 0
1114 -283 1115 0
-1114 283 1115 0
1115 289 -1116 0
-1115 -289 -1116 0
1115 -289 1116 0
-1115 289 1116 0
1116 301 -1117 0
-1116 -301 -1117 0
1116 -301 1117 0
-1116 301 1117 0
-1117 0
97 98 -1118 0
-97 -98 -1118 0
97 -98 1118 0
-97 98 1118 0
1118 103 -1119 0
-1118 -103 -1119 0
1118 -103 1119 0
-1118 103 1119 0
1119 104 -1120 0
-1119 -104 -1120 0
1119 -104 1120 0
-1119 104 1120 0
1120 272 -1121 0
-1120 -272 -1121 0
1120 -272 1121 0
-1120 272 1121 0
1121 284 -1122 0
-1121 -284 -1122 0
1121 -284 1122 0
-1121 284 1122 0
1122 290 -1123 0
-1122 -290 -1123 0
1122 -290 1123 0
-1122 290 1123 0
1123 302 -1124 0
-1123 -302 -1124 0
1123 -302 1124 0
-1123 302 1124 0
-1124 0
98 99 -1125 0
-98 -99 -1125 0
98 -99 1125 0
-98 99 1125 0
1125 104 -1126 0
-1125 -104 -1126 0
1125 -104 1126 0
-1125 104 1126 0
1126 105 -1127 0
-1126 -105 -1127 0
1126 -105 1127 0
-1126 105 1127 0
1127 273 -1128 0
-1127 -273 -1128 0
1127 -273 1128 0
-1127 273 1128 0
1128 285 -1129 0
-1128 -285 -1129 0
1128 -285 1129 0
-1128 285 1129 0
1129 291 -1130 0
-1129 -291 -1130 0
1129 -291 1130 0
-1129 291 1130 0
1130 303 -1131 0
-1130 -303 -1131 0
1130 -303 1131 0
-1130 303 1131 0
-1131 0
99 100 -1132 0
-99 -100 -1132 0
99 -100 1132 0
-99 100 1132 0
1132 105 -1133 0
-1132 -105 -1133 0
1132 -105 1133 0
-1132 105 1133 0
1133 106 -1134 0
-1133 -106 -1134 0
1133 -106 1134 0
-1133 106 1134 0
1134 274 -1135 0
-1134 -274 -1135 0
1134 -274 1135 0
-1134 274 1135 0
1135 286 -1136 0
-1135 -286 -1136 0
1135 -286 1136 0
-1135 286 1136 0
1136 292 -1137 0
-1136 -292 -1137 0
1136 -292 1137 0
-1136 292 1137 0
1137 304 -1138 0
-1137 -304 -1138 0
1137 -304 1138 0
-1137 304 1138 0
-1138 0
100 101 -1139 0
-100 -101 -1139 0
100 -101 1139 0
-100 101 1139 0
1139 106 -1140 0
-1139 -106 -1140 0
1139 -106 1140 0
-1139 106 1140 0
1140 107 -1141 0
-1140 -107 -1141 0
1140 -107 1141 0
-1140 107 1141 0
1141 275 -1142 0
-1141 -275 -1142 0
1141 -275 1142 0
-1141 275 1142 0
1142 287 -1143 0
-1142 -287 -1143 0
1142 -287 1143 0
-1142 287 1143 0
1143 293 -1144 0
-1143 -293 -1144 0
1143 -293 1144 0
-1143 293 1144 0
1144 305 -1145 0
-1144 -305 -1145 0
1144 -305 1145 0
-1144 305 1145 0
-1145 0
101 102 -1146 0
-101 -102 -1146 0
101 -102 1146 0
-101 102 1146 0
1146 107 -1147 0
-1146 -107 -1147 0
1146 -107 1147 0
-1146 107 1147 0
1147 108 -1148 0
-1147 -108 -1148 0
1147 -108 1148 0
-1147 108 1148 0
1148 276 -1149 0
-1148 -276 -1149 0
1148 -276 1149 0
-1148 276 1149 0
1149 288 -1150 0
-1149 -288 -1150 0
1149 -288 1150 0
-1149 288 1150 0
1150 294 -1151 0
-1150 -294 -1151 0
1150 -294 1151 0
-1150 294 1151 0
1151 306 -1152 0
-1151 -306 -1152 0
1151 -306 1152 0
-1151 306 1152 0
-1152 0
102 103 -1153 0
-102 -103 -1153 0
102 -103 1153 0
-102 103 1153 0
1153 108 -1154 0
-1153 -108 -1154 0
1153 -108 1154 0
-1153 108 1154 0
1154 109 -1155 0
-1154 -109 -1155 0
1154 -109 1155 0
-1154 109 1155 0
1155 277 -1156 0
-1155 -277 -1156 0
1155 -277 1156 0
-1155 277 1156 0
1156 289 -1157 0
-1156 -289 -1157 0
1156 -289 1157 0
-1156 289 1157 0
1157 295 -1158 0
-1157 -295 -1158 0
1157 -295 1158 0
-1157 295 1158 0
1158 307 -1159 0
-1158 -307 -1159 0
1158 -307 1159 0
-1158 307 1159 0
-1159 0
103 104 -1160 0
-103 -104 -1160 0
103 -104 1160 0
-103 104 1160 0
1160 109 -1161 0
-1160 -109 -1161 0
1160 -109 1161 0
-1160 109 1161 0
1161 110 -1162 0
-1161 -110 -1162 0
1161 -110 1162 0
-1161 110 1162 0
1162 278 -1163 0
-1162 -278 -1163 0
1162 -278 1163 0
-1162 278 1163 0
1163 290 -1164 0
-1163 -290 -1164 0
1163 -290 1164 0
-1163 290 1164 0
1164 296 -1165 0
-1164 -296 -1165 0
1164 -296 1165 0
-1164 296 1165 0
1165 308 -1166 0
-1165 -308 -1166 0
1165 -308 1166 0
-1165 308 1166 0
-1166 0
104 105 -1167 0
-104 -105 -1167 0
104 -105 1167 0
-104 105 1167 0
1167 110 -1168 0
-1167 -110 -1168 0
1167 -110 1168 0
-1167 110 1168 0
1168 111 -1169 0
-1168 -111 -1169 0
1168 -111 1169 0
-1168 111 1169 0
1169 279 -1170 0
-1169 -279 -1170 0
1169 -279 1170 0
-1169 279 1170 0
1170 291 -1171 0
-1170 -291 -1171 0
1170 -291 1171 0
-1170 291 1171 0
1171 297 -1172 0
-1171 -297 -1172 0
1171 -297 1172 0
-1171 297 1172 0
1172 309 -1173 0
-1172 -309 -1173 0
1172 -309 1173 0
-1172 309 1173 0
-1173 0
105 106 -1174 0
-105 -106 -1174 0
105 -106 1174 0
-105 106 1174 0
1174 111 -1175 0
-1174 -111 -1175 0
1174 -111 1175 0
-1174 111 1175 0
1175 112 -1176 0
-1175 -112 -1176 0
1175 -112 1176 0
-1175 112 1176 0
1176 280 -1177 0
-1176 -280 -1177 0
1176 -280 1177 0
-1176 280 1177 0
1177 292 -1178 0
-1177 -292 -1178 0
1177 -292 1178 0
-1177 292 1178 0
1178 298 -1179 0
-1178 -298 -1179 0
1178 -298 1179 0
-1178 298 1179 0
1179 310 -1180 0
-1179 -310 -1180 0
1179 -310 1180 0
-1179 310 1180 0
-1180 0
106 107 -1181 0
-106 -107 -1181 0
106 -107 1181 0
-106 107 1181 0
1181 112 -1182 0
-1181 -112 -1182 0
1181 -112 1182 0
-1181 112 1182 0
1182 113 -1183 0
-1182 -113 -1183 0
1182 -113 1183 0
-1182 113 1183 0
1183 281 -1184 0
-1183 -281 -1184 0
1183 -281 1184 0
-1183 281 1184 0
1184 293 -1185 0
-1184 -293 -1185 0
1184 -293 1185 0
-1184 293 1185 0
1185 299 -1186 0
-1185 -299 -1186 0
1185 -299 1186 0
-1185 299 1186 0
1186 311 -1187 0
-1186 -311 -1187 0
1186 -311 1187 0
-1186 311 1187 0
-1187 0
107 108 -1188 0
-107 -108 -1188 0
107 -108 1188 0
-107 108 1188 0
1188 113 -1189 0
-1188 -113 -1189 0
1188 -113 1189 0
-1188 113 1189 0
1189 114 -1190 0
-1189 -114 -1190 0
1189 -114 1190 0
-1189 114 1190 0
1190 282 -1191 0
-1190 -282 -1191 0
1190 -282 1191 0
-1190 282 1191 0
1191 294 -1192 0
-1191 -294 -1192 0
1191 -294 1192 0
-1191 294 1192 0
1192 300 -1193 0
-1192 -300 -1193 0
1192 -300 1193 0
-1192 300 1193 0
1193 312 -1194 0
-1193 -312 -1194 0
1193 -312 1194 0
-1193 312 1194 0
-1194 0
108 109 -1195 0
-108 -109 -1195 0
108 -109 1195 0
-108 109 1195 0
1195 114 -1196 0
-1195 -114 -1196 0
1195 -114 1196 0
-1195 114 1196 0
1196 115 -1197 0
-1196 -115 -1197 0
1196 -115 1197 0
-1196 115 1197 0
1197 283 -1198 0
-1197 -283 -1198 0
1197 -283 1198 0
-1197 283 1198 0
1198 295 -1199 0
-1198 -295 -1199 0
1198 -295 1199 0
-1198 295 1199 0
1199 301 -1200 0
-1199 -301 -1200 0
1199 -301 1200 0
-1199 301 1200 0
1200 313 -1201 0
-1200 -313 -1201 0
1200 -313 1201 0
-1200 313 1201 0
-1201 0
109 110 -1202 0
-109 -110 -1202 0
109 -110 1202 0
-109 110 1202 0
1202 115 -1203 0
-1202 -115 -1203 0
1202 -115 1203 0
-1202 115 1203 0
1203 116 -1204 0
-1203 -116 -1204 0
1203 -116 1204 0
-1203 116 1204 0
1204 284 -1205 0
-1204 -284 -1205 0
1204 -284 1205 0
-1204 284 1205 0
1205 296 -1206 0
-1205 -296 -1206 0
1205 -296 1206 0
-1205 296 1206 0
1206 302 -1207 0
-1206 -302 -1207 0
1206 -302 1207 0
-1206 302 1207 0
1207 314 -1208 0
-1207 -314 -1208 0
1207 -314 1208 0
-1207 314 1208 0
-1208 0
110 111 -1209 0
-110 -111 -1209 0
110 -111 1209 0
-110 111 1209 0
1209 116 -1210 0
-1209 -116 -1210 0
1209 -116 1210 0
-1209 116 1210 0
1210 117 -1211 0
-1210 -117 -1211 0
1210 -117 1211 0
-1210 117 1211 0
1211 285 -1212 0
-1211 -285 -1212 0
1211 -285 1212 0
-1211 285 1212 0
1212 297 -1213 0
-1212 -297 -1213 0
1212 -297 1213 0
-1212 297 1213 0
1213 303 -1214 0
-1213 -303 -1214 0
1213 -303 1214 0
-1213 303 1214 0
1214 315 -1215 0
-1214 -315 -1215 0
1214 -315 1215 0
-1214 315 1215 0
-1215 0
111 112 -1216 0
-111 -112 -1216 0
111 -112 1216 0
-111 112 1216 0
1216 117 -1217 0
-1216 -117 -1217 0
1216 -117 1217 0
-1216 117 1217 0
1217 118 -1218 0
-1217 -118 -1218 0
1217 -118 1218 0
-1217 118 1218 0
1218 286 -1219 0
-1218 -286 -1219 0
1218 -286 1219 0
-1218 286 1219 0
1219 298 -1220 0
-1219 -298 -1220 0
1219 -298 1220 0
-1219 298 1220 0
1220 304 -1221 0
-1220 -304 -1221 0
1220 -304 1221 0
-1220 304 1221 0
1221 316 -1222 0
-1221 -316 -1222 0
1221 -316 1222 0
-1221 316 1222 0
-1222 0
112 113 -1223 0
-112 -113 -1223 0
112 -113 1223 0
-112 113 1223 0
1223 118 -1224 0
-1223 -118 -1224 0
1223 -118 1224 0
-1223 118 1224 0
1224 119 -1225 0
-1224 -119 -1225 0
1224 -119 1225 0
-1224 119 1225 0
1225 287 -1226 0
-1225 -287 -1226 0
1225 -287 1226 0
-1225 287 1226 0
1226 299 -1227 0
-1226 -299 -1227 0
1226 -299 1227 0
-1226 299 1227 0
1227 305 -1228 0
-1227 -305 -1228 0
1227 -305 1228 0
-1227 305 1228 0
1228 317 -1229 0
-1228 -317 -1229 0
1228 -317 1229 0
-1228 317 1229 0
-1229 0
113 114 -1230 0
-113 -114 -1230 0
113 -114 1230 0
-113 114 1230 0
1230 119 -1231 0
-1230 -119 -1231 0
1230 -119 1231 0
-1230 119 1231 0
1231 120 -1232 0
-1231 -120 -1232 0
1231 -120 1232 0
-1231 120 1232 0
1232 288 -1233 0
-1232 -288 -1233 0
1232 -288 1233 0
-1232 288 1233 0
1233 300 -1234 0
-1233 -300 -1234 0
1233 -300 1234 0
-1233 300 1234 0
1234 306 -1235 0
-1234 -306 -1235 0
1234 -306 1235 0
-1234 306 1235 0
1235 318 -1236 0
-1235 -318 -1236 0
1235 -318 1236 0
-1235 318 1236 0
-1236 0
114 115 -1237 0
-114 -115 -1237 0
114 -115 1237 0
-114 115 1237 0
1237 120 -1238 0
-1237 -120 -1238 0
1237 -120 1238 0
-1237 120 1238 0
1238 121 -1239 0
-1238 -121 -1239 0
1238 -121 1239 0
-1238 121 1239 0
1239 289 -1240 0
-1239 -289 -1240 0
1239 -289 1240 0
-1239 289 1240 0
1240 301 -1241 0
-1240 -301 -1241 0
1240 -301 1241 0
-1240 301 1241 0
1241 307 -1242 0
-1241 -307 -1242 0
1241 -307 1242 0
-1241 307 1242 0
1242 319 -1243 0
-1242 -319 -1243 0
1242 -319 1243 0
-1242 319 1243 0
-1243 0
115 116 -1244 0
-115 -116 -1244 0
115 -116 1244 0
-115 116 1244 0
1244 121 -1245 0
-1244 -121 -1245 0
1244 -121 1245 0
-1244 121 1245 0
1245 122 -1246 0
-1245 -122 -1246 0
1245 -122 1246 0
-1245 122 1246 0
1246 290 -1247 0
-1246 -290 -1247 0
1246 -290 1247 0
-1246 290 1247 0
1247 302 -1248 0
-1247 -302 -1248 0
1247 -302 1248 0
-1247 302 1248 0
1248 308 -1249 0
-1248 -308 -1249 0
1248 -308 1249 0
-1248 308 1249 0
1249 320 -1250 0
-1249 -320 -1250 0
1249 -320 1250 0
-1249 320 1250 0
-1250 0
116 117 -1251 0
-116 -117 -1251 0
116 -117 1251 0
-116 117 1251 0
1251 122 -1252 0
-1251 -122 -1252 0
1251 -122 1252 0
-1251 122 1252 0
1252 123 -1253 0
-1252 -123 -1253 0
1252 -123 1253 0
-1252 123 1253 0
1253 291 -1254 0
-1253 -291 -1254 0
1253 -291 1254 0
-1253 291 1254 0
1254 303 -1255 0
-1254 -303 -1255 0
1254 -303 1255 0
-1254 303 1255 0
1255 309 -1256 0
-1255 -309 -1256 0
1255 -309 1256 0
-1255 309 1256 0
1256 321 -1257 0
-1256 -321 -1257 0
1256 -321 1257 0
-1256 321 1257 0
-1257 0
117 118 -1258 0
-117 -118 -1258 0
117 -118 1258 0
-117 118 1258 0
1258 123 -1259 0
-1258 -123 -1259 0
1258 -123 1259 0
-1258 123 1259 0
1259 124 -1260 0
-1259 -124 -1260 0
1259 -124 1260 0
-1259 124 1260 0
1260 292 -1261 0
-1260 -292 -1261 0
1260 -292 1261 0
-1260 292 1261 0
1261 304 -1262 0
-1261 -304 -1262 0
1261 -304 1262 0
-1261 304 1262 0
1262 310 -1263 0
-1262 -310 -1263 0
1262 -310 1263 0
-1262 310 1263 0
1263 322 -1264 0
-1263 -322 -1264 0
1263 -322 1264 0
-1263 322 1264 0
-1264 0
118 119 -1265 0
-118 -119 -1265 0
118 -119 1265 0
-118 119 1265 0
1265 124 -1266 0
-1265 -124 -1266 0
1265 -124 1266 0
-1265 124 1266 0
1266 125 -1267 0
-1266 -125 -1267 0
1266 -125 1267 0
-1266 125 1267 0
1267 293 -1268 0
-1267 -293 -1268 0
1267 -293 1268 0
-1267 293 1268 0
1268 305 -1269 0
-1268 -305 -1269 0
1268 -305 1269 0
-1268 305 1269 0
1269 311 -1270 0
-1269 -311 -1270 0
1269 -311 1270 0
-1269 311 1270 0
1270 323 -1271 0
-1270 -323 -1271 0
1270 -323 1271 0
-1270 323 1271 0
-1271 0
119 120 -1272 0
-119 -120 -1272 0
119 -120 1272 0
-119 120 1272 0
1272 125 -1273 0
-1272 -125 -1273 0
1272 -125 1273 0
-1272 125 1273 0
1273 126 -1274 0
-1273 -126 -1274 0
1273 -126 1274 0
-1273 126 1274 0
1274 294 -1275 0
-1274 -294 -1275 0
1274 -294 1275 0
-1274 294 1275 0
1275 306 -1276 0
-1275 -306 -1276 0
1275 -306 1276 0
-1275 306 1276 0
1276 312 -1277 0
-1276 -312 -1277 0
1276 -312 1277 0
-1276 312 1277 0
1277 324 -1278 0
-1277 -324 -1278 0
1277 -324 1278 0
-1277 324 1278 0
-1278 0
120 121 -1279 0
-120 -121 -1279 0
120 -121 1279 0
-120 121 1279 0
1279 126 -1280 0
-1279 -126 -1280 0
1279 -126 1280 0
-1279 126 1280 0
1280 127 -1281 0
-1280 -127 -1281 0
1280 -127 1281 0
-1280 127 1281 0
1281 295 -1282 0
-1281 -295 -1282 0
1281 -295 1282 0
-1281 295 1282 0
1282 307 -1283 0
-1282 -307 -1283 0
1282 -307 1283 0
-1282 307 1283 0
1283 313 -1284 0
-1283 -313 -1284 0
1283 -313 1284 0
-1283 313 1284 0
1284 325 -1285 0
-1284 -325 -1285 0
1284 -325 1285 0
-1284 325 1285 0
-1285 0
121 122 -1286 0
-121 -122 -1286 0
121 -122 1286 0
-121 122 1286 0
1286 127 -1287 0
-1286 -127 -1287 0
1286 -127 1287 0
-1286 127 1287 0
1287 128 -1288 0
-1287 -128 -1288 0
1287 -128 1288 0
-1287 128 1288 0
1288 296 -1289 0
-1288 -296 -1289 0
1288 -296 1289 0
-1288 296 1289 0
1289 308 -1290 0
-1289 -308 -1290 0
1289 -308 1290 0
-1289 308 1290 0
1290 314 -1291 0
-1290 -314 -1291 0
1290 -314 1291 0
-1290 314 1291 0
1291 326 -1292 0
-1291 -326 -1292 0
1291 -326 1292 0
-1291 326 1292 0
-1292 0
122 123 -1293 0
-122 -123 -1293 0
122 -123 1293 0
-122 123 1293 0
1293 128 -1294 0
-1293 -128 -1294 0
1293 -128 1294 0
-1293 128 1294 0
1294 129 -1295 0
-1294 -129 -1295 0
1294 -129 1295 0
-1294 129 1295 0
1295 297 -1296 0
-1295 -297 -1296 0
1295 -297 1296 0
-1295 297 1296 0
1296 309 -1297 0
-1296 -309 -1297 0
1296 -309 1297 0
-1296 309 1297 0
1297 315 -1298 0
-1297 -315 -1298 0
1297 -315 1298 0
-1297 315 1298 0
1298 327 -1299 0
-1298 -327 -1299 0
1298 -327 1299 0
-1298 327 1299 0
-1299 0
123 124 -1300 0
-123 -124 -1300 0
123 -124 1300 0
-123 124 1300 0
1300 129 -1301 0
-1300 -129 -1301 0
1300 -129 1301 0
-1300 129 1301 0
1301 130 -1302 0
-1301 -130 -1302 0
1301 -130 1302 0
-1301 130 1302 0
1302 298 -1303 0
-1302 -298 -1303 0
1302 -298 1303 0
-1302 298 1303 0
1303 310 -1304 0
-1303 -310 -1304 0
1303 -310 1304 0
-1303 310 1304 0
1304 316 -1305 0
-1304 -316 -1305 0
1304 -316 1305 0
-1304 316 1305 0
1305 328 -1306 0
-1305 -328 -1306 0
1305 -328 1306 0
-1305 328 1306 0
-1306 0
124 125 -1307 0
-124 -125 -1307 0
124 -125 1307 0
-124 125 1307 0
1307 130 -1308 0
-1307 -130 -1308 0
1307 -130 1308 0
-1307 130 1308 0
1308 131 -1309 0
-1308 -131 -1309 0
1308 -131 1309 0
-1308 131 1309 0
1309 299 -1310 0
-1309 -299 -1310 0
1309 -299 1310 0
-1309 299 1310 0
1310 311 -1311 0
-1310 -311 -1311 0
1310 -311 1311 0
-1310 311 1311 0
1311 317 -1312 0
-1311 -317 -1312 0
1311 -317 1312 0
-1311 317 1312 0
1312 329 -1313 0
-1312 -329 -1313 0
1312 -329 1313 0
-1312 329 1313 0
-1313 0
125 126 -1314 0
-125 -126 -1314 0
125 -126 1314 0
-125 126 1314 0
1314 131 -1315 0
-1314 -131 -1315 0
1314 -131 1315 0
-1314 131 1315 0
1315 132 -1316 0
-1315 -132 -1316 0
1315 -132 1316 0
-1315 132 1316 0
1316 300 -1317 0
-1316 -300 -1317 0
1316 -300 1317 0
-1316 300 1317 0
1317 312 -1318 0
-1317 -312 -1318 0
1317 -312 1318 0
-1317 312 1318 0
1318 318 -1319 0
-1318 -318 -1319 0
1318 -318 1319 0
-1318 318 1319 0
1319 330 -1320 0
-1319 -330 -1320 0
1319 -330 1320 0
-1319 330 1320 0
-1320 0
126 127 -1321 0
-126 -127 -1321 0
126 -127 1321 0
-126 127 1321 0
1321 132 -1322 0
-1321 -132 -1322 0
1321 -132 1322 0
-1321 132 1322 0
1322 133 -1323 0
-1322 -133 -1323 0
1322 -133 1323 0
-1322 133 1323 0
1323 301 -1324 0
-1323 -301 -1324 0
1323 -301 1324 0
-1323 301 1324 0
1324 313 -1325 0
-1324 -313 -1325 0
1324 -313 1325 0
-1324 313 1325 0
1325 319 -1326 0
-1325 -319 -1326 0
1325 -319 1326 0
-1325 319 1326 0
1326 331 -1327 0
-1326 -331 -1327 0
1326 -331 1327 0
-1326 331 1327 0
-1327 0
127 128 -1328 0
-127 -128 -1328 0
127 -128 1328 0
-127 128 1328 0
1328 133 -1329 0
-1328 -133 -1329 0
1328 -133 1329 0
-1328 133 1329 0
1329 134 -1330 0
-1329 -134 -1330 0
1329 -134 1330 0
-1329 134 1330 0
1330 302 -1331 0
-1330 -302 -1331 0
1330 -302 1331 0
-1330 302 1331 0
1331 314 -1332 0
-1331 -314 -1332 0
1331 -314 1332 0
-1331 314 1332 0
1332 320 -1333 0
-1332 -320 -1333 0
1332 -320 1333 0
-1332 320 1333 0
1333 332 -1334 0
-1333 -332 -1334 0
1333 -332 1334 0
-1333 332 1334 0
-1334 0
128 129 -1335 0
-128 -129 -1335 0
128 -129 1335 0
-128 129 1335 0
1335 134 -1336 0
-1335 -134 -1336 0
1335 -134 1336 0
-1335 134 1336 0
1336 135 -1337 0
-1336 -135 -1337 0
1336 -135 1337 0
-1336 135 1337 0
1337 303 -1338 0
-1337 -303 -1338 0
1337 -303 1338 0
-1337 303 1338 0
1338 315 -1339 0
-1338 -315 -1339 0
1338 -315 1339 0
-1338 315 1339 0
1339 321 -1340 0
-1339 -321 -1340 0
1339 -321 1340 0
-1339 321 1340 0
1340 333 -1341 0
-1340 -333 -1341 0
1340 -333 1341 0
-1340 333 1341 0
-1341 0
129 130 -1342 0
-129 -130 -1342 0
129 -130 1342 0
-129 130 1342 0
1342 135 -1343 0
-1342 -135 -1343 0
1342 -135 1343 0
-1342 135 1343 0
1343 136 -1344 0
-1343 -136 -1344 0
1343 -136 1344 0
-1343 136 1344 0
1344 304 -1345 0
-1344 -304 -1345 0
1344 -304 1345 0
-1344 304 1345 0
1345 316 -1346 0
-1345 -316 -1346 0
1345 -316 1346 0
-1345 316 1346 0
1346 322 -1347 0
-1346 -322 -1347 0
1346 -322 1347 0
-1346 322 1347 0
1347 334 -1348 0
-1347 -334 -1348 0
1347 -334 1348 0
-1347 334 1348 0
-1348 0
130 131 -1349 0
-130 -131 -1349 0
130 -131 1349 0
-130 131 1349 0
1349 136 -1350 0
-1349 -136 -1350 0
1349 -136 1350 0
-1349 136 1350 0
1350 137 -1351 0
-1350 -137 -1351 0
1350 -137 1351 0
-1350 137 1351 0
1351 305 -1352 0
-1351 -305 -1352 0
1351 -305 1352 0
-1351 305 1352 0
1352 317 -1353 0
-1352 -317 -1353 0
1352 -317 1353 0
-1352 317 1353 0
1353 323 -1354 0
-1353 -323 -1354 0
1353 -323 1354 0
-1353 323 1354 0
1354 335 -1355 0
-1354 -335 -1355 0
1354 -335 1355 0
-1354 335 1355 0
-1355 0
131 132 -1356 0
-131 -132 -1356 0
131 -132 1356 0
-131 132 1356 0
1356 137 -1357 0
-1356 -137 -1357 0
1356 -137 1357 0
-1356 137 1357 0
1357 138 -1358 0
-1357 -138 -1358 0
1357 -138 1358 0
-1357 138 1358 0
1358 306 -1359 0
-1358 -306 -1359 0
1358 -306 1359 0
-1358 306 1359 0
1359 318 -1360 0
-1359 -318 -1360 0
1359 -318 1360 0
-1359 318 1360 0
1360 324 -1361 0
-1360 -324 -1361 0
1360 -324 1361 0
-1360 324 1361 0
1361 336 -1362 0
-1361 -336 -1362 0
1361 -336 1362 0
-1361 336 1362 0
-1362 0
132 133 -1363 0
-132 -133 -1363 0
132 -133 1363 0
-132 133 1363 0
1363 138 -1364 0
-1363 -138 -1364 0
1363 -138 1364 0
-1363 138 1364 0
1364 139 -1365 0
-1364 -139 -1365 0
1364 -139 1365 0
-1364 139 1365 0
1365 307 -1366 0
-1365 -307 -1366 0
1365 -307 1366 0
-1365 307 1366 0
1366 319 -1367 0
-1366 -319 -1367 0
1366 -319 1367 0
-1366 319 1367 0
1367 325 -1368 0
-1367 -325 -1368 0
1367 -325 1368 0
-1367 325 1368 0
1368 337 -1369 0
-1368 -337 -1369 0
1368 -337 1369 0
-1368 337 1369 0
-1369 0
133 134 -1370 0
-133 -134 -1370 0
133 -134 1370 0
-133 134 1370 0
1370 139 -1371 0
-1370 -139 -1371 0
1370 -139 1371 0
-1370 139 1371 0
1371 140 -1372 0
-1371 -140 -1372 0
1371 -140 1372 0
-1371 140 1372 0
1372 308 -1373 0
-1372 -308 -1373 0
1372 -308 1373 0
-1372 308 1373 0
1373 320 -1374 0
-1373 -320 -1374 0
1373 -320 1374 0
-1373 320 1374 0
1374 326 -1375 0
-1374 -326 -1375 0
1374 -326 1375 0
-1374 326 1375 0
1375 338 -1376 0
-1375 -338 -1376 0
1375 -338 1376 0
-1375 338 1376 0
-1376 0
134 135 -1377 0
-134 -135 -1377 0
134 -135 1377 0
-134 135 1377 0
1377 140 -1378 0
-1377 -140 -1378 0
1377 -140 1378 0
-1377 140 1378 0
1378 141 -1379 0
-1378 -141 -1379 0
1378 -141 1379 0
-1378 141 1379 0
1379 309 -1380 0
-1379 -309 -1380 0
1379 -309 1380 0
-1379 309 1380 0
1380 321 -1381 0
-1380 -321 -1381 0
1380 -321 1381 0
-1380 321 1381 0
1381 327 -1382 0
-1381 -327 -1382 0
1381 -327 1382 0
-1381 327 1382 0
1382 339 -1383 0
-1382 -339 -1383 0
1382 -339 1383 0
-1382 339 1383 0
-1383 0
135 136 -1384 0
-135 -136 -1384 0
135 -136 1384 0
-135 136 1384 0
1384 141 -1385 0
-1384 -141 -1385 0
1384 -141 1385 0
-1384 141 1385 0
1385 142 -1386 0
-1385 -142 -1386 0
1385 -142 1386 0
-1385 142 1386 0
1386 310 -1387 0
-1386 -310 -1387 0
1386 -310 1387 0
-1386 310 1387 0
1387 322 -1388 0
-1387 -322 -1388 0
1387 -322 1388 0
-1387 322 1388 0
1388 328 -1389 0
-1388 -328 -1389 0
1388 -328 1389 0
-1388 328 1389 0
1389 340 -1390 0
-1389 -340 -1390 0
1389 -340 1390 0
-1389 340 1390 0
-1390 0
136 137 -1391 0
-136 -137 -1391 0
136 -137 1391 0
-136 137 1391 0
1391 142 -1392 0
-1391 -142 -1392 0
1391 -142 1392 0
-1391 142 1392 0
1392 143 -1393 0
-1392 -143 -1393 0
1392 -143 1393 0
-1392 143 1393 0
1393 311 -1394 0
-1393 -311 -1394 0
1393 -311 1394 0
-1393 311 1394 0
1394 323 -1395 0
-1394 -323 -1395 0
1394 -323 1395 0
-1394 323 1395 0
1395 329 -1396 0
-1395 -329 -1396 0
1395 -329 1396 0
-1395 329 1396 0
1396 341 -1397 0
-1396 -341 -1397 0
1396 -341 1397 0
-1396 341 1397 0
-1397 0
137 138 -1398 0
-137 -138 -1398 0
137 -138 1398 0
-137 138 1398 0
1398 143 -1399 0
-1398 -143 -1399 0
1398 -143 1399 0
-1398 143 1399 0
1399 144 -1400 0
-1399 -144 -1400 0
1399 -144 1400 0
-1399 144 1400 0
1400 312 -1401 0
-1400 -312 -1401 0
1400 -312 1401 0
-1400 312 1401 0
1401 324 -1402 0
-1401 -324 -1402 0
1401 -324 1402 0
-1401 324 1402 0
1402 330 -1403 0
-1402 -330 -1403 0
1402 -330 1403 0
-1402 330 1403 0
1403 342 -1404 0
-1403 -342 -1404 0
1403 -342 1404 0
-1403 342 1404 0
-1404 0
138 139 -1405 0
-138 -139 -1405 0
138 -139 1405 0
-138 139 1405 0
1405 144 -1406 0
-1405 -144 -1406 0
1405 -144 1406 0
-1405 144 1406 0
1406 145 -1407 0
-1406 -145 -1407 0
1406 -145 1407 0
-1406 145 1407 0
1407 313 -1408 0
-1407 -313 -1408 0
1407 -313 1408 0
-1407 313 1408 0
1408 325 -1409 0
-1408 -325 -1409 0
1408 -325 1409 0
-1408 325 1409 0
1409 331 -1410 0
-1409 -331 -1410 0
1409 -331 1410 0
-1409 331 1410 0
1410 343 -1411 0
-1410 -343 -1411 0
1410 -343 1411 0
-1410 343 1411 0
-1411 0
139 140 -1412 0
-139 -140 -1412 0
139 -140 1412 0
-139 140 1412 0
1412 145 -1413 0
-1412 -145 -1413 0
1412 -145 1413 0
-1412 145 1413 0
1413 146 -1414 0
-1413 -146 -1414 0
1413 -146 1414 0
-1413 146 1414 0
1414 314 -1415 0
-1414 -314 -1415 0
1414 -314 1415 0
-1414 314 1415 0
1415 326 -1416 0
-1415 -326 -1416 0
1415 -326 1416 0
-1415 326 1416 0
1416 332 -1417 0
-1416 -332 -1417 0
1416 -332 1417 0
-1416 332 1417 0
1417 344 -1418 0
-1417 -344 -1418 0
1417 -344 1418 0
-1417 344 1418 0
-1418 0
140 141 -1419 0
-140 -141 -1419 0
140 -141 1419 0
-140 141 1419 0
1419 146 -1420 0
-1419 -146 -1420 0
1419 -146 1420 0
-1419 146 1420 0
1420 147 -1421 0
-1420 -147 -1421 0
1420 -147 1421 0
-1420 147 1421 0
1421 315 -1422 0
-1421 -315 -1422 0
1421 -315 1422 0
-1421 315 1422 0
1422 327 -1423 0
-1422 -327 -1423 0
1422 -327 1423 0
-1422 327 1423 0
1423 333 -1424 0
-1423 -333 -1424 0
1423 -333 1424 0
-1423 333 1424 0
1424 345 -1425 0
-1424 -345 -1425 0
1424 -345 1425 0
-1424 345 1425 0
-1425 0
141 142 -1426 0
-141 -142 -1426 0
141 -142 1426 0
-141 142 1426 0
1426 147 -1427 0
-1426 -147 -1427 0
1426 -147 1427 0
-1426 147 1427 0
1427 148 -1428 0
-1427 -148 -1428 0
1427 -148 1428 0
-1427 148 1428 0
1428 316 -1429 0
-1428 -316 -1429 0
1428 -316 1429 0
-1428 316 1429 0
1429 328 -1430 0
-1429 -328 -1430 0
1429 -328 1430 0
-1429 328 1430 0
1430 334 -1431 0
-1430 -334 -1431 0
1430 -334 1431 0
-1430 334 1431 0
1431 346 -1432 0
-1431 -346 -1432 0
1431 -346 1432 0
-1431 346 1432 0
-1432 0
142 143 -1433 0
-142 -143 -1433 0
142 -143 1433 0
-142 143 1433 0
1433 148 -1434 0
-1433 -148 -1434 0
1433 -148 1434 0
-1433 148 1434 0
1434 149 -1435 0
-1434 -149 -1435 0
1434 -149 1435 0
-1434 149 1435 0
1435 317 -1436 0
-1435 -317 -1436 0
1435 -317 1436 0
-1435 317 1436 0
1436 329 -1437 0
-1436 -329 -1437 0
1436 -329 1437 0
-1436 329 1437 0
1437 335 -1438 0
-1437 -335 -1438 0
1437 -335 1438 0
-1437 335 1438 0
1438 347 -1439 0
-1438 -347 -1439 0
1438 -347 1439 0
-1438 347 1439 0
-1439 0
143 144 -1440 0
-143 -144 -1440 0
143 -144 1440 0
-143 144 1440 0
1440 149 -1441 0
-1440 -149 -1441 0
1440 -149 1441 0
-1440 149 1441 0
1441 150 -1442 0
-1441 -150 -1442 0
1441 -150 1442 0
-1441 150 1442 0
1442 318 -1443 0
-1442 -318 -1443 0
1442 -318 1443 0
-1442 318 1443 0
1443 330 -1444 0
-1443 -330 -1444 0
1443 -330 1444 0
-1443 330 1444 0
1444 336 -1445 0
-1444 -336 -1445 0
1444 -336 1445 0
-1444 336 1445 0
1445 348 -1446 0
-1445 -348 -1446 0
1445 -348 1446 0
-1445 348 1446 0
-1446 0
144 145 -1447 0
-144 -145 -1447 0
144 -145 1447 0
-144 145 1447 0
1447 150 -1448 0
-1447 -150 -1448 0
1447 -150 1448 0
-1447 150 1448 0
1448 151 -1449 0
-1448 -151 -1449 0
1448 -151 1449 0
-1448 151 1449 0
1449 319 -1450 0
-1449 -319 -1450 0
1449 -319 1450 0
-1449 319 1450 0
1450 331 -1451 0
-1450 -331 -1451 0
1450 -331 1451 0
-1450 331 1451 0
1451 337 -1452 0
-1451 -337 -1452 0
1451 -337 1452 0
-1451 337 1452 0
1452 349 -1453 0
-1452 -349 -1453 0
1452 -349 1453 0
-1452 349 1453 0
-1453 0
145 146 -1454 0
-145 -146 -1454 0
145 -146 1454 0
-145 146 1454 0
1454 151 -1455 0
-1454 -151 -1455 0
1454 -151 1455 0
-1454 151 1455 0
1455 152 -1456 0
-1455 -152 -1456 0
1455 -152 1456 0
-1455 152 1456 0
1456 320 -1457 0
-1456 -320 -1457 0
1456 -320 1457 0
-1456 320 1457 0
1457 332 -1458 0
-1457 -332 -1458 0
1457 -332 1458 0
-1457 332 1458 0
1458 338 -1459 0
-1458 -338 -1459 0
1458 -338 1459 0
-1458 338 1459 0
1459 350 -1460 0
-1459 -350 -1460 0
1459 -350 1460 0
-1459 350 1460 0
-1460 0
146 147 -1461 0
-146 -147 -1461 0
146 -147 1461 0
-146 147 1461 0
1461 152 -1462 0
-1461 -152 -1462 0
1461 -152 1462 0
-1461 152 1462 0
1462 153 -1463 0
-1462 -153 -1463 0
1462 -153 1463 0
-1462 153 1463 0
1463 321 -1464 0
-1463 -321 -1464 0
1463 -321 1464 0
-1463 321 1464 0
1464 333 -1465 0
-1464 -333 -1465 0
1464 -333 1465 0
-1464 333 1465 0
1465 339 -1466 0
-1465 -339 -1466 0
1465 -339 1466 0
-1465 339 1466 0
1466 351 -1467 0
-1466 -351 -1467 0
1466 -351 1467 0
-1466 351 1467 0
-1467 0
147 148 -1468 0
-147 -148 -1468 0
147 -148 1468 0
-147 148 1468 0
1468 153 -1469 0
-1468 -153 -1469 0
1468 -153 1469 0
-1468 153 1469 0
1469 154 -1470 0
-1469 -154 -1470 0
1469 -154 1470 0
-1469 154 1470 0
1470 322 -1471 0
-1470 -322 -1471 0
1470 -322 1471 0
-1470 322 1471 0
1471 334 -1472 0
-1471 -334 -1472 0
1471 -334 1472 0
-1471 334 1472 0
1472 340 -1473 0
-1472 -340 -1473 0
1472 -340 1473 0
-1472 340 1473 0
1473 352 -1474 0
-1473 -352 -1474 0
1473 -352 1474 0
-1473 352 1474 0
-1474 0
148 149 -1475 0
-148 -149 -1475 0
148 -149 1475 0
-148 149 1475 0
1475 154 -1476 0
-1475 -154 -1476 0
1475 -154 1476 0
-1475 154 1476 0
1476 155 -1477 0
-1476 -155 -1477 0
1476 -155 1477 0
-1476 155 1477 0
1477 323 -1478 0
-1477 -323 -1478 0
1477 -323 1478 0
-1477 323 1478 0
1478 335 -1479 0
-1478 -335 -1479 0
1478 -335 1479 0
-1478 335 1479 0
1479 341 -1480 0
-1479 -341 -1480 0
1479 -341 1480 0
-1479 341 1480 0
1480 353 -1481 0
-1480 -353 -1481 0
1480 -353 1481 0
-1480 353 1481 0
-1481 0
149 150 -1482 0
-149 -150 -1482 0
149 -150 1482 0
-149 150 1482 0
1482 155 -1483 0
-1482 -155 -1483 0
1482 -155 1483 0
-1482 155 1483 0
1483 156 -1484 0
-1483 -156 -1484 0
1483 -156 1484 0
-1483 156 1484 0
1484 324 -1485 0
-1484 -324 -1485 0
1484 -324 1485 0
-1484 324 1485 0
1485 336 -1486 0
-1485 -336 -1486 0
1485 -336 1486 0
-1485 336 1486 0
1486 342 -1487 0
-1486 -342 -1487 0
1486 -342 1487 0
-1486 342 1487 0
1487 354 -1488 0
-1487 -354 -1488 0
1487 -354 1488 0
-1487 354 1488 0
-1488 0
150 151 -1489 0
-150 -151 -1489 0
150 -151 1489 0
-150 151 1489 0
1489 156 -1490 0
-1489 -156 -1490 0
1489 -156 1490 0
-1489 156 1490 0
1490 157 -1491 0
-1490 -157 -1491 0
1490 -157 1491 0
-1490 157 1491 0
1491 325 -1492 0
-1491 -325 -1492 0
1491 -325 1492 0
-1491 325 1492 0
1492 337 -1493 0
-1492 -337 -1493 0
1492 -337 1493 0
-1492 337 1493 0
1493 343 -1494 0
-1493 -343 -1494 0
1493 -343 1494 0
-1493 343 1494 0
1494 355 -1495 0
-1494 -355 -1495 0
1494 -355 1495 0
-1494 355 1495 0
-1495 0
151 152 -1496 0
-151 -152 -1496 0
151 -152 1496 0
-151 152 1496 0
1496 157 -1497 0
-1496 -157 -1497 0
1496 -157 1497 0
-1496 157 1497 0
1497 158 -1498 0
-1497 -158 -1498 0
1497 -158 1498 0
-1497 158 1498 0
1498 326 -1499 0
-1498 -326 -1499 0
1498 -326 1499 0
-1498 326 1499 0
1499 338 -1500 0
-1499 -338 -1500 0
1499 -338 1500 0
-1499 338 1500 0
1500 344 -1501 0
-1500 -344 -1501 0
1500 -344 1501 0
-1500 344 1501 0
1501 356 -1502 0
-1501 -356 -1502 0
1501 -356 1502 0
-1501 356 1502 0
-1502 0
152 153 -1503 0
-152 -153 -1503 0
152 -153 1503 0
-152 153 1503 0
1503 158 -1504 0
-1503 -158 -1504 0
1503 -158 1504 0
-1503 158 1504 0
1504 159 -1505 0
-1504 -159 -1505 0
1504 -159 1505 0
-1504 159 1505 0
1505 327 -1506 0
-1505 -327 -1506 0
1505 -327 1506 0
-1505 327 1506 0
1506 339 -1507 0
-1506 -339 -1507 0
1506 -339 1507 0
-1506 339 1507 0
1507 345 -1508 0
-1507 -345 -1508 0
1507 -345 1508 0
-1507 345 1508 0
1508 357 -1509 0
-1508 -357 -1509 0
1508 -357 1509 0
-1508 357 1509 0
-1509 0
153 154 -1510 0
-153 -154 -1510 0
153 -154 1510 0
-153 154 1510 0
1510 159 -1511 0
-1510 -159 -1511 0
1510 -159 1511 0
-1510 159 1511 0
1511 160 -1512 0
-1511 -160 -1512 0
1511 -160 1512 0
-1511 160 1512 0
1512 328 -1513 0
-1512 -328 -1513 0
1512 -328 1513 0
-1512 328 1513 0
1513 340 -1514 0
-1513 -340 -1514 0
1513 -340 1514 0
-1513 340 1514 0
1514 346 -1515 0
-1514 -346 -1515 0
1514 -346 1515 0
-1514 346 1515 0
1515 358 -1516 0
-1515 -358 -1516 0
1515 -358 1516 0
-1515 358 1516 0
-1516 0
154 155 -1517 0
-154 -155 -1517 0
154 -155 1517 0
-154 155 1517 0
1517 160 -1518 0
-1517 -160 -1518 0
1517 -160 1518 0
-1517 160 1518 0
1518 161 -1519 0
-1518 -161 -1519 0
1518 -161 1519 0
-1518 161 1519 0
1519 329 -1520 0
-1519 -329 -1520 0
1519 -329 1520 0
-1519 329 1520 0
1520 341 -1521 0
-1520 -341 -1521 0
1520 -341 1521 0
-1520 341 1521 0
1521 347 -1522 0
-1521 -347 -1522 0
1521 -347 1522 0
-1521 347 1522 0
1522 359 -1523 0
-1522 -359 -1523 0
1522 -359 1523 0
-1522 359 1523 0
-1523 0
155 156 -1524 0
-155 -156 -1524 0
155 -156 1524 0
-155 156 1524 0
1524 161 -1525 0
-1524 -161 -1525 0
1524 -161 1525 0
-1524 161 1525 0
1525 162 -1526 0
-1525 -162 -1526 0
1525 -162 1526 0
-1525 162 1526 0
1526 330 -1527 0
-1526 -330 -1527 0
1526 -330 1527 0
-1526 330 1527 0
1527 342 -1528 0
-1527 -342 -1528 0
1527 -342 1528 0
-1527 342 1528 0
1528 348 -1529 0
-1528 -348 -1529 0
1528 -348 1529 0
-1528 348 1529 0
1529 360 -1530 0
-1529 -360 -1530 0
1529 -360 1530 0
-1529 360 1530 0
-1530 0
156 157 -1531 0
-156 -157 -1531 0
156 -157 1531 0
-156 157 1531 0
1531 162 -1532 0
-1531 -162 -1532 0
1531 -162 1532 0
-1531 162 1532 0
1532 163 -1533 0
-1532 -163 -1533 0
1532 -163 1533 0
-1532 163 1533 0
1533 331 -1534 0
-1533 -331 -1534 0
1533 -331 1534 0
-1533 331 1534 0
1534 343 -1535 0
-1534 -343 -1535 0
1534 -343 1535 0
-1534 343 1535 0
1535 349 -1536 0
-1535 -349 -1536 0
1535 -349 1536 0
-1535 349 1536 0
1536 361 -1537 0
-1536 -361 -1537 0
1536 -361 1537 0
-1536 361 1537 0
-1537 0
157 158 -1538 0
-157 -158 -1538 0
157 -158 1538 0
-157 158 1538 0
1538 163 -1539 0
-1538 -163 -1539 0
1538 -163 1539 0
-1538 163 1539 0
1539 164 -1540 0
-1539 -164 -1540 0
1539 -164 1540 0
-1539 164 1540 0
1540 332 -1541 0
-1540 -332 -1541 0
1540 -332 1541 0
-1540 332 1541 0
1541 344 -1542 0
-1541 -344 -1542 0
1541 -344 1542 0
-1541 344 1542 0
1542 350 -1543 0
-1542 -350 -1543 0
1542 -350 1543 0
-1542 350 1543 0
1543 362 -1544 0
-1543 -362 -1544 0
1543 -362 1544 0
-1543 362 1544 0
-1544 0
158 159 -1545 0
-158 -159 -1545 0
158 -159 1545 0
-158 159 1545 0
1545 164 -1546 0
-1545 -164 -1546 0
1545 -164 1546 0
-1545 164 1546 0
1546 165 -1547 0
-1546 -165 -1547 0
1546 -165 1547 0
-1546 165 1547 0
1547 333 -1548 0
-1547 -333 -1548 0
1547 -333 1548 0
-1547 333 1548 0
1548 345 -1549 0
-1548 -345 -1549 0
1548 -345 1549 0
-1548 345 1549 0
1549 351 -1550 0
-1549 -351 -1550 0
1549 -351 1550 0
-1549 351 1550 0
1550 363 -1551 0
-1550 -363 -1551 0
1550 -363 1551 0
-1550 363 1551 0
-1551 0
159 160 -1552 0
-159 -160 -1552 0
159 -160 1552 0
-159 160 1552 0
1552 165 -1553 0
-1552 -165 -1553 0
1552 -165 1553 0
-1552 165 1553 0
1553 166 -1554 0
-1553 -166 -1554 0
1553 -166 1554 0
-1553 166 1554 0
1554 334 -1555 0
-1554 -334 -1555 0
1554 -334 1555 0
-1554 334 1555 0
1555 346 -1556 0
-1555 -346 -1556 0
1555 -346 1556 0
-1555 346 1556 0
1556 352 -1557 0
-1556 -352 -1557 0
1556 -352 1557 0
-1556 352 1557 0
1557 364 -1558 0
-1557 -364 -1558 0
1557 -364 1558 0
-1557 364 1558 0
-1558 0
160 161 -1559 0
-160 -161 -1559 0
160 -161 1559 0
-160 161 1559 0
1559 166 -1560 0
-1559 -166 -1560 0
1559 -166 1560 0
-1559 166 1560 0
1560 167 -1561 0
-1560 -167 -1561 0
1560 -167 1561 0
-1560 167 1561 0
1561 335 -1562 0
-1561 -335 -1562 0
1561 -335 1562 0
-1561 335 1562 0
1562 347 -1563 0
-1562 -347 -1563 0
1562 -347 1563 0
-1562 347 1563 0
1563 353 -1564 0
-1563 -353 -1564 0
1563 -353 1564 0
-1563 353 1564 0
1564 365 -1565 0
-1564 -365 -1565 0
1564 -365 1565 0
-1564 365 1565 0
-1565 0
161 162 -1566 0
-161 -162 -1566 0
161 -162 1566 0
-161 162 1566 0
1566 167 -1567 0
-1566 -167 -1567 0
1566 -167 1567 0
-1566 167 1567 0
1567 168 -1568 0
-1567 -168 -1568 0
1567 -168 1568 0
-1567 168 1568 0
1568 336 -1569 0
-1568 -336 -1569 0
1568 -336 1569 0
-1568 336 1569 0
1569 348 -1570 0
-1569 -348 -1570 0
1569 -348 1570 0
-1569 348 1570 0
1570 354 -1571 0
-1570 -354 -1571 0
1570 -354 1571 0
-1570 354 1571 0
1571 366 -1572 0
-1571 -366 -1572 0
1571 -366 1572 0
-1571 366 1572 0
-1572 0
162 163 -1573 0
-162 -163 -1573 0
162 -163 1573 0
-162 163 1573 0
1573 168 -1574 0
-1573 -168 -1574 0
1573 -168 1574 0
-1573 168 1574 0
1574 169 -1575 0
-1574 -169 -1575 0
1574 -169 1575 0
-1574 169 1575 0
1575 337 -1576 0
-1575 -337 -1576 0
1575 -337 1576 0
-1575 337 1576 0
1576 349 -1577 0
-1576 -349 -1577 0
1576 -349 1577 0
-1576 349 1577 0
1577 355 -1578 0
-1577 -355 -1578 0
1577 -355 1578 0
-1577 355 1578 0
1578 367 -1579 0
-1578 -367 -1579 0
1578 -367 1579 0
-1578 367 1579 0
-1579 0
163 164 -1580 0
-163 -164 -1580 0
163 -164 1580 0
-163 164 1580 0
1580 169 -1581 0
-1580 -169 -1581 0
1580 -169 1581 0
-1580 169 1581 0
1581 170 -1582 0
-1581 -170 -1582 0
1581 -170 1582 0
-1581 170 1582 0
1582 338 -1583 0
-1582 -338 -1583 0
1582 -338 1583 0
-1582 338 1583 0
1583 350 -1584 0
-1583 -350 -1584 0
1583 -350 1584 0
-1583 350 1584 0
1584 356 -1585 0
-1584 -356 -1585 0
1584 -356 1585 0
-1584 356 1585 0
1585 368 -1586 0
-1585 -368 -1586 0
1585 -368 1586 0
-1585 368 1586 0
-1586 0
164 165 -1587 0
-164 -165 -1587 0
164 -165 1587 0
-164 165 1587 0
1587 170 -1588 0
-1587 -170 -1588 0
1587 -170 1588 0
-1587 170 1588 0
1588 171 -1589 0
-1588 -171 -1589 0
1588 -171 1589 0
-1588 171 1589 0
1589 339 -1590 0
-1589 -339 -1590 0
1589 -339 1590 0
-1589 339 1590 0
1590 351 -1591 0
-1590 -351 -1591 0
1590 -351 1591 0
-1590 351 1591 0
1591 357 -1592 0
-1591 -357 -1592 0
1591 -357 1592 0
-1591 357 1592 0
1592 369 -1593 0
-1592 -369 -1593 0
1592 -369 1593 0
-1592 369 1593 0
-1593 0
165 166 -1594 0
-165 -166 -1594 0
165 -166 1594 0
-165 166 1594 0
1594 171 -1595 0
-1594 -171 -1595 0
1594 -171 1595 0
-1594 171 1595 0
1595 172 -1596 0
-1595 -172 -1596 0
1595 -172 1596 0
-1595 172 1596 0
1596 340 -1597 0
-1596 -340 -1597 0
1596 -340 1597 0
-1596 340 1597 0
1597 352 -1598 0
-1597 -352 -1598 0
1597 -352 1598 0
-1597 352 1598 0
1598 358 -1599 0
-1598 -358 -1599 0
1598 -358 1599 0
-1598 358 1599 0
1599 370 -1600 0
-1599 -370 -1600 0
1599 -370 1600 0
-1599 370 1600 0
-1600 0
166 167 -1601 0
-166 -167 -1601 0
166 -167 1601 0
-166 167 1601 0
1601 172 -1602 0
-1601 -172 -1602 0
1601 -172 1602 0
-1601 172 1602 0
1602 173 -1603 0
-1602 -173 -1603 0
1602 -173 1603 0
-1602 173 1603 0
1603 341 -1604 0
-1603 -341 -1604 0
1603 -341 1604 0
-1603 341 1604 0
1604 353 -1605 0
-1604 -353 -1605 0
1604 -353 1605 0
-1604 353 1605 0
1605 359 -1606 0
-1605 -359 -1606 0
1605 -359 1606 0
-1605 359 1606 0
1606 371 -1607 0
-1606 -371 -1607 0
1606 -371 1607 0
-1606 371 1607 0
-1607 0
167 168 -1608 0
-167 -168 -1608 0
167 -168 1608 0
-167 168 1608 0
1608 173 -1609 0
-1608 -173 -1609 0
1608 -173 1609 0
-1608 173 1609 0
1609 174 -1610 0
-1609 -174 -1610 0
1609 -174 1610 0
-1609 174 1610 0
1610 342 -1611 0
-1610 -342 -1611 0
1610 -342 1611 0
-1610 342 1611 0
1611 354 -1612 0
-1611 -354 -1612 0
1611 -354 1612 0
-1611 354 1612 0
1612 360 -1613 0
-1612 -360 -1613 0
1612 -360 1613 0
-1612 360 1613 0
1613 372 -1614 0
-1613 -372 -1614 0
1613 -372 1614 0
-1613 372 1614 0
-1614 0
168 169 -1615 0
-168 -169 -1615 0
168 -169 1615 0
-168 169 1615 0
1615 174 -1616 0
-1615 -174 -1616 0
1615 -174 1616 0
-1615 174 1616 0
1616 175 -1617 0
-1616 -175 -1617 0
1616 -175 1617 0
-1616 175 1617 0
1617 343 -1618 0
-1617 -343 -1618 0
1617 -343 1618 0
-1617 343 1618 0
1618 355 -1619 0
-1618 -355 -1619 0
1618 -355 1619 0
-1618 355 1619 0
1619 361 -1620 0
-1619 -361 -1620 0
1619 -361 1620 0
-1619 361 1620 0
1620 373 -1621 0
-1620 -373 -1621 0
1620 -373 1621 0
-1620 373 1621 0
-1621 0
169 170 -1622 0
-169 -170 -1622 0
169 -170 1622 0
-169 170 1622 0
1622 175 -1623 0
-1622 -175 -1623 0
1622 -175 1623 0
-1622 175 1623 0
1623 176 -1624 0
-1623 -176 -1624 0
1623 -176 1624 0
-1623 176 1624 0
1624 344 -1625 0
-1624 -344 -1625 0
1624 -344 1625 0
-1624 344 1625 0
1625 356 -1626 0
-1625 -356 -1626 0
1625 -356 1626 0
-1625 356 1626 0
1626 362 -1627 0
-1626 -362 -1627 0
1626 -362 1627 0
-1626 362 1627 0
1627 374 -1628 0
-1627 -374 -1628 0
1627 -374 1628 0
-1627 374 1628 0
-1628 0
170 171 -1629 0
-170 -171 -1629 0
170 -171 1629 0
-170 171 1629 0
1629 176 -1630 0
-1629 -176 -1630 0
1629 -176 1630 0
-1629 176 1630 0
1630 177 -1631 0
-1630 -177 -1631 0
1630 -177 1631 0
-1630 177 1631 0
1631 345 -1632 0
-1631 -345 -1632 0
1631 -345 1632 0
-1631 345 1632 0
1632 357 -1633 0
-1632 -357 -1633 0
1632 -357 1633 0
-1632 357 1633 0
1633 363 -1634 0
-1633 -363 -1634 0
1633 -363 1634 0
-1633 363 1634 0
1634 375 -1635 0
-1634 -375 -1635 0
1634 -375 1635 0
-1634 375 1635 0
-1635 0
171 172 -1636 0
-171 -172 -1636 0
171 -172 1636 0
-171 172 1636 0
1636 177 -1637 0
-1636 -177 -1637 0
1636 -177 1637 0
-1636 177 1637 0
1637 178 -1638 0
-1637 -178 -1638 0
1637 -178 1638 0
-1637 178 1638 0
1638 346 -1639 0
-1638 -346 -1639 0
1638 -346 1639 0
-1638 346 1639 0
1639 358 -1640 0
-1639 -358 -1640 0
1639 -358 1640 0
-1639 358 1640 0
1640 364 -1641 0
-1640 -364 -1641 0
1640 -364 1641 0
-1640 364 1641 0
1641 376 -1642 0
-1641 -376 -1642 0
1641 -376 1642 0
-1641 376 1642 0
-1642 0
172 173 -1643 0
-172 -173 -1643 0
172 -173 1643 0
-172 173 1643 0
1643 178 -1644 0
-1643 -178 -1644 0
1643 -178 1644 0
-1643 178 1644 0
1644 179 -1645 0
-1644 -179 -1645 0
1644 -179 1645 0
-1644 179 1645 0
1645 347 -1646 0
-1645 -347 -1646 0
1645 -347 1646 0
-1645 347 1646 0
1646 359 -1647 0
-1646 -359 -1647 0
1646 -359 1647 0
-1646 359 1647 0
1647 365 -1648 0
-1647 -365 -1648 0
1647 -365 1648 0
-1647 365 1648 0
1648 377 -1649 0
-1648 -377 -1649 0
1648 -377 1649 0
-1648 377 1649 0
-1649 0
173 174 -1650 0
-173 -174 -1650 0
173 -174 1650 0
-173 174 1650 0
1650 179 -1651 0
-1650 -179 -1651 0
1650 -179 1651 0
-1650 179 1651 0
1651 180 -1652 0
-1651 -180 -1652 0
1651 -180 1652 0
-1651 180 1652 0
1652 348 -1653 0
-1652 -348 -1653 0
1652 -348 1653 0
-1652 348 1653 0
1653 360 -1654 0
-1653 -360 -1654 0
1653 -360 1654 0
-1653 360 1654 0
1654 366 -1655 0
-1654 -366 -1655 0
1654 -366 1655 0
-1654 366 1655 0
1655 378 -1656 0
-1655 -378 -1656 0
1655 -378 1656 0
-1655 378 1656 0
-1656 0
174 175 -1657 0
-174 -175 -1657 0
174 -175 1657 0
-174 175 1657 0
1657 180 -1658 0
-1657 -180 -1658 0
1657 -180 1658 0
-1657 180 1658 0
1658 181 -1659 0
-1658 -181 -1659 0
1658 -181 1659 0
-1658 181 1659 0
1659 349 -1660 0
-1659 -349 -1660 0
1659 -349 1660 0
-1659 349 1660 0
1660 361 -1661 0
-1660 -361 -1661 0
1660 -361 1661 0
-1660 361 1661 0
1661 367 -1662 0
-1661 -367 -1662 0
1661 -367 1662 0
-1661 367 1662 0
1662 379 -1663 0
-1662 -379 -1663 0
1662 -379 1663 0
-1662 379 1663 0
-1663 0
175 176 -1664 0
-175 -176 -1664 0
175 -176 1664 0
-175 176 1664 0
1664 181 -1665 0
-1664 -181 -1665 0
1664 -181 1665 0
-1664 181 1665 0
1665 182 -1666 0
-1665 -182 -1666 0
1665 -182 1666 0
-1665 182 1666 0
1666 350 -1667 0
-1666 -350 -1667 0
1666 -350 1667 0
-1666 350 1667 0
1667 362 -1668 0
-1667 -362 -1668 0
1667 -362 1668 0
-1667 362 1668 0
1668 368 -1669 0
-1668 -368 -1669 0
1668 -368 1669 0
-1668 368 1669 0
1669 380 -1670 0
-1669 -380 -1670 0
1669 -380 1670 0
-1669 380 1670 0
-1670 0
176 177 -1671 0
-176 -177 -1671 0
176 -177 1671 0
-176 177 1671 0
1671 182 -1672 0
-1671 -182 -1672 0
1671 -182 1672 0
-1671 182 1672 0
1672 183 -1673 0
-1672 -183 -1673 0
1672 -183 1673 0
-1672 183 1673 0
1673 351 -1674 0
-1673 -351 -1674 0
1673 -351 1674 0
-1673 351 1674 0
1674 363 -1675 0
-1674 -363 -1675 0
1674 -363 1675 0
-1674 363 1675 0
1675 369 -1676 0
-1675 -369 -1676 0
1675 -369 1676 0
-1675 369 1676 0
1676 381 -1677 0
-1676 -381 -1677 0
1676 -381 1677 0
-1676 381 1677 0
-1677 0
177 178 -1678 0
-177 -178 -1678 0
177 -178 1678 0
-177 178 1678 0
1678 183 -1679 0
-1678 -183 -1679 0
1678 -183 1679 0
-1678 183 1679 0
1679 184 -1680 0
-1679 -184 -1680 0
1679 -184 1680 0
-1679 184 1680 0
1680 352 -1681 0
-1680 -352 -1681 0
1680 -352 1681 0
-1680 352 1681 0
1681 364 -1682 0
-1681 -364 -1682 0
1681 -364 1682 0
-1681 364 1682 0
1682 370 -1683 0
-1682 -370 -1683 0
1682 -370 1683 0
-1682 370 1683 0
1683 382 -1684 0
-1683 -382 -1684 0
1683 -382 1684 0
-1683 382 1684 0
-1684 0
178 179 -1685 0
-178 -179 -1685 0
178 -179 1685 0
-178 179 1685 0
1685 184 -1686 0
-1685 -184 -1686 0
1685 -184 1686 0
-1685 184 1686 0
1686 185 -1687 0
-1686 -185 -1687 0
1686 -185 1687 0
-1686 185 1687 0
1687 353 -1688 0
-1687 -353 -1688 0
1687 -353 1688 0
-1687 353 1688 0
1688 365 -1689 0
-1688 -365 -1689 0
1688 -365 1689 0
-1688 365 1689 0
1689 371 -1690 0
-1689 -371 -1690 0
1689 -371 1690 0
-1689 371 1690 0
1690 383 -1691 0
-1690 -383 -1691 0
1690 -383 1691 0
-1690 383 1691 0
-1691 0
179 180 -1692 0
-179 -180 -1692 0
179 -180 1692 0
-179 180 1692 0
1692 185 -1693 0
-1692 -185 -1693 0
1692 -185 1693 0
-1692 185 1693 0
1693 186 -1694 0
-1693 -186 -1694 0
1693 -186 1694 0
-1693 186 1694 0
1694 354 -1695 0
-1694 -354 -1695 0
1694 -354 1695 0
-1694 354 1695 0
1695 366 -1696 0
-1695 -366 -1696 0
1695 -366 1696 0
-1695 366 1696 0
1696 372 -1697 0
-1696 -372 -1697 0
1696 -372 1697 0
-1696 372 1697 0
1697 384 -1698 0
-1697 -384 -1698 0
1697 -384 1698 0
-1697 384 1698 0
-1698 0
180 181 -1699 0
-180 -181 -1699 0
180 -181 1699 0
-180 181 1699 0
1699 186 -1700 0
-1699 -186 -1700 0
1699 -186 1700 0
-1699 186 1700 0
1700 187 -1701 0
-1700 -187 -1701 0
1700 -187 1701 0
-1700 187 1701 0
1701 355 -1702 0
-1701 -355 -1702 0
1701 -355 1702 0
-1701 355 1702 0
1702 367 -1703 0
-1702 -367 -1703 0
1702 -367 1703 0
-1702 367 1703 0
1703 373 -1704 0
-1703 -373 -1704 0
1703 -373 1704 0
-1703 373 1704 0
1704 385 -1705 0
-1704 -385 -1705 0
1704 -385 1705 0
-1704 385 1705 0
-1705 0
181 182 -1706 0
-181 -182 -1706 0
181 -182 1706 0
-181 182 1706 0
1706 187 -1707 0
-1706 -187 -1707 0
1706 -187 1707 0
-1706 187 1707 0
1707 188 -1708 0
-1707 -188 -1708 0
1707 -188 1708 0
-1707 188 1708 0
1708 356 -1709 0
-1708 -356 -1709 0
1708 -356 1709 0
-1708 356 1709 0
1709 368 -1710 0
-1709 -368 -1710 0
1709 -368 1710 0
-1709 368 1710 0
1710 374 -1711 0
-1710 -374 -1711 0
1710 -374 1711 0
-1710 374 1711 0
1711 386 -1712 0
-1711 -386 -1712 0
1711 -386 1712 0
-1711 386 1712 0
-1712 0
182 183 -1713 0
-182 -183 -1713 0
182 -183 1713 0
-182 183 1713 0
1713 188 -1714 0
-1713 -188 -1714 0
1713 -188 1714 0
-1713 188 1714 0
1714 189 -1715 0
-1714 -189 -1715 0
1714 -189 1715 0
-1714 189 1715 0
1715 357 -1716 0
-1715 -357 -1716 0
1715 -357 1716 0
-1715 357 1716 0
1716 369 -1717 0
-1716 -369 -1717 0
1716 -369 1717 0
-1716 369 1717 0
1717 375 -1718 0
-1717 -375 -1718 0
1717 -375 1718 0
-1717 375 1718 0
1718 387 -1719 0
-1718 -387 -1719 0
1718 -387 1719 0
-1718 387 1719 0
-1719 0
183 184 -1720 0
-183 -184 -1720 0
183 -184 1720 0
-183 184 1720 0
1720 189 -1721 0
-1720 -189 -1721 0
1720 -189 1721 0
-1720 189 1721 0
1721 190 -1722 0
-1721 -190 -1722 0
1721 -190 1722 0
-1721 190 1722 0
1722 358 -1723 0
-1722 -358 -1723 0
1722 -358 1723 0
-1722 358 1723 0
1723 370 -1724 0
-1723 -370 -1724 0
1723 -370 1724 0
-1723 370 1724 0
1724 376 -1725 0
-1724 -376 -1725 0
1724 -376 1725 0
-1724 376 1725 0
1725 388 -1726 0
-1725 -388 -1726 0
1725 -388 1726 0
-1725 388 1726 0
-1726 0
184 185 -1727 0
-184 -185 -1727 0
184 -185 1727 0
-184 185 1727 0
1727 190 -1728 0
-1727 -190 -1728 0
1727 -190 1728 0
-1727 190 1728 0
1728 191 -1729 0
-1728 -191 -1729 0
1728 -191 1729 0
-1728 191 1729 0
1729 359 -1730 0
-1729 -359 -1730 0
1729 -359 1730 0
-1729 359 1730 0
1730 371 -1731 0
-1730 -371 -1731 0
1730 -371 1731 0
-1730 371 1731 0
1731 377 -1732 0
-1731 -377 -1732 0
1731 -377 1732 0
-1731 377 1732 0
1732 389 -1733 0
-1732 -389 -1733 0
1732 -389 1733 0
-1732 389 1733 0
-1733 0
185 186 -1734 0
-185 -186 -1734 0
185 -186 1734 0
-185 186 1734 0
1734 191 -1735 0
-1734 -191 -1735 0
1734 -191 1735 0
-1734 191 1735 0
1735 192 -1736 0
-1735 -192 -1736 0
1735 -192 1736 0
-1735 192 1736 0
1736 360 -1737 0
-1736 -360 -1737 0
1736 -360 1737 0
-1736 360 1737 0
1737 372 -1738 0
-1737 -372 -1738 0
1737 -372 1738 0
-1737 372 1738 0
1738 378 -1739 0
-1738 -378 -1739 0
1738 -378 1739 0
-1738 378 1739 0
1739 390 -1740 0
-1739 -390 -1740 0
1739 -390 1740 0
-1739 390 1740 0
-1740 0
186 187 -1741 0
-186 -187 -1741 0
186 -187 1741 0
-186 187 1741 0
1741 192 -1742 0
-1741 -192 -1742 0
1741 -192 1742 0
-1741 192 1742 0
1742 193 -1743 0
-1742 -193 -1743 0
1742 -193 1743 0
-1742 193 1743 0
1743 361 -1744 0
-1743 -361 -1744 0
1743 -361 1744 0
-1743 361 1744 0
1744 373 -1745 0
-1744 -373 -1745 0
1744 -373 1745 0
-1744 373 1745 0
1745 379 -1746 0
-1745 -379 -1746 0
1745 -379 1746 0
-1745 379 1746 0
1746 391 -1747 0
-1746 -391 -1747 0
1746 -391 1747 0
-1746 391 1747 0
-1747 0
187 188 -1748 0
-187 -188 -1748 0
187 -188 1748 0
-187 188 1748 0
1748 193 -1749 0
-1748 -193 -1749 0
1748 -193 1749 0
-1748 193 1749 0
1749 194 -1750 0
-1749 -194 -1750 0
1749 -194 1750 0
-1749 194 1750 0
1750 362 -1751 0
-1750 -362 -1751 0
1750 -362 1751 0
-1750 362 1751 0
1751 374 -1752 0
-1751 -374 -1752 0
1751 -374 1752 0
-1751 374 1752 0
1752 380 -1753 0
-1752 -380 -1753 0
1752 -380 1753 0
-1752 380 1753 0
1753 392 -1754 0
-1753 -392 -1754 0
1753 -392 1754 0
-1753 392 1754 0
-1754 0
188 189 -1755 0
-188 -189 -1755 0
188 -189 1755 0
-188 189 1755 0
1755 194 -1756 0
-1755 -194 -1756 0
1755 -194 1756 0
-1755 194 1756 0
1756 195 -1757 0
-1756 -195 -1757 0
1756 -195 1757 0
-1756 195 1757 0
1757 363 -1758 0
-1757 -363 -1758 0
1757 -363 1758 0
-1757 363 1758 0
1758 375 -1759 0
-1758 -375 -1759 0
1758 -375 1759 0
-1758 375 1759 0
1759 381 -1760 0
-1759 -381 -1760 0
1759 -381 1760 0
-1759 381 1760 0
1760 393 -1761 0
-1760 -393 -1761 0
1760 -393 1761 0
-1760 393 1761 0
-1761 0
189 190 -1762 0
-189 -190 -1762 0
189 -190 1762 0
-189 190 1762 0
1762 195 -1763 0
-1762 -195 -1763 0
1762 -195 1763 0
-1762 195 1763 0
1763 196 -1764 0
-1763 -196 -1764 0
1763 -196 1764 0
-1763 196 1764 0
1764 364 -1765 0
-1764 -364 -1765 0
1764 -364 1765 0
-1764 364 1765 0
1765 376 -1766 0
-1765 -376 -1766 0
1765 -376 1766 0
-1765 376 1766 0
1766 382 -1767 0
-1766 -382 -1767 0
1766 -382 1767 0
-1766 382 1767 0
1767 394 -1768 0
-1767 -394 -1768 0
1767 -394 1768 0
-1767 394 1768 0
-1768 0
190 191 -1769 0
-190 -191 -1769 0
190 -191 1769 0
-190 191 1769 0
1769 196 -1770 0
-1769 -196 -1770 0
1769 -196 1770 0
-1769 196 1770 0
1770 197 -1771 0
-1770 -197 -1771 0
1770 -197 1771 0
-1770 197 1771 0
1771 365 -1772 0
-1771 -365 -1772 0
1771 -365 1772 0
-1771 365 1772 0
1772 377 -1773 0
-1772 -377 -1773 0
1772 -377 1773 0
-1772 377 1773 0
1773 383 -1774 0
-1773 -383 -1774 0
1773 -383 1774 0
-1773 383 1774 0
1774 395 -1775 0
-1774 -395 -1775 0
1774 -395 1775 0
-1774 395 1775 0
-1775 0
191 192 -1776 0
-191 -192 -1776 0
191 -192 1776 0
-191 192 1776 0
1776 197 -1777 0
-1776 -197 -1777 0
1776 -197 1777 0
-1776 197 1777 0
1777 198 -1778 0
-1777 -198 -1778 0
1777 -198 1778 0
-1777 198 1778 0
1778 366 -1779 0
-1778 -366 -1779 0
1778 -366 1779 0
-1778 366 1779 0
1779 378 -1780 0
-1779 -378 -1780 0
1779 -378 1780 0
-1779 378 1780 0
1780 384 -1781 0
-1780 -384 -1781 0
1780 -384 1781 0
-1780 384 1781 0
1781 396 -1782 0
-1781 -396 -1782 0
1781 -396 1782 0
-1781 396 1782 0
-1782 0
1 205 -1783 0
-1 -205 -1783 0
1 -205 1783 0
-1 205 1783 0
1783 211 -1784 0
-1783 -211 -1784 0
1783 -211 1784 0
-1783 211 1784 0
1784 217 -1785 0
-1784 -217 -1785 0
1784 -217 1785 0
-1784 217 1785 0
1785 223 -1786 0
-1785 -223 -1786 0
1785 -223 1786 0
-1785 223 1786 0
1786 229 -1787 0
-1786 -229 -1787 0
1786 -229 1787 0
-1786 229 1787 0
1787 235 -1788 0
-1787 -235 -1788 0
1787 -235 1788 0
-1787 235 1788 0
1788 241 -1789 0
-1788 -241 -1789 0
1788 -241 1789 0
-1788 241 1789 0
1789 247 -1790 0
-1789 -247 -1790 0
1789 -247 1790 0
-1789 247 1790 0
1790 253 -1791 0
-1790 -253 -1791 0
1790 -253 1791 0
-1790 253 1791 0
1791 259 -1792 0
-1791 -259 -1792 0
1791 -259 1792 0
-1791 259 1792 0
1792 265 -1793 0
-1792 -265 -1793 0
1792 -265 1793 0
-1792 265 1793 0
1793 271 -1794 0
-1793 -271 -1794 0
1793 -271 1794 0
-1793 271 1794 0
1794 277 -1795 0
-1794 -277 -1795 0
1794 -277 1795 0
-1794 277 1795 0
1795 283 -1796 0
-1795 -283 -1796 0
1795 -283 1796 0
-1795 283 1796 0
1796 289 -1797 0
-1796 -289 -1797 0
1796 -289 1797 0
-1796 289 1797 0
1797 295 -1798 0
-1797 -295 -1798 0
1797 -295 1798 0
-1797 295 1798 0
1798 301 -1799 0
-1798 -301 -1799 0
1798 -301 1799 0
-1798 301 1799 0
1799 307 -1800 0
-1799 -307 -1800 0
1799 -307 1800 0
-1799 307 1800 0
1800 313 -1801 0
-1800 -313 -1801 0
1800 -313 1801 0
-1800 313 1801 0
1801 319 -1802 0
-1801 -319 -1802 0
1801 -319 1802 0
-1801 319 1802 0
1802 325 -1803 0
-1802 -325 -1803 0
1802 -325 1803 0
-1802 325 1803 0
1803 331 -1804 0
-1803 -331 -1804 0
1803 -331 1804 0
-1803 331 1804 0
1804 337 -1805 0
-1804 -337 -1805 0
1804 -337 1805 0
-1804 337 1805 0
1805 343 -1806 0
-1805 -343 -1806 0
1805 -343 1806 0
-1805 343 1806 0
1806 349 -1807 0
-1806 -349 -1807 0
1806 -349 1807 0
-1806 349 1807 0
1807 355 -1808 0
-1807 -355 -1808 0
1807 -355 1808 0
-1807 355 1808 0
1808 361 -1809 0
-1808 -361 -1809 0
1808 -361 1809 0
-1808 361 1809 0
1809 367 -1810 0
-1809 -367 -1810 0
1809 -367 1810 0
-1809 367 1810 0
1810 373 -1811 0
-1810 -373 -1811 0
1810 -373 1811 0
-1810 373 1811 0
1811 374 -1812 0
-1811 -374 -1812 0
1811 -374 1812 0
-1811 374 1812 0
1812 375 -1813 0
-1812 -375 -1813 0
1812 -375 1813 0
-1812 375 1813 0
1813 376 -1814 0
-1813 -376 -1814 0
1813 -376 1814 0
-1813 376 1814 0
1814 377 -1815 0
-1814 -377 -1815 0
1814 -377 1815 0
-1814 377 1815 0
1815 378 -1816 0
-1815 -378 -1816 0
1815 -378 1816 0
-1815 378 1816 0
1816 385 -1817 0
-1816 -385 -1817 0
1816 -385 1817 0
-1816 385 1817 0
1817 391 -1818 0
-1817 -391 -1818 0
1817 -391 1818 0
-1817 391 1818 0
1818 392 -1819 0
-1818 -392 -1819 0
1818 -392 1819 0
-1818 392 1819 0
1819 393 -1820 0
-1819 -393 -1820 0
1819 -393 1820 0
-1819 393 1820 0
1820 394 -1821 0
-1820 -394 -1821 0
1820 -394 1821 0
-1820 394 1821 0
1821 395 -1822 0
-1821 -395 -1822 0
1821 -395 1822 0
-1821 395 1822 0
1822 396 -1823 0
-1822 -396 -1823 0
1822 -396 1823 0
-1822 396 1823 0
2 205 -1824 0
-2 -205 -1824 0
2 -205 1824 0
-2 205 1824 0
1824 206 -1825 0
-1824 -206 -1825 0
1824 -206 1825 0
-1824 206 1825 0
1825 211 -1826 0
-1825 -211 -1826 0
1825 -211 1826 0
-1825 211 1826 0
1826 212 -1827 0
-1826 -212 -1827 0
1826 -212 1827 0
-1826 212 1827 0
1827 217 -1828 0
-1827 -217 -1828 0
1827 -217 1828 0
-1827 217 1828 0
1828 218 -1829 0
-1828 -218 -1829 0
1828 -218 1829 0
-1828 218 1829 0
1829 223 -1830 0
-1829 -223 -1830 0
1829 -223 1830 0
-1829 223 1830 0
1830 224 -1831 0
-1830 -224 -1831 0
1830 -224 1831 0
-1830 224 1831 0
1831 229 -1832 0
-1831 -229 -1832 0
1831 -229 1832 0
-1831 229 1832 0
1832 230 -1833 0
-1832 -230 -1833 0
1832 -230 1833 0
-1832 230 1833 0
1833 235 -1834 0
-1833 -235 -1834 0
1833 -235 1834 0
-1833 235 1834 0
1834 236 -1835 0
-1834 -236 -1835 0
1834 -236 1835 0
-1834 236 1835 0
1835 241 -1836 0
-1835 -241 -1836 0
1835 -241 1836 0
-1835 241 1836 0
1836 242 -1837 0
-1836 -242 -1837 0
1836 -242 1837 0
-1836 242 1837 0
1837 247 -1838 0
-1837 -247 -1838 0
1837 -247 1838 0
-1837 247 1838 0
1838 248 -1839 0
-1838 -248 -1839 0
1838 -248 1839 0
-1838 248 1839 0
1839 253 -1840 0
-1839 -253 -1840 0
1839 -253 1840 0
-1839 253 1840 0
1840 254 -1841 0
-1840 -254 -1841 0
1840 -254 1841 0
-1840 254 1841 0
1841 259 -1842 0
-1841 -259 -1842 0
1841 -259 1842 0
-1841 259 1842 0
1842 260 -1843 0
-1842 -260 -1843 0
1842 -260 1843 0
-1842 260 1843 0
1843 265 -1844 0
-1843 -265 -1844 0
1843 -265 1844 0
-1843 265 1844 0
1844 266 -1845 0
-1844 -266 -1845 0
1844 -266 1845 0
-1844 266 1845 0
1845 271 -1846 0
-1845 -271 -1846 0
1845 -271 1846 0
-1845 271 1846 0
1846 272 -1847 0
-1846 -272 -1847 0
1846 -272 1847 0
-1846 272 1847 0
1847 277 -1848 0
-1847 -277 -1848 0
1847 -277 1848 0
-1847 277 1848 0
1848 278 -1849 0
-1848 -278 -1849 0
1848 -278 1849 0
-1848 278 1849 0
1849 283 -1850 0
-1849 -283 -1850 0
1849 -283 1850 0
-1849 283 1850 0
1850 284 -1851 0
-1850 -284 -1851 0
1850 -284 1851 0
-1850 284 1851 0
1851 289 -1852 0
-1851 -289 -1852 0
1851 -289 1852 0
-1851 289 1852 0
1852 290 -1853 0
-1852 -290 -1853 0
1852 -290 1853 0
-1852 290 1853 0
1853 295 -1854 0
-1853 -295 -1854 0
1853 -295 1854 0
-1853 295 1854 0
1854 296 -1855 0
-1854 -296 -1855 0
1854 -296 1855 0
-1854 296 1855 0
1855 301 -1856 0
-1855 -301 -1856 0
1855 -301 1856 0
-1855 301 1856 0
1856 302 -1857 0
-1856 -302 -1857 0
1856 -302 1857 0
-1856 302 1857 0
1857 307 -1858 0
-1857 -307 -1858 0
1857 -307 1858 0
-1857 307 1858 0
1858 308 -1859 0
-1858 -308 -1859 0
1858 -308 1859 0
-1858 308 1859 0
1859 313 -1860 0
-1859 -313 -1860 0
1859 -313 1860 0
-1859 313 1860 0
1860 314 -1861 0
-1860 -314 -1861 0
1860 -314 1861 0
-1860 314 1861 0
1861 319 -1862 0
-1861 -319 -1862 0
1861 -319 1862 0
-1861 319 1862 0
1862 320 -1863 0
-1862 -320 -1863 0
1862 -320 1863 0
-1862 320 1863 0
1863 325 -1864 0
-1863 -325 -1864 0
1863 -325 1864 0
-1863 325 1864 0
1864 326 -1865 0
-1864 -326 -1865 0
1864 -326 1865 0
-1864 326 1865 0
1865 331 -1866 0
-1865 -331 -1866 0
1865 -331 1866 0
-1865 331 1866 0
1866 332 -1867 0
-1866 -332 -1867 0
1866 -332 1867 0
-1866 332 1867 0
1867 337 -1868 0
-1867 -337 -1868 0
1867 -337 1868 0
-1867 337 1868 0
1868 338 -1869 0
-1868 -338 -1869 0
1868 -338 1869 0
-1868 338 1869 0
1869 343 -1870 0
-1869 -343 -1870 0
1869 -343 1870 0
-1869 343 1870 0
1870 344 -1871 0
-1870 -344 -1871 0
1870 -344 1871 0
-1870 344 1871 0
1871 349 -1872 0
-1871 -349 -1872 0
1871 -349 1872 0
-1871 349 1872 0
1872 350 -1873 0
-1872 -350 -1873 0
1872 -350 1873 0
-1872 350 1873 0
1873 355 -1874 0
-1873 -355 -1874 0
1873 -355 1874 0
-1873 355 1874 0
1874 356 -1875 0
-1874 -356 -1875 0
1874 -356 1875 0
-1874 356 1875 0
1875 361 -1876 0
-1875 -361 -1876 0
1875 -361 1876 0
-1875 361 1876 0
1876 362 -1877 0
-1876 -362 -1877 0
1876 -362 1877 0
-1876 362 1877 0
1877 367 -1878 0
-1877 -367 -1878 0
1877 -367 1878 0
-1877 367 1878 0
1878 368 -1879 0
-1878 -368 -1879 0
1878 -368 1879 0
-1878 368 1879 0
1879 373 -1880 0
-1879 -373 -1880 0
1879 -373 1880 0
-1879 373 1880 0
1880 374 -1881 0
-1880 -374 -1881 0
1880 -374 1881 0
-1880 374 1881 0
1881 375 -1882 0
-1881 -375 -1882 0
1881 -375 1882 0
-1881 375 1882 0
1882 376 -1883 0
-1882 -376 -1883 0
1882 -376 1883 0
-1882 376 1883 0
1883 377 -1884 0
-1883 -377 -1884 0
1883 -377 1884 0
-1883 377 1884 0
1884 378 -1885 0
-1884 -378 -1885 0
1884 -378 1885 0
-1884 378 1885 0
1885 385 -1886 0
-1885 -385 -1886 0
1885 -385 1886 0
-1885 385 1886 0
1886 386 -1887 0
-1886 -386 -1887 0
1886 -386 1887 0
-1886 386 1887 0
1887 391 -1888 0
-1887 -391 -1888 0
1887 -391 1888 0
-1887 391 1888 0
1888 392 -1889 0
-1888 -392 -1889 0
1888 -392 1889 0
-1888 392 1889 0
1889 393 -1890 0
-1889 -393 -1890 0
1889 -393 1890 0
-1889 393 1890 0
1890 394 -1891 0
-1890 -394 -1891 0
1890 -394 1891 0
-1890 394 1891 0
1891 395 -1892 0
-1891 -395 -1892 0
1891 -395 1892 0
-1891 395 1892 0
1892 396 -1893 0
-1892 -396 -1893 0
1892 -396 1893 0
-1892 396 1893 0
3 205 -1894 0
-3 -205 -1894 0
3 -205 1894 0
-3 205 1894 0
1894 206 -1895 0
-1894 -206 -1895 0
1894 -206 1895 0
-1894 206 1895 0
1895 207 -1896 0
-1895 -207 -1896 0
1895 -207 1896 0
-1895 207 1896 0
1896 211 -1897 0
-1896 -211 -1897 0
1896 -211 1897 0
-1896 211 1897 0
1897 212 -1898 0
-1897 -212 -1898 0
1897 -212 1898 0
-1897 212 1898 0
1898 213 -1899 0
-1898 -213 -1899 0
1898 -213 1899 0
-1898 213 1899 0
1899 217 -1900 0
-1899 -217 -1900 0
1899 -217 1900 0
-1899 217 1900 0
1900 218 -1901 0
-1900 -218 -1901 0
1900 -218 1901 0
-1900 218 1901 0
1901 219 -1902 0
-1901 -219 -1902 0
1901 -219 1902 0
-1901 219 1902 0
1902 223 -1903 0
-1902 -223 -1903 0
1902 -223 1903 0
-1902 223 1903 0
1903 224 -1904 0
-1903 -224 -1904 0
1903 -224 1904 0
-1903 224 1904 0
1904 225 -1905 0
-1904 -225 -1905 0
1904 -225 1905 0
-1904 225 1905 0
1905 229 -1906 0
-1905 -229 -1906 0
1905 -229 1906 0
-1905 229 1906 0
1906 230 -1907 0
-1906 -230 -1907 0
1906 -230 1907 0
-1906 230 1907 0
1907 231 -1908 0
-1907 -231 -1908 0
1907 -231 1908 0
-1907 231 1908 0
1908 235 -1909 0
-1908 -235 -1909 0
1908 -235 1909 0
-1908 235 1909 0
1909 236 -1910 0
-1909 -236 -1910 0
1909 -236 1910 0
-1909 236 1910 0
1910 237 -1911 0
-1910 -237 -1911 0
1910 -237 1911 0
-1910 237 1911 0
1911 241 -1912 0
-1911 -241 -1912 0
1911 -241 1912 0
-1911 241 1912 0
1912 242 -1913 0
-1912 -242 -1913 0
1912 -242 1913 0
-1912 242 1913 0
1913 243 -1914 0
-1913 -243 -1914 0
1913 -243 1914 0
-1913 243 1914 0
1914 247 -1915 0
-1914 -247 -1915 0
1914 -247 1915 0
-1914 247 1915 0
1915 248 -1916 0
-1915 -248 -1916 0
1915 -248 1916 0
-1915 248 1916 0
1916 249 -1917 0
-1916 -249 -1917 0
1916 -249 1917 0
-1916 249 1917 0
1917 253 -1918 0
-1917 -253 -1918 0
1917 -253 1918 0
-1917 253 1918 0
1918 254 -1919 0
-1918 -254 -1919 0
1918 -254 1919 0
-1918 254 1919 0
1919 255 -1920 0
-1919 -255 -1920 0
1919 -255 1920 0
-1919 255 1920 0
1920 259 -1921 0
-1920 -259 -1921 0
1920 -259 1921 0
-1920 259 1921 0
1921 260 -1922 0
-1921 -260 -1922 0
1921 -260 1922 0
-1921 260 1922 0
1922 261 -1923 0
-1922 -261 -1923 0
1922 -261 1923 0
-1922 261 1923 0
1923 265 -1924 0
-1923 -265 -1924 0
1923 -265 1924 0
-1923 265 1924 0
1924 266 -1925 0
-1924 -266 -1925 0
1924 -266 1925 0
-1924 266 1925 0
1925 267 -1926 0
-1925 -267 -1926 0
1925 -267 1926 0
-1925 267 1926 0
1926 271 -1927 0
-1926 -271 -1927 0
1926 -271 1927 0
-1926 271 1927 0
1927 272 -1928 0
-1927 -272 -1928 0
1927 -272 1928 0
-1927 272 1928 0
1928 273 -1929 0
-1928 -273 -1929 0
1928 -273 1929 0
-1928 273 1929 0
1929 277 -1930 0
-1929 -277 -1930 0
1929 -277 1930 0
-1929 277 1930 0
1930 278 -1931 0
-1930 -278 -1931 0
1930 -278 1931 0
-1930 278 1931 0
1931 279 -1932 0
-1931 -279 -1932 0
1931 -279 1932 0
-1931 279 1932 0
1932 283 -1933 0
-1932 -283 -1933 0
1932 -283 1933 0
-1932 283 1933 0
1933 284 -1934 0
-1933 -284 -1934 0
1933 -284 1934 0
-1933 284 1934 0
1934 285 -1935 0
-1934 -285 -1935 0
1934 -285 1935 0
-1934 285 1935 0
1935 289 -1936 0
-1935 -289 -1936 0
1935 -289 1936 0
-1935 289 1936 0
1936 290 -1937 0
-1936 -290 -1937 0
1936 -290 1937 0
-1936 290 1937 0
1937 291 -1938 0
-1937 -291 -1938 0
1937 -291 1938 0
-1937 291 1938 0
1938 295 -1939 0
-1938 -295 -1939 0
1938 -295 1939 0
-1938 295 1939 0
1939 296 -1940 0
-1939 -296 -1940 0
1939 -296 1940 0
-1939 296 1940 0
1940 297 -1941 0
-1940 -297 -1941 0
1940 -297 1941 0
-1940 297 1941 0
1941 301 -1942 0
-1941 -301 -1942 0
1941 -301 1942 0
-1941 301 1942 0
1942 302 -1943 0
-1942 -302 -1943 0
1942 -302 1943 0
-1942 302 1943 0
1943 303 -1944 0
-1943 -303 -1944 0
1943 -303 1944 0
-1943 303 1944 0
1944 307 -1945 0
-1944 -307 -1945 0
1944 -307 1945 0
-1944 307 1945 0
1945 308 -1946 0
-1945 -308 -1946 0
1945 -308 1946 0
-1945 308 1946 0
1946 309 -1947 0
-1946 -309 -1947 0
1946 -309 1947 0
-1946 309 1947 0
1947 313 -1948 0
-1947 -313 -1948 0
1947 -313 1948 0
-1947 313 1948 0
1948 314 -1949 0
-1948 -314 -1949 0
1948 -314 1949 0
-1948 314 1949 0
1949 315 -1950 0
-1949 -315 -1950 0
1949 -315 1950 0
-1949 315 1950 0
1950 319 -1951 0
-1950 -319 -1951 0
1950 -319 1951 0
-1950 319 1951 0
1951 320 -1952 0
-1951 -320 -1952 0
1951 -320 1952 0
-1951 320 1952 0
1952 321 -1953 0
-1952 -321 -1953 0
1952 -321 1953 0
-1952 321 1953 0
1953 325 -1954 0
-1953 -325 -1954 0
1953 -325 1954 0
-1953 325 1954 0
1954 326 -1955 0
-1954 -326 -1955 0
1954 -326 1955 0
-1954 326 1955 0
1955 327 -1956 0
-1955 -327 -1956 0
1955 -327 1956 0
-1955 327 1956 0
1956 331 -1957 0
-1956 -331 -1957 0
1956 -331 1957 0
-1956 331 1957 0
1957 332 -1958 0
-1957 -332 -1958 0
1957 -332 1958 0
-1957 332 1958 0
1958 333 -1959 0
-1958 -333 -1959 0
1958 -333 1959 0
-1958 333 1959 0
1959 337 -1960 0
-1959 -337 -1960 0
1959 -337 1960 0
-1959 337 1960 0
1960 338 -1961 0
-1960 -338 -1961 0
1960 -338 1961 0
-1960 338 1961 0
1961 339 -1962 0
-1961 -339 -1962 0
1961 -339 1962 0
-1961 339 1962 0
1962 343 -1963 0
-1962 -343 -1963 0
1962 -343 1963 0
-1962 343 1963 0
1963 344 -1964 0
-1963 -344 -1964 0
1963 -344 1964 0
-1963 344 1964 0
1964 345 -1965 0
-1964 -345 -1965 0
1964 -345 1965 0
-1964 345 1965 0
1965 349 -1966 0
-1965 -349 -1966 0
1965 -349 1966 0
-1965 349 1966 0
1966 350 -1967 0
-1966 -350 -1967 0
1966 -350 1967 0
-1966 350 1967 0
1967 351 -1968 0
-1967 -351 -1968 0
1967 -351 1968 0
-1967 351 1968 0
1968 355 -1969 0
-1968 -355 -1969 0
1968 -355 1969 0
-1968 355 1969 0
1969 356 -1970 0
-1969 -356 -1970 0
1969 -356 1970 0
-1969 356 1970 0
1970 357 -1971 0
-1970 -357 -1971 0
1970 -357 1971 0
-1970 357 1971 0
1971 361 -1972 0
-1971 -361 -1972 0
1971 -361 1972 0
-1971 361 1972 0
1972 362 -1973 0
-1972 -362 -1973 0
1972 -362 1973 0
-1972 362 1973 0
1973 363 -1974 0
-1973 -363 -1974 0
1973 -363 1974 0
-1973 363 1974 0
1974 367 -1975 0
-1974 -367 -1975 0
1974 -367 1975 0
-1974 367 1975 0
1975 368 -1976 0
-1975 -368 -1976 0
1975 -368 1976 0
-1975 368 1976 0
1976 369 -1977 0
-1976 -369 -1977 0
1976 -369 1977 0
-1976 369 1977 0
1977 373 -1978 0
-1977 -373 -1978 0
1977 -373 1978 0
-1977 373 1978 0
1978 374 -1979 0
-1978 -374 -1979 0
1978 -374 1979 0
-1978 374 1979 0
1979 375 -1980 0
-1979 -375 -1980 0
1979 -375 1980 0
-1979 375 1980 0
1980 376 -1981 0
-1980 -376 -1981 0
1980 -376 1981 0
-1980 376 1981 0
1981 377 -1982 0
-1981 -377 -1982 0
1981 -377 1982 0
-1981 377 1982 0
1982 378 -1983 0
-1982 -378 -1983 0
1982 -378 1983 0
-1982 378 1983 0
1983 385 -1984 0
-1983 -385 -1984 0
1983 -385 1984 0
-1983 385 1984 0
1984 386 -1985 0
-1984 -386 -1985 0
1984 -386 1985 0
-1984 386 1985 0
1985 387 -1986 0
-1985 -387 -1986 0
1985 -387 1986 0
-1985 387 1986 0
1986 391 -1987 0
-1986 -391 -1987 0
1986 -391 1987 0
-1986 391 1987 0
1987 392 -1988 0
-1987 -392 -1988 0
1987 -392 1988 0
-1987 392 1988 0
1988 393 -1989 0
-1988 -393 -1989 0
1988 -393 1989 0
-1988 393 1989 0
1989 394 -1990 0
-1989 -394 -1990 0
1989 -394 1990 0
-1989 394 1990 0
1990 395 -1991 0
-1990 -395 -1991 0
1990 -395 1991 0
-1990 395 1991 0
1991 396 -1992 0
-1991 -396 -1992 0
1991 -396 1992 0
-1991 396 1992 0
4 205 -1993 0
-4 -205 -1993 0
4 -205 1993 0
-4 205 1993 0
1993 206 -1994 0
-1993 -206 -1994 0
1993 -206 1994 0
-1993 206 1994 0
1994 207 -1995 0
-1994 -207 -1995 0
1994 -207 1995 0
-1994 207 1995 0
1995 208 -1996 0
-1995 -208 -1996 0
1995 -208 1996 0
-1995 208 1996 0
1996 211 -1997 0
-1996 -211 -1997 0
1996 -211 1997 0
-1996 211 1997 0
1997 212 -1998 0
-1997 -212 -1998 0
1997 -212 1998 0
-1997 212 1998 0
1998 213 -1999 0
-1998 -213 -1999 0
1998 -213 1999 0
-1998 213 1999 0
1999 214 -2000 0
-1999 -214 -2000 0
1999 -214 2000 0
-1999 214 2000 0
2000 217 -2001 0
-2000 -217 -2001 0
2000 -217 2001 0
-2000 217 2001 0
2001 218 -2002 0
-2001 -218 -2002 0
2001 -218 2002 0
-2001 218 2002 0
2002 219 -2003 0
-2002 -219 -2003 0
2002 -219 2003 0
-2002 219 2003 0
2003 220 -2004 0
-2003 -220 -2004 0
2003 -220 2004 0
-2003 220 2004 0
2004 223 -2005 0
-2004 -223 -2005 0
2004 -223 2005 0
-2004 223 2005 0
2005 224 -2006 0
-2005 -224 -2006 0
2005 -224 2006 0
-2005 224 2006 0
2006 225 -2007 0
-2006 -225 -2007 0
2006 -225 2007 0
-2006 225 2007 0
2007 226 -2008 0
-2007 -226 -2008 0
2007 -226 2008 0
-2007 226 2008 0
2008 229 -2009 0
-2008 -229 -2009 0
2008 -229 2009 0
-2008 229 2009 0
2009 230 -2010 0
-2009 -230 -2010 0
2009 -230 2010 0
-2009 230 2010 0
2010 231 -2011 0
-2010 -231 -2011 0
2010 -231 2011 0
-2010 231 2011 0
2011 232 -2012 0
-2011 -232 -2012 0
2011 -232 2012 0
-2011 232 2012 0
2012 235 -2013 0
-2012 -235 -2013 0
2012 -235 2013 0
-2012 235 2013 0
2013 236 -2014 0
-2013 -236 -2014 0
2013 -236 2014 0
-2013 236 2014 0
2014 237 -2015 0
-2014 -237 -2015 0
2014 -237 2015 0
-2014 237 2015 0
2015 238 -2016 0
-2015 -238 -2016 0
2015 -238 2016 0
-2015 238 2016 0
2016 241 -2017 0
-2016 -241 -2017 0
2016 -241 2017 0
-2016 241 2017 0
2017 242 -2018 0
-2017 -242 -2018 0
2017 -242 2018 0
-2017 242 2018 0
2018 243 -2019 0
-2018 -243 -2019 0
2018 -243 2019 0
-2018 243 2019 0
2019 244 -2020 0
-2019 -244 -2020 0
2019 -244 2020 0
-2019 244 2020 0
2020 247 -2021 0
-2020 -247 -2021 0
2020 -247 2021 0
-2020 247 2021 0
2021 248 -2022 0
-2021 -248 -2022 0
2021 -248 2022 0
-2021 248 2022 0
2022 249 -2023 0
-2022 -249 -2023 0
2022 -249 2023 0
-2022 249 2023 0
2023 250 -2024 0
-2023 -250 -2024 0
2023 -250 2024 0
-2023 250 2024 0
2024 253 -2025 0
-2024 -253 -2025 0
2024 -253 2025 0
-2024 253 2025 0
2025 254 -2026 0
-2025 -254 -2026 0
2025 -254 2026 0
-2025 254 2026 0
2026 255 -2027 0
-2026 -255 -2027 0
2026 -255 2027 0
-2026 255 2027 0
2027 256 -2028 0
-2027 -256 -2028 0
2027 -256 2028 0
-2027 256 2028 0
2028 259 -2029 0
-2028 -259 -2029 0
2028 -259 2029 0
-2028 259 2029 0
2029 260 -2030 0
-2029 -260 -2030 0
2029 -260 2030 0
-2029 260 2030 0
2030 261 -2031 0
-2030 -261 -2031 0
2030 -261 2031 0
-2030 261 2031 0
2031 262 -2032 0
-2031 -262 -2032 0
2031 -262 2032 0
-2031 262 2032 0
2032 265 -2033 0
-2032 -265 -2033 0
2032 -265 2033 0
-2032 265 2033 0
2033 266 -2034 0
-2033 -266 -2034 0
2033 -266 2034 0
-2033 266 2034 0
2034 267 -2035 0
-2034 -267 -2035 0
2034 -267 2035 0
-2034 267 2035 0
2035 268 -2036 0
-2035 -268 -2036 0
2035 -268 2036 0
-2035 268 2036 0
2036 271 -2037 0
-2036 -271 -2037 0
2036 -271 2037 0
-2036 271 2037 0
2037 272 -2038 0
-2037 -272 -2038 0
2037 -272 2038 0
-2037 272 2038 0
2038 273 -2039 0
-2038 -273 -2039 0
2038 -273 2039 0
-2038 273 2039 0
2039 274 -2040 0
-2039 -274 -2040 0
2039 -274 2040 0
-2039 274 2040 0
2040 277 -2041 0
-2040 -277 -2041 0
2040 -277 2041 0
-2040 277 2041 0
2041 278 -2042 0
-2041 -278 -2042 0
2041 -278 2042 0
-2041 278 2042 0
2042 279 -2043 0
-2042 -279 -2043 0
2042 -279 2043 0
-2042 279 2043 0
2043 280 -2044 0
-2043 -280 -2044 0
2043 -280 2044 0
-2043 280 2044 0
2044 283 -2045 0
-2044 -283 -2045 0
2044 -283 2045 0
-2044 283 2045 0
2045 284 -2046 0
-2045 -284 -2046 0
2045 -284 2046 0
-2045 284 2046 0
2046 285 -2047 0
-2046 -285 -2047 0
2046 -285 2047 0
-2046 285 2047 0
2047 286 -2048 0
-2047 -286 -2048 0
2047 -286 2048 0
-2047 286 2048 0
2048 289 -2049 0
-2048 -289 -2049 0
2048 -289 2049 0
-2048 289 2049 0
2049 290 -2050 0
-2049 -290 -2050 0
2049 -290 2050 0
-2049 290 2050 0
2050 291 -2051 0
-2050 -291 -2051 0
2050 -291 2051 0
-2050 291 2051 0
2051 292 -2052 0
-2051 -292 -2052 0
2051 -292 2052 0
-2051 292 2052 0
2052 295 -2053 0
-2052 -295 -2053 0
2052 -295 2053 0
-2052 295 2053 0
2053 296 -2054 0
-2053 -296 -2054 0
2053 -296 2054 0
-2053 296 2054 0
2054 297 -2055 0
-2054 -297 -2055 0
2054 -297 2055 0
-2054 297 2055 0
2055 298 -2056 0
-2055 -298 -2056 0
2055 -298 2056 0
-2055 298 2056 0
2056 301 -2057 0
-2056 -301 -2057 0
2056 -301 2057 0
-2056 301 2057 0
2057 302 -2058 0
-2057 -302 -2058 0
2057 -302 2058 0
-2057 302 2058 0
2058 303 -2059 0
-2058 -303 -2059 0
2058 -303 2059 0
-2058 303 2059 0
2059 304 -2060 0
-2059 -304 -2060 0
2059 -304 2060 0
-2059 304 2060 0
2060 307 -2061 0
-2060 -307 -2061 0
2060 -307 2061 0
-2060 307 2061 0
2061 308 -2062 0
-2061 -308 -2062 0
2061 -308 2062 0
-2061 308 2062 0
2062 309 -2063 0
-2062 -309 -2063 0
2062 -309 2063 0
-2062 309 2063 0
2063 310 -2064 0
-2063 -310 -2064 0
2063 -310 2064 0
-2063 310 2064 0
2064 313 -2065 0
-2064 -313 -2065 0
2064 -313 2065 0
-2064 313 2065 0
2065 314 -2066 0
-2065 -314 -2066 0
2065 -314 2066 0
-2065 314 2066 0
2066 315 -2067 0
-2066 -315 -2067 0
2066 -315 2067 0
-2066 315 2067 0
2067 316 -2068 0
-2067 -316 -2068 0
2067 -316 2068 0
-2067 316 2068 0
2068 319 -2069 0
-2068 -319 -2069 0
2068 -319 2069 0
-2068 319 2069 0
2069 320 -2070 0
-2069 -320 -2070 0
2069 -320 2070 0
-2069 320 2070 0
2070 321 -2071 0
-2070 -321 -2071 0
2070 -321 2071 0
-2070 321 2071 0
2071 322 -2072 0
-2071 -322 -2072 0
2071 -322 2072 0
-2071 322 2072 0
2072 325 -2073 0
-2072 -325 -2073 0
2072 -325 2073 0
-2072 325 2073 0
2073 326 -2074 0
-2073 -326 -2074 0
2073 -326 2074 0
-2073 326 2074 0
2074 327 -2075 0
-2074 -327 -2075 0
2074 -327 2075 0
-2074 327 2075 0
2075 328 -2076 0
-2075 -328 -2076 0
2075 -328 2076 0
-2075 328 2076 0
2076 331 -2077 0
-2076 -331 -2077 0
2076 -331 2077 0
-2076 331 2077 0
2077 332 -2078 0
-2077 -332 -2078 0
2077 -332 2078 0
-2077 332 2078 0
2078 333 -2079 0
-2078 -333 -2079 0
2078 -333 2079 0
-2078 333 2079 0
2079 334 -2080 0
-2079 -334 -2080 0
2079 -334 2080 0
-2079 334 2080 0
2080 337 -2081 0
-2080 -337 -2081 0
2080 -337 2081 0
-2080 337 2081 0
2081 338 -2082 0
-2081 -338 -2082 0
2081 -338 2082 0
-2081 338 2082 0
2082 339 -2083 0
-2082 -339 -2083 0
2082 -339 2083 0
-2082 339 2083 0
2083 340 -2084 0
-2083 -340 -2084 0
2083 -340 2084 0
-2083 340 2084 0
2084 343 -2085 0
-2084 -343 -2085 0
2084 -343 2085 0
-2084 343 2085 0
2085 344 -2086 0
-2085 -344 -2086 0
2085 -344 2086 0
-2085 344 2086 0
2086 345 -2087 0
-2086 -345 -2087 0
2086 -345 2087 0
-2086 345 2087 0
2087 346 -2088 0
-2087 -346 -2088 0
2087 -346 2088 0
-2087 346 2088 0
2088 349 -2089 0
-2088 -349 -2089 0
2088 -349 2089 0
-2088 349 2089 0
2089 350 -2090 0
-2089 -350 -2090 0
2089 -350 2090 0
-2089 350 2090 0
2090 351 -2091 0
-2090 -351 -2091 0
2090 -351 2091 0
-2090 351 2091 0
2091 352 -2092 0
-2091 -352 -2092 0
2091 -352 2092 0
-2091 352 2092 0
2092 355 -2093 0
-2092 -355 -2093 0
2092 -355 2093 0
-2092 355 2093 0
2093 356 -2094 0
-2093 -356 -2094 0
2093 -356 2094 0
-2093 356 2094 0
2094 357 -2095 0
-2094 -357 -2095 0
2094 -357 2095 0
-2094 357 2095 0
2095 358 -2096 0
-2095 -358 -2096 0
2095 -358 2096 0
-2095 358 2096 0
2096 361 -2097 0
-2096 -361 -2097 0
2096 -361 2097 0
-2096 361 2097 0
2097 362 -2098 0
-2097 -362 -2098 0
2097 -362 2098 0
-2097 362 2098 0
2098 363 -2099 0
-2098 -363 -2099 0
2098 -363 2099 0
-2098 363 2099 0
2099 364 -2100 0
-2099 -364 -2100 0
2099 -364 2100 0
-2099 364 2100 0
2100 367 -2101 0
-2100 -367 -2101 0
2100 -367 2101 0
-2100 367 2101 0
2101 368 -2102 0
-2101 -368 -2102 0
2101 -368 2102 0
-2101 368 2102 0
2102 369 -2103 0
-2102 -369 -2103 0
2102 -369 2103 0
-2102 369 2103 0
2103 370 -2104 0
-2103 -370 -2104 0
2103 -370 2104 0
-2103 370 2104 0
2104 373 -2105 0
-2104 -373 -2105 0
2104 -373 2105 0
-2104 373 2105 0
2105 374 -2106 0
-2105 -374 -2106 0
2105 -374 2106 0
-2105 374 2106 0
2106 375 -2107 0
-2106 -375 -2107 0
2106 -375 2107 0
-2106 375 2107 0
2107 376 -2108 0
-2107 -376 -2108 0
2107 -376 2108 0
-2107 376 2108 0
2108 377 -2109 0
-2108 -377 -2109 0
2108 -377 2109 0
-2108 377 2109 0
2109 378 -2110 0
-2109 -378 -2110 0
2109 -378 2110 0
-2109 378 2110 0
2110 385 -2111 0
-2110 -385 -2111 0
2110 -385 2111 0
-2110 385 2111 0
2111 386 -2112 0
-2111 -386 -2112 0
2111 -386 2112 0
-2111 386 2112 0
2112 387 -2113 0
-2112 -387 -2113 0
2112 -387 2113 0
-2112 387 2113 0
2113 388 -2114 0
-2113 -388 -2114 0
2113 -388 2114 0
-2113 388 2114 0
2114 391 -2115 0
-2114 -391 -2115 0
2114 -391 2115 0
-2114 391 2115 0
2115 392 -2116 0
-2115 -392 -2116 0
2115 -392 2116 0
-2115 392 2116 0
2116 393 -2117 0
-2116 -393 -2117 0
2116 -393 2117 0
-2116 393 2117 0
2117 394 -2118 0
-2117 -394 -2118 0
2117 -394 2118 0
-2117 394 2118 0
2118 395 -2119 0
-2118 -395 -2119 0
2118 -395 2119 0
-2118 395 2119 0
2119 396 -2120 0
-2119 -396 -2120 0
2119 -396 2120 0
-2119 396 2120 0
5 205 -2121 0
-5 -205 -2121 0
5 -205 2121 0
-5 205 2121 0
2121 206 -2122 0
-2121 -206 -2122 0
2121 -206 2122 0
-2121 206 2122 0
2122 207 -2123 0
-2122 -207 -2123 0
2122 -207 2123 0
-2122 207 2123 0
2123 208 -2124 0
-2123 -208 -2124 0
2123 -208 2124 0
-2123 208 2124 0
2124 209 -2125 0
-2124 -209 -2125 0
2124 -209 2125 0
-2124 209 2125 0
2125 211 -2126 0
-2125 -211 -2126 0
2125 -211 2126 0
-2125 211 2126 0
2126 212 -2127 0
-2126 -212 -2127 0
2126 -212 2127 0
-2126 212 2127 0
2127 213 -2128 0
-2127 -213 -2128 0
2127 -213 2128 0
-2127 213 2128 0
2128 214 -2129 0
-2128 -214 -2129 0
2128 -214 2129 0
-2128 214 2129 0
2129 215 -2130 0
-2129 -215 -2130 0
2129 -215 2130 0
-2129 215 2130 0
2130 217 -2131 0
-2130 -217 -2131 0
2130 -217 2131 0
-2130 217 2131 0
2131 218 -2132 0
-2131 -218 -2132 0
2131 -218 2132 0
-2131 218 2132 0
2132 219 -2133 0
-2132 -219 -2133 0
2132 -219 2133 0
-2132 219 2133 0
2133 220 -2134 0
-2133 -220 -2134 0
2133 -220 2134 0
-2133 220 2134 0
2134 221 -2135 0
-2134 -221 -2135 0
2134 -221 2135 0
-2134 221 2135 0
2135 223 -2136 0
-2135 -223 -2136 0
2135 -223 2136 0
-2135 223 2136 0
2136 224 -2137 0
-2136 -224 -2137 0
2136 -224 2137 0
-2136 224 2137 0
2137 225 -2138 0
-2137 -225 -2138 0
2137 -225 2138 0
-2137 225 2138 0
2138 226 -2139 0
-2138 -226 -2139 0
2138 -226 2139 0
-2138 226 2139 0
2139 227 -2140 0
-2139 -227 -2140 0
2139 -227 2140 0
-2139 227 2140 0
2140 229 -2141 0
-2140 -229 -2141 0
2140 -229 2141 0
-2140 229 2141 0
2141 230 -2142 0
-2141 -230 -2142 0
2141 -230 2142 0
-2141 230 2142 0
2142 231 -2143 0
-2142 -231 -2143 0
2142 -231 2143 0
-2142 231 2143 0
2143 232 -2144 0
-2143 -232 -2144 0
2143 -232 2144 0
-2143 232 2144 0
2144 233 -2145 0
-2144 -233 -2145 0
2144 -233 2145 0
-2144 233 2145 0
2145 235 -2146 0
-2145 -235 -2146 0
2145 -235 2146 0
-2145 235 2146 0
2146 236 -2147 0
-2146 -236 -2147 0
2146 -236 2147 0
-2146 236 2147 0
2147 237 -2148 0
-2147 -237 -2148 0
2147 -237 2148 0
-2147 237 2148 0
2148 238 -2149 0
-2148 -238 -2149 0
2148 -238 2149 0
-2148 238 2149 0
2149 239 -2150 0
-2149 -239 -2150 0
2149 -239 2150 0
-2149 239 2150 0
2150 241 -2151 0
-2150 -241 -2151 0
2150 -241 2151 0
-2150 241 2151 0
2151 242 -2152 0
-2151 -242 -2152 0
2151 -242 2152 0
-2151 242 2152 0
2152 243 -2153 0
-2152 -243 -2153 0
2152 -243 2153 0
-2152 243 2153 0
2153 244 -2154 0
-2153 -244 -2154 0
2153 -244 2154 0
-2153 244 2154 0
2154 245 -2155 0
-2154 -245 -2155 0
2154 -245 2155 0
-2154 245 2155 0
2155 247 -2156 0
-2155 -247 -2156 0
2155 -247 2156 0
-2155 247 2156 0
2156 248 -2157 0
-2156 -248 -2157 0
2156 -248 2157 0
-2156 248 2157 0
2157 249 -2158 0
-2157 -249 -2158 0
2157 -249 2158 0
-2157 249 2158 0
2158 250 -2159 0
-2158 -250 -2159 0
2158 -250 2159 0
-2158 250 2159 0
2159 251 -2160 0
-2159 -251 -2160 0
2159 -251 2160 0
-2159 251 2160 0
2160 253 -2161 0
-2160 -253 -2161 0
2160 -253 2161 0
-2160 253 2161 0
2161 254 -2162 0
-2161 -254 -2162 0
2161 -254 2162 0
-2161 254 2162 0
2162 255 -2163 0
-2162 -255 -2163 0
2162 -255 2163 0
-2162 255 2163 0
2163 256 -2164 0
-2163 -256 -2164 0
2163 -256 2164 0
-2163 256 2164 0
2164 257 -2165 0
-2164 -257 -2165 0
2164 -257 2165 0
-2164 257 2165 0
2165 259 -2166 0
-2165 -259 -2166 0
2165 -259 2166 0
-2165 259 2166 0
2166 260 -2167 0
-2166 -260 -2167 0
2166 -260 2167 0
-2166 260 2167 0
2167 261 -2168 0
-2167 -261 -2168 0
2167 -261 2168 0
-2167 261 2168 0
2168 262 -2169 0
-2168 -262 -2169 0
2168 -262 2169 0
-2168 262 2169 0
2169 263 -2170 0
-2169 -263 -2170 0
2169 -263 2170 0
-2169 263 2170 0
2170 265 -2171 0
-2170 -265 -2171 0
2170 -265 2171 0
-2170 265 2171 0
2171 266 -2172 0
-2171 -266 -2172 0
2171 -266 2172 0
-2171 266 2172 0
2172 267 -2173 0
-2172 -267 -2173 0
2172 -267 2173 0
-2172 267 2173 0
2173 268 -2174 0
-2173 -268 -2174 0
2173 -268 2174 0
-2173 268 2174 0
2174 269 -2175 0
-2174 -269 -2175 0
2174 -269 2175 0
-2174 269 2175 0
2175 271 -2176 0
-2175 -271 -2176 0
2175 -271 2176 0
-2175 271 2176 0
2176 272 -2177 0
-2176 -272 -2177 0
2176 -272 2177 0
-2176 272 2177 0
2177 273 -2178 0
-2177 -273 -2178 0
2177 -273 2178 0
-2177 273 2178 0
2178 274 -2179 0
-2178 -274 -2179 0
2178 -274 2179 0
-2178 274 2179 0
2179 275 -2180 0
-2179 -275 -2180 0
2179 -275 2180 0
-2179 275 2180 0
2180 277 -2181 0
-2180 -277 -2181 0
2180 -277 2181 0
-2180 277 2181 0
2181 278 -2182 0
-2181 -278 -2182 0
2181 -278 2182 0
-2181 278 2182 0
2182 279 -2183 0
-2182 -279 -2183 0
2182 -279 2183 0
-2182 279 2183 0
2183 280 -2184 0
-2183 -280 -2184 0
2183 -280 2184 0
-2183 280 2184 0
2184 281 -2185 0
-2184 -281 -2185 0
2184 -281 2185 0
-2184 281 2185 0
2185 283 -2186 0
-2185 -283 -2186 0
2185 -283 2186 0
-2185 283 2186 0
2186 284 -2187 0
-2186 -284 -2187 0
2186 -284 2187 0
-2186 284 2187 0
2187 285 -2188 0
-2187 -285 -2188 0
2187 -285 2188 0
-2187 285 2188 0
2188 286 -2189 0
-2188 -286 -2189 0
2188 -286 2189 0
-2188 286 2189 0
2189 287 -2190 0
-2189 -287 -2190 0
2189 -287 2190 0
-2189 287 2190 0
2190 289 -2191 0
-2190 -289 -2191 0
2190 -289 2191 0
-2190 289 2191 0
2191 290 -2192 0
-2191 -290 -2192 0
2191 -290 2192 0
-2191 290 2192 0
2192 291 -2193 0
-2192 -291 -2193 0
2192 -291 2193 0
-2192 291 2193 0
2193 292 -2194 0
-2193 -292 -2194 0
2193 -292 2194 0
-2193 292 2194 0
2194 293 -2195 0
-2194 -293 -2195 0
2194 -293 2195 0
-2194 293 2195 0
2195 295 -2196 0
-2195 -295 -2196 0
2195 -295 2196 0
-2195 295 2196 0
2196 296 -2197 0
-2196 -296 -2197 0
2196 -296 2197 0
-2196 296 2197 0
2197 297 -2198 0
-2197 -297 -2198 0
2197 -297 2198 0
-2197 297 2198 0
2198 298 -2199 0
-2198 -298 -2199 0
2198 -298 2199 0
-2198 298 2199 0
2199 299 -2200 0
-2199 -299 -2200 0
2199 -299 2200 0
-2199 299 2200 0
2200 301 -2201 0
-2200 -301 -2201 0
2200 -301 2201 0
-2200 301 2201 0
2201 302 -2202 0
-2201 -302 -2202 0
2201 -302 2202 0
-2201 302 2202 0
2202 303 -2203 0
-2202 -303 -2203 0
2202 -303 2203 0
-2202 303 2203 0
2203 304 -2204 0
-2203 -304 -2204 0
2203 -304 2204 0
-2203 304 2204 0
2204 305 -2205 0
-2204 -305 -2205 0
2204 -305 2205 0
-2204 305 2205 0
2205 307 -2206 0
-2205 -307 -2206 0
2205 -307 2206 0
-2205 307 2206 0
2206 308 -2207 0
-2206 -308 -2207 0
2206 -308 2207 0
-2206 308 2207 0
2207 309 -2208 0
-2207 -309 -2208 0
2207 -309 2208 0
-2207 309 2208 0
2208 310 -2209 0
-2208 -310 -2209 0
2208 -310 2209 0
-2208 310 2209 0
2209 311 -2210 0
-2209 -311 -2210 0
2209 -311 2210 0
-2209 311 2210 0
2210 313 -2211 0
-2210 -313 -2211 0
2210 -313 2211 0
-2210 313 2211 0
2211 314 -2212 0
-2211 -314 -2212 0
2211 -314 2212 0
-2211 314 2212 0
2212 315 -2213 0
-2212 -315 -2213 0
2212 -315 2213 0
-2212 315 2213 0
2213 316 -2214 0
-2213 -316 -2214 0
2213 -316 2214 0
-2213 316 2214 0
2214 317 -2215 0
-2214 -317 -2215 0
2214 -317 2215 0
-2214 317 2215 0
2215 319 -2216 0
-2215 -319 -2216 0
2215 -319 2216 0
-2215 319 2216 0
2216 320 -2217 0
-2216 -320 -2217 0
2216 -320 2217 0
-2216 320 2217 0
2217 321 -2218 0
-2217 -321 -2218 0
2217 -321 2218 0
-2217 321 2218 0
2218 322 -2219 0
-2218 -322 -2219 0
2218 -322 2219 0
-2218 322 2219 0
2219 323 -2220 0
-2219 -323 -2220 0
2219 -323 2220 0
-2219 323 2220 0
2220 325 -2221 0
-2220 -325 -2221 0
2220 -325 2221 0
-2220 325 2221 0
2221 326 -2222 0
-2221 -326 -2222 0
2221 -326 2222 0
-2221 326 2222 0
2222 327 -2223 0
-2222 -327 -2223 0
2222 -327 2223 0
-2222 327 2223 0
2223 328 -2224 0
-2223 -328 -2224 0
2223 -328 2224 0
-2223 328 2224 0
2224 329 -2225 0
-2224 -329 -2225 0
2224 -329 2225 0
-2224 329 2225 0
2225 331 -2226 0
-2225 -331 -2226 0
2225 -331 2226 0
-2225 331 2226 0
2226 332 -2227 0
-2226 -332 -2227 0
2226 -332 2227 0
-2226 332 2227 0
2227 333 -2228 0
-2227 -333 -2228 0
2227 -333 2228 0
-2227 333 2228 0
2228 334 -2229 0
-2228 -334 -2229 0
2228 -334 2229 0
-2228 334 2229 0
2229 335 -2230 0
-2229 -335 -2230 0
2229 -335 2230 0
-2229 335 2230 0
2230 337 -2231 0
-2230 -337 -2231 0
2230 -337 2231 0
-2230 337 2231 0
2231 338 -2232 0
-2231 -338 -2232 0
2231 -338 2232 0
-2231 338 2232 0
2232 339 -2233 0
-2232 -339 -2233 0
2232 -339 2233 0
-2232 339 2233 0
2233 340 -2234 0
-2233 -340 -2234 0
2233 -340 2234 0
-2233 340 2234 0
2234 341 -2235 0
-2234 -341 -2235 0
2234 -341 2235 0
-2234 341 2235 0
2235 343 -2236 0
-2235 -343 -2236 0
2235 -343 2236 0
-2235 343 2236 0
2236 344 -2237 0
-2236 -344 -2237 0
2236 -344 2237 0
-2236 344 2237 0
2237 345 -2238 0
-2237 -345 -2238 0
2237 -345 2238 0
-2237 345 2238 0
2238 346 -2239 0
-2238 -346 -2239 0
2238 -346 2239 0
-2238 346 2239 0
2239 347 -2240 0
-2239 -347 -2240 0
2239 -347 2240 0
-2239 347 2240 0
2240 349 -2241 0
-2240 -349 -2241 0
2240 -349 2241 0
-2240 349 2241 0
2241 350 -2242 0
-2241 -350 -2242 0
2241 -350 2242 0
-2241 350 2242 0
2242 351 -2243 0
-2242 -351 -2243 0
2242 -351 2243 0
-2242 351 2243 0
2243 352 -2244 0
-2243 -352 -2244 0
2243 -352 2244 0
-2243 352 2244 0
2244 353 -2245 0
-2244 -353 -2245 0
2244 -353 2245 0
-2244 353 2245 0
2245 355 -2246 0
-2245 -355 -2246 0
2245 -355 2246 0
-2245 355 2246 0
2246 356 -2247 0
-2246 -356 -2247 0
2246 -356 2247 0
-2246 356 2247 0
2247 357 -2248 0
-2247 -357 -2248 0
2247 -357 2248 0
-2247 357 2248 0
2248 358 -2249 0
-2248 -358 -2249 0
2248 -358 2249 0
-2248 358 2249 0
2249 359 -2250 0
-2249 -359 -2250 0
2249 -359 2250 0
-2249 359 2250 0
2250 361 -2251 0
-2250 -361 -2251 0
2250 -361 2251 0
-2250 361 2251 0
2251 362 -2252 0
-2251 -362 -2252 0
2251 -362 2252 0
-2251 362 2252 0
2252 363 -2253 0
-2252 -363 -2253 0
2252 -363 2253 0
-2252 363 2253 0
2253 364 -2254 0
-2253 -364 -2254 0
2253 -364 2254 0
-2253 364 2254 0
2254 365 -2255 0
-2254 -365 -2255 0
2254 -365 2255 0
-2254 365 2255 0
2255 367 -2256 0
-2255 -367 -2256 0
2255 -367 2256 0
-2255 367 2256 0
2256 368 -2257 0
-2256 -368 -2257 0
2256 -368 2257 0
-2256 368 2257 0
2257 369 -2258 0
-2257 -369 -2258 0
2257 -369 2258 0
-2257 369 2258 0
2258 370 -2259 0
-2258 -370 -2259 0
2258 -370 2259 0
-2258 370 2259 0
2259 371 -2260 0
-2259 -371 -2260 0
2259 -371 2260 0
-2259 371 2260 0
2260 373 -2261 0
-2260 -373 -2261 0
2260 -373 2261 0
-2260 373 2261 0
2261 374 -2262 0
-2261 -374 -2262 0
2261 -374 2262 0
-2261 374 2262 0
2262 375 -2263 0
-2262 -375 -2263 0
2262 -375 2263 0
-2262 375 2263 0
2263 376 -2264 0
-2263 -376 -2264 0
2263 -376 2264 0
-2263 376 2264 0
2264 377 -2265 0
-2264 -377 -2265 0
2264 -377 2265 0
-2264 377 2265 0
2265 378 -2266 0
-2265 -378 -2266 0
2265 -378 2266 0
-2265 378 2266 0
2266 385 -2267 0
-2266 -385 -2267 0
2266 -385 2267 0
-2266 385 2267 0
2267 386 -2268 0
-2267 -386 -2268 0
2267 -386 2268 0
-2267 386 2268 0
2268 387 -2269 0
-2268 -387 -2269 0
2268 -387 2269 0
-2268 387 2269 0
2269 388 -2270 0
-2269 -388 -2270 0
2269 -388 2270 0
-2269 388 2270 0
2270 389 -2271 0
-2270 -389 -2271 0
2270 -389 2271 0
-2270 389 2271 0
2271 391 -2272 0
-2271 -391 -2272 0
2271 -391 2272 0
-2271 391 2272 0
2272 392 -2273 0
-2272 -392 -2273 0
2272 -392 2273 0
-2272 392 2273 0
2273 393 -2274 0
-2273 -393 -2274 0
2273 -393 2274 0
-2273 393 2274 0
2274 394 -2275 0
-2274 -394 -2275 0
2274 -394 2275 0
-2274 394 2275 0
2275 395 -2276 0
-2275 -395 -2276 0
2275 -395 2276 0
-2275 395 2276 0
2276 396 -2277 0
-2276 -396 -2277 0
2276 -396 2277 0
-2276 396 2277 0
6 205 -2278 0
-6 -205 -2278 0
6 -205 2278 0
-6 205 2278 0
2278 206 -2279 0
-2278 -206 -2279 0
2278 -206 2279 0
-2278 206 2279 0
2279 207 -2280 0
-2279 -207 -2280 0
2279 -207 2280 0
-2279 207 2280 0
2280 208 -2281 0
-2280 -208 -2281 0
2280 -208 2281 0
-2280 208 2281 0
2281 209 -2282 0
-2281 -209 -2282 0
2281 -209 2282 0
-2281 209 2282 0
2282 210 -2283 0
-2282 -210 -2283 0
2282 -210 2283 0
-2282 210 2283 0
2283 211 -2284 0
-2283 -211 -2284 0
2283 -211 2284 0
-2283 211 2284 0
2284 212 -2285 0
-2284 -212 -2285 0
2284 -212 2285 0
-2284 212 2285 0
2285 213 -2286 0
-2285 -213 -2286 0
2285 -213 2286 0
-2285 213 2286 0
2286 214 -2287 0
-2286 -214 -2287 0
2286 -214 2287 0
-2286 214 2287 0
2287 215 -2288 0
-2287 -215 -2288 0
2287 -215 2288 0
-2287 215 2288 0
2288 216 -2289 0
-2288 -216 -2289 0
2288 -216 2289 0
-2288 216 2289 0
2289 217 -2290 0
-2289 -217 -2290 0
2289 -217 2290 0
-2289 217 2290 0
2290 218 -2291 0
-2290 -218 -2291 0
2290 -218 2291 0
-2290 218 2291 0
2291 219 -2292 0
-2291 -219 -2292 0
2291 -219 2292 0
-2291 219 2292 0
2292 220 -2293 0
-2292 -220 -2293 0
2292 -220 2293 0
-2292 220 2293 0
2293 221 -2294 0
-2293 -221 -2294 0
2293 -221 2294 0
-2293 221 2294 0
2294 222 -2295 0
-2294 -222 -2295 0
2294 -222 2295 0
-2294 222 2295 0
2295 223 -2296 0
-2295 -223 -2296 0
2295 -223 2296 0
-2295 223 2296 0
2296 224 -2297 0
-2296 -224 -2297 0
2296 -224 2297 0
-2296 224 2297 0
2297 225 -2298 0
-2297 -225 -2298 0
2297 -225 2298 0
-2297 225 2298 0
2298 226 -2299 0
-2298 -226 -2299 0
2298 -226 2299 0
-2298 226 2299 0
2299 227 -2300 0
-2299 -227 -2300 0
2299 -227 2300 0
-2299 227 2300 0
2300 228 -2301 0
-2300 -228 -2301 0
2300 -228 2301 0
-2300 228 2301 0
2301 229 -2302 0
-2301 -229 -2302 0
2301 -229 2302 0
-2301 229 2302 0
2302 230 -2303 0
-2302 -230 -2303 0
2302 -230 2303 0
-2302 230 2303 0
2303 231 -2304 0
-2303 -231 -2304 0
2303 -231 2304 0
-2303 231 2304 0
2304 232 -2305 0
-2304 -232 -2305 0
2304 -232 2305 0
-2304 232 2305 0
2305 233 -2306 0
-2305 -233 -2306 0
2305 -233 2306 0
-2305 233 2306 0
2306 234 -2307 0
-2306 -234 -2307 0
2306 -234 2307 0
-2306 234 2307 0
2307 235 -2308 0
-2307 -235 -2308 0
2307 -235 2308 0
-2307 235 2308 0
2308 236 -2309 0
-2308 -236 -2309 0
2308 -236 2309 0
-2308 236 2309 0
2309 237 -2310 0
-2309 -237 -2310 0
2309 -237 2310 0
-2309 237 2310 0
2310 238 -2311 0
-2310 -238 -2311 0
2310 -238 2311 0
-2310 238 2311 0
2311 239 -2312 0
-2311 -239 -2312 0
2311 -239 2312 0
-2311 239 2312 0
2312 240 -2313 0
-2312 -240 -2313 0
2312 -240 2313 0
-2312 240 2313 0
2313 241 -2314 0
-2313 -241 -2314 0
2313 -241 2314 0
-2313 241 2314 0
2314 242 -2315 0
-2314 -242 -2315 0
2314 -242 2315 0
-2314 242 2315 0
2315 243 -2316 0
-2315 -243 -2316 0
2315 -243 2316 0
-2315 243 2316 0
2316 244 -2317 0
-2316 -244 -2317 0
2316 -244 2317 0
-2316 244 2317 0
2317 245 -2318 0
-2317 -245 -2318 0
2317 -245 2318 0
-2317 245 2318 0
2318 246 -2319 0
-2318 -246 -2319 0
2318 -246 2319 0
-2318 246 2319 0
2319 247 -2320 0
-2319 -247 -2320 0
2319 -247 2320 0
-2319 247 2320 0
2320 248 -2321 0
-2320 -248 -2321 0
2320 -248 2321 0
-2320 248 2321 0
2321 249 -2322 0
-2321 -249 -2322 0
2321 -249 2322 0
-2321 249 2322 0
2322 250 -2323 0
-2322 -250 -2323 0
2322 -250 2323 0
-2322 250 2323 0
2323 251 -2324 0
-2323 -251 -2324 0
2323 -251 2324 0
-2323 251 2324 0
2324 252 -2325 0
-2324 -252 -2325 0
2324 -252 2325 0
-2324 252 2325 0
2325 253 -2326 0
-2325 -253 -2326 0
2325 -253 2326 0
-2325 253 2326 0
2326 254 -2327 0
-2326 -254 -2327 0
2326 -254 2327 0
-2326 254 2327 0
2327 255 -2328 0
-2327 -255 -2328 0
2327 -255 2328 0
-2327 255 2328 0
2328 256 -2329 0
-2328 -256 -2329 0
2328 -256 2329 0
-2328 256 2329 0
2329 257 -2330 0
-2329 -257 -2330 0
2329 -257 2330 0
-2329 257 2330 0
2330 258 -2331 0
-2330 -258 -2331 0
2330 -258 2331 0
-2330 258 2331 0
2331 259 -2332 0
-2331 -259 -2332 0
2331 -259 2332 0
-2331 259 2332 0
2332 260 -2333 0
-2332 -260 -2333 0
2332 -260 2333 0
-2332 260 2333 0
2333 261 -2334 0
-2333 -261 -2334 0
2333 -261 2334 0
-2333 261 2334 0
2334 262 -2335 0
-2334 -262 -2335 0
2334 -262 2335 0
-2334 262 2335 0
2335 263 -2336 0
-2335 -263 -2336 0
2335 -263 2336 0
-2335 263 2336 0
2336 264 -2337 0
-2336 -264 -2337 0
2336 -264 2337 0
-2336 264 2337 0
2337 265 -2338 0
-2337 -265 -2338 0
2337 -265 2338 0
-2337 265 2338 0
2338 266 -2339 0
-2338 -266 -2339 0
2338 -266 2339 0
-2338 266 2339 0
2339 267 -2340 0
-2339 -267 -2340 0
2339 -267 2340 0
-2339 267 2340 0
2340 268 -2341 0
-2340 -268 -2341 0
2340 -268 2341 0
-2340 268 2341 0
2341 269 -2342 0
-2341 -269 -2342 0
2341 -269 2342 0
-2341 269 2342 0
2342 270 -2343 0
-2342 -270 -2343 0
2342 -270 2343 0
-2342 270 2343 0
2343 271 -2344 0
-2343 -271 -2344 0
2343 -271 2344 0
-2343 271 2344 0
2344 272 -2345 0
-2344 -272 -2345 0
2344 -272 2345 0
-2344 272 2345 0
2345 273 -2346 0
-2345 -273 -2346 0
2345 -273 2346 0
-2345 273 2346 0
2346 274 -2347 0
-2346 -274 -2347 0
2346 -274 2347 0
-2346 274 2347 0
2347 275 -2348 0
-2347 -275 -2348 0
2347 -275 2348 0
-2347 275 2348 0
2348 276 -2349 0
-2348 -276 -2349 0
2348 -276 2349 0
-2348 276 2349 0
2349 277 -2350 0
-2349 -277 -2350 0
2349 -277 2350 0
-2349 277 2350 0
2350 278 -2351 0
-2350 -278 -2351 0
2350 -278 2351 0
-2350 278 2351 0
2351 279 -2352 0
-2351 -279 -2352 0
2351 -279 2352 0
-2351 279 2352 0
2352 280 -2353 0
-2352 -280 -2353 0
2352 -280 2353 0
-2352 280 2353 0
2353 281 -2354 0
-2353 -281 -2354 0
2353 -281 2354 0
-2353 281 2354 0
2354 282 -2355 0
-2354 -282 -2355 0
2354 -282 2355 0
-2354 282 2355 0
2355 283 -2356 0
-2355 -283 -2356 0
2355 -283 2356 0
-2355 283 2356 0
2356 284 -2357 0
-2356 -284 -2357 0
2356 -284 2357 0
-2356 284 2357 0
2357 285 -2358 0
-2357 -285 -2358 0
2357 -285 2358 0
-2357 285 2358 0
2358 286 -2359 0
-2358 -286 -2359 0
2358 -286 2359 0
-2358 286 2359 0
2359 287 -2360 0
-2359 -287 -2360 0
2359 -287 2360 0
-2359 287 2360 0
2360 288 -2361 0
-2360 -288 -2361 0
2360 -288 2361 0
-2360 288 2361 0
2361 289 -2362 0
-2361 -289 -2362 0
2361 -289 2362 0
-2361 289 2362 0
2362 290 -2363 0
-2362 -290 -2363 0
2362 -290 2363 0
-2362 290 2363 0
2363 291 -2364 0
-2363 -291 -2364 0
2363 -291 2364 0
-2363 291 2364 0
2364 292 -2365 0
-2364 -292 -2365 0
2364 -292 2365 0
-2364 292 2365 0
2365 293 -2366 0
-2365 -293 -2366 0
2365 -293 2366 0
-2365 293 2366 0
2366 294 -2367 0
-2366 -294 -2367 0
2366 -294 2367 0
-2366 294 2367 0
2367 295 -2368 0
-2367 -295 -2368 0
2367 -295 2368 0
-2367 295 2368 0
2368 296 -2369 0
-2368 -296 -2369 0
2368 -296 2369 0
-2368 296 2369 0
2369 297 -2370 0
-2369 -297 -2370 0
2369 -297 2370 0
-2369 297 2370 0
2370 298 -2371 0
-2370 -298 -2371 0
2370 -298 2371 0
-2370 298 2371 0
2371 299 -2372 0
-2371 -299 -2372 0
2371 -299 2372 0
-2371 299 2372 0
2372 300 -2373 0
-2372 -300 -2373 0
2372 -300 2373 0
-2372 300 2373 0
2373 301 -2374 0
-2373 -301 -2374 0
2373 -301 2374 0
-2373 301 2374 0
2374 302 -2375 0
-2374 -302 -2375 0
2374 -302 2375 0
-2374 302 2375 0
2375 303 -2376 0
-2375 -303 -2376 0
2375 -303 2376 0
-2375 303 2376 0
2376 304 -2377 0
-2376 -304 -2377 0
2376 -304 2377 0
-2376 304 2377 0
2377 305 -2378 0
-2377 -305 -2378 0
2377 -305 2378 0
-2377 305 2378 0
2378 306 -2379 0
-2378 -306 -2379 0
2378 -306 2379 0
-2378 306 2379 0
2379 307 -2380 0
-2379 -307 -2380 0
2379 -307 2380 0
-2379 307 2380 0
2380 308 -2381 0
-2380 -308 -2381 0
2380 -308 2381 0
-2380 308 2381 0
2381 309 -2382 0
-2381 -309 -2382 0
2381 -309 2382 0
-2381 309 2382 0
2382 310 -2383 0
-2382 -310 -2383 0
2382 -310 2383 0
-2382 310 2383 0
2383 311 -2384 0
-2383 -311 -2384 0
2383 -311 2384 0
-2383 311 2384 0
2384 312 -2385 0
-2384 -312 -2385 0
2384 -312 2385 0
-2384 312 2385 0
2385 313 -2386 0
-2385 -313 -2386 0
2385 -313 2386 0
-2385 313 2386 0
2386 314 -2387 0
-2386 -314 -2387 0
2386 -314 2387 0
-2386 314 2387 0
2387 315 -2388 0
-2387 -315 -2388 0
2387 -315 2388 0
-2387 315 2388 0
2388 316 -2389 0
-2388 -316 -2389 0
2388 -316 2389 0
-2388 316 2389 0
2389 317 -2390 0
-2389 -317 -2390 0
2389 -317 2390 0
-2389 317 2390 0
2390 318 -2391 0
-2390 -318 -2391 0
2390 -318 2391 0
-2390 318 2391 0
2391 319 -2392 0
-2391 -319 -2392 0
2391 -319 2392 0
-2391 319 2392 0
2392 320 -2393 0
-2392 -320 -2393 0
2392 -320 2393 0
-2392 320 2393 0
2393 321 -2394 0
-2393 -321 -2394 0
2393 -321 2394 0
-2393 321 2394 0
2394 322 -2395 0
-2394 -322 -2395 0
2394 -322 2395 0
-2394 322 2395 0
2395 323 -2396 0
-2395 -323 -2396 0
2395 -323 2396 0
-2395 323 2396 0
2396 324 -2397 0
-2396 -324 -2397 0
2396 -324 2397 0
-2396 324 2397 0
2397 325 -2398 0
-2397 -325 -2398 0
2397 -325 2398 0
-2397 325 2398 0
2398 326 -2399 0
-2398 -326 -2399 0
2398 -326 2399 0
-2398 326 2399 0
2399 327 -2400 0
-2399 -327 -2400 0
2399 -327 2400 0
-2399 327 2400 0
2400 328 -2401 0
-2400 -328 -2401 0
2400 -328 2401 0
-2400 328 2401 0
2401 329 -2402 0
-2401 -329 -2402 0
2401 -329 2402 0
-2401 329 2402 0
2402 330 -2403 0
-2402 -330 -2403 0
2402 -330 2403 0
-2402 330 2403 0
2403 331 -2404 0
-2403 -331 -2404 0
2403 -331 2404 0
-2403 331 2404 0
2404 332 -2405 0
-2404 -332 -2405 0
2404 -332 2405 0
-2404 332 2405 0
2405 333 -2406 0
-2405 -333 -2406 0
2405 -333 2406 0
-2405 333 2406 0
2406 334 -2407 0
-2406 -334 -2407 0
2406 -334 2407 0
-2406 334 2407 0
2407 335 -2408 0
-2407 -335 -2408 0
2407 -335 2408 0
-2407 335 2408 0
2408 336 -2409 0
-2408 -336 -2409 0
2408 -336 2409 0
-2408 336 2409 0
2409 337 -2410 0
-2409 -337 -2410 0
2409 -337 2410 0
-2409 337 2410 0
2410 338 -2411 0
-2410 -338 -2411 0
2410 -338 2411 0
-2410 338 2411 0
2411 339 -2412 0
-2411 -339 -2412 0
2411 -339 2412 0
-2411 339 2412 0
2412 340 -2413 0
-2412 -340 -2413 0
2412 -340 2413 0
-2412 340 2413 0
2413 341 -2414 0
-2413 -341 -2414 0
2413 -341 2414 0
-2413 341 2414 0
2414 342 -2415 0
-2414 -342 -2415 0
2414 -342 2415 0
-2414 342 2415 0
2415 343 -2416 0
-2415 -343 -2416 0
2415 -343 2416 0
-2415 343 2416 0
2416 344 -2417 0
-2416 -344 -2417 0
2416 -344 2417 0
-2416 344 2417 0
2417 345 -2418 0
-2417 -345 -2418 0
2417 -345 2418 0
-2417 345 2418 0
2418 346 -2419 0
-2418 -346 -2419 0
2418 -346 2419 0
-2418 346 2419 0
2419 347 -2420 0
-2419 -347 -2420 0
2419 -347 2420 0
-2419 347 2420 0
2420 348 -2421 0
-2420 -348 -2421 0
2420 -348 2421 0
-2420 348 2421 0
2421 349 -2422 0
-2421 -349 -2422 0
2421 -349 2422 0
-2421 349 2422 0
2422 350 -2423 0
-2422 -350 -2423 0
2422 -350 2423 0
-2422 350 2423 0
2423 351 -2424 0
-2423 -351 -2424 0
2423 -351 2424 0
-2423 351 2424 0
2424 352 -2425 0
-2424 -352 -2425 0
2424 -352 2425 0
-2424 352 2425 0
2425 353 -2426 0
-2425 -353 -2426 0
2425 -353 2426 0
-2425 353 2426 0
2426 354 -2427 0
-2426 -354 -2427 0
2426 -354 2427 0
-2426 354 2427 0
2427 355 -2428 0
-2427 -355 -2428 0
2427 -355 2428 0
-2427 355 2428 0
2428 356 -2429 0
-2428 -356 -2429 0
2428 -356 2429 0
-2428 356 2429 0
2429 357 -2430 0
-2429 -357 -2430 0
2429 -357 2430 0
-2429 357 2430 0
2430 358 -2431 0
-2430 -358 -2431 0
2430 -358 2431 0
-2430 358 2431 0
2431 359 -2432 0
-2431 -359 -2432 0
2431 -359 2432 0
-2431 359 2432 0
2432 360 -2433 0
-2432 -360 -2433 0
2432 -360 2433 0
-2432 360 2433 0
2433 361 -2434 0
-2433 -361 -2434 0
2433 -361 2434 0
-2433 361 2434 0
2434 362 -2435 0
-2434 -362 -2435 0
2434 -362 2435 0
-2434 362 2435 0
2435 363 -2436 0
-2435 -363 -2436 0
2435 -363 2436 0
-2435 363 2436 0
2436 364 -2437 0
-2436 -364 -2437 0
2436 -364 2437 0
-2436 364 2437 0
2437 365 -2438 0
-2437 -365 -2438 0
2437 -365 2438 0
-2437 365 2438 0
2438 366 -2439 0
-2438 -366 -2439 0
2438 -366 2439 0
-2438 366 2439 0
2439 367 -2440 0
-2439 -367 -2440 0
2439 -367 2440 0
-2439 367 2440 0
2440 368 -2441 0
-2440 -368 -2441 0
2440 -368 2441 0
-2440 368 2441 0
2441 369 -2442 0
-2441 -369 -2442 0
2441 -369 2442 0
-2441 369 2442 0
2442 370 -2443 0
-2442 -370 -2443 0
2442 -370 2443 0
-2442 370 2443 0
2443 371 -2444 0
-2443 -371 -2444 0
2443 -371 2444 0
-2443 371 2444 0
2444 372 -2445 0
-2444 -372 -2445 0
2444 -372 2445 0
-2444 372 2445 0
2445 373 -2446 0
-2445 -373 -2446 0
2445 -373 2446 0
-2445 373 2446 0
2446 374 -2447 0
-2446 -374 -2447 0
2446 -374 2447 0
-2446 374 2447 0
2447 375 -2448 0
-2447 -375 -2448 0
2447 -375 2448 0
-2447 375 2448 0
2448 376 -2449 0
-2448 -376 -2449 0
2448 -376 2449 0
-2448 376 2449 0
2449 377 -2450 0
-2449 -377 -2450 0
2449 -377 2450 0
-2449 377 2450 0
2450 378 -2451 0
-2450 -378 -2451 0
2450 -378 2451 0
-2450 378 2451 0
2451 385 -2452 0
-2451 -385 -2452 0
2451 -385 2452 0
-2451 385 2452 0
2452 386 -2453 0
-2452 -386 -2453 0
2452 -386 2453 0
-2452 386 2453 0
2453 387 -2454 0
-2453 -387 -2454 0
2453 -387 2454 0
-2453 387 2454 0
2454 388 -2455 0
-2454 -388 -2455 0
2454 -388 2455 0
-2454 388 2455 0
2455 389 -2456 0
-2455 -389 -2456 0
2455 -389 2456 0
-2455 389 2456 0
2456 390 -2457 0
-2456 -390 -2457 0
2456 -390 2457 0
-2456 390 2457 0
2457 391 -2458 0
-2457 -391 -2458 0
2457 -391 2458 0
-2457 391 2458 0
2458 392 -2459 0
-2458 -392 -2459 0
2458 -392 2459 0
-2458 392 2459 0
2459 393 -2460 0
-2459 -393 -2460 0
2459 -393 2460 0
-2459 393 2460 0
2460 394 -2461 0
-2460 -394 -2461 0
2460 -394 2461 0
-2460 394 2461 0
2461 395 -2462 0
-2461 -395 -2462 0
2461 -395 2462 0
-2461 395 2462 0
2462 396 -2463 0
-2462 -396 -2463 0
2462 -396 2463 0
-2462 396 2463 0
7 205 -2464 0
-7 -205 -2464 0
7 -205 2464 0
-7 205 2464 0
2464 206 -2465 0
-2464 -206 -2465 0
2464 -206 2465 0
-2464 206 2465 0
2465 207 -2466 0
-2465 -207 -2466 0
2465 -207 2466 0
-2465 207 2466 0
2466 208 -2467 0
-2466 -208 -2467 0
2466 -208 2467 0
-2466 208 2467 0
2467 209 -2468 0
-2467 -209 -2468 0
2467 -209 2468 0
-2467 209 2468 0
2468 210 -2469 0
-2468 -210 -2469 0
2468 -210 2469 0
-2468 210 2469 0
2469 212 -2470 0
-2469 -212 -2470 0
2469 -212 2470 0
-2469 212 2470 0
2470 213 -2471 0
-2470 -213 -2471 0
2470 -213 2471 0
-2470 213 2471 0
2471 214 -2472 0
-2471 -214 -2472 0
2471 -214 2472 0
-2471 214 2472 0
2472 215 -2473 0
-2472 -215 -2473 0
2472 -215 2473 0
-2472 215 2473 0
2473 216 -2474 0
-2473 -216 -2474 0
2473 -216 2474 0
-2473 216 2474 0
2474 218 -2475 0
-2474 -218 -2475 0
2474 -218 2475 0
-2474 218 2475 0
2475 219 -2476 0
-2475 -219 -2476 0
2475 -219 2476 0
-2475 219 2476 0
2476 220 -2477 0
-2476 -220 -2477 0
2476 -220 2477 0
-2476 220 2477 0
2477 221 -2478 0
-2477 -221 -2478 0
2477 -221 2478 0
-2477 221 2478 0
2478 222 -2479 0
-2478 -222 -2479 0
2478 -222 2479 0
-2478 222 2479 0
2479 224 -2480 0
-2479 -224 -2480 0
2479 -224 2480 0
-2479 224 2480 0
2480 225 -2481 0
-2480 -225 -2481 0
2480 -225 2481 0
-2480 225 2481 0
2481 226 -2482 0
-2481 -226 -2482 0
2481 -226 2482 0
-2481 226 2482 0
2482 227 -2483 0
-2482 -227 -2483 0
2482 -227 2483 0
-2482 227 2483 0
2483 228 -2484 0
-2483 -228 -2484 0
2483 -228 2484 0
-2483 228 2484 0
2484 230 -2485 0
-2484 -230 -2485 0
2484 -230 2485 0
-2484 230 2485 0
2485 231 -2486 0
-2485 -231 -2486 0
2485 -231 2486 0
-2485 231 2486 0
2486 232 -2487 0
-2486 -232 -2487 0
2486 -232 2487 0
-2486 232 2487 0
2487 233 -2488 0
-2487 -233 -2488 0
2487 -233 2488 0
-2487 233 2488 0
2488 234 -2489 0
-2488 -234 -2489 0
2488 -234 2489 0
-2488 234 2489 0
2489 236 -2490 0
-2489 -236 -2490 0
2489 -236 2490 0
-2489 236 2490 0
2490 237 -2491 0
-2490 -237 -2491 0
2490 -237 2491 0
-2490 237 2491 0
2491 238 -2492 0
-2491 -238 -2492 0
2491 -238 2492 0
-2491 238 2492 0
2492 239 -2493 0
-2492 -239 -2493 0
2492 -239 2493 0
-2492 239 2493 0
2493 240 -2494 0
-2493 -240 -2494 0
2493 -240 2494 0
-2493 240 2494 0
2494 242 -2495 0
-2494 -242 -2495 0
2494 -242 2495 0
-2494 242 2495 0
2495 243 -2496 0
-2495 -243 -2496 0
2495 -243 2496 0
-2495 243 2496 0
2496 244 -2497 0
-2496 -244 -2497 0
2496 -244 2497 0
-2496 244 2497 0
2497 245 -2498 0
-2497 -245 -2498 0
2497 -245 2498 0
-2497 245 2498 0
2498 246 -2499 0
-2498 -246 -2499 0
2498 -246 2499 0
-2498 246 2499 0
2499 248 -2500 0
-2499 -248 -2500 0
2499 -248 2500 0
-2499 248 2500 0
2500 249 -2501 0
-2500 -249 -2501 0
2500 -249 2501 0
-2500 249 2501 0
2501 250 -2502 0
-2501 -250 -2502 0
2501 -250 2502 0
-2501 250 2502 0
2502 251 -2503 0
-2502 -251 -2503 0
2502 -251 2503 0
-2502 251 2503 0
2503 252 -2504 0
-2503 -252 -2504 0
2503 -252 2504 0
-2503 252 2504 0
2504 254 -2505 0
-2504 -254 -2505 0
2504 -254 2505 0
-2504 254 2505 0
2505 255 -2506 0
-2505 -255 -2506 0
2505 -255 2506 0
-2505 255 2506 0
2506 256 -2507 0
-2506 -256 -2507 0
2506 -256 2507 0
-2506 256 2507 0
2507 257 -2508 0
-2507 -257 -2508 0
2507 -257 2508 0
-2507 257 2508 0
2508 258 -2509 0
-2508 -258 -2509 0
2508 -258 2509 0
-2508 258 2509 0
2509 260 -2510 0
-2509 -260 -2510 0
2509 -260 2510 0
-2509 260 2510 0
2510 261 -2511 0
-2510 -261 -2511 0
2510 -261 2511 0
-2510 261 2511 0
2511 262 -2512 0
-2511 -262 -2512 0
2511 -262 2512 0
-2511 262 2512 0
2512 263 -2513 0
-2512 -263 -2513 0
2512 -263 2513 0
-2512 263 2513 0
2513 264 -2514 0
-2513 -264 -2514 0
2513 -264 2514 0
-2513 264 2514 0
2514 266 -2515 0
-2514 -266 -2515 0
2514 -266 2515 0
-2514 266 2515 0
2515 267 -2516 0
-2515 -267 -2516 0
2515 -267 2516 0
-2515 267 2516 0
2516 268 -2517 0
-2516 -268 -2517 0
2516 -268 2517 0
-2516 268 2517 0
2517 269 -2518 0
-2517 -269 -2518 0
2517 -269 2518 0
-2517 269 2518 0
2518 270 -2519 0
-2518 -270 -2519 0
2518 -270 2519 0
-2518 270 2519 0
2519 272 -2520 0
-2519 -272 -2520 0
2519 -272 2520 0
-2519 272 2520 0
2520 273 -2521 0
-2520 -273 -2521 0
2520 -273 2521 0
-2520 273 2521 0
2521 274 -2522 0
-2521 -274 -2522 0
2521 -274 2522 0
-2521 274 2522 0
2522 275 -2523 0
-2522 -275 -2523 0
2522 -275 2523 0
-2522 275 2523 0
2523 276 -2524 0
-2523 -276 -2524 0
2523 -276 2524 0
-2523 276 2524 0
2524 278 -2525 0
-2524 -278 -2525 0
2524 -278 2525 0
-2524 278 2525 0
2525 279 -2526 0
-2525 -279 -2526 0
2525 -279 2526 0
-2525 279 2526 0
2526 280 -2527 0
-2526 -280 -2527 0
2526 -280 2527 0
-2526 280 2527 0
2527 281 -2528 0
-2527 -281 -2528 0
2527 -281 2528 0
-2527 281 2528 0
2528 282 -2529 0
-2528 -282 -2529 0
2528 -282 2529 0
-2528 282 2529 0
2529 284 -2530 0
-2529 -284 -2530 0
2529 -284 2530 0
-2529 284 2530 0
2530 285 -2531 0
-2530 -285 -2531 0
2530 -285 2531 0
-2530 285 2531 0
2531 286 -2532 0
-2531 -286 -2532 0
2531 -286 2532 0
-2531 286 2532 0
2532 287 -2533 0
-2532 -287 -2533 0
2532 -287 2533 0
-2532 287 2533 0
2533 288 -2534 0
-2533 -288 -2534 0
2533 -288 2534 0
-2533 288 2534 0
2534 290 -2535 0
-2534 -290 -2535 0
2534 -290 2535 0
-2534 290 2535 0
2535 291 -2536 0
-2535 -291 -2536 0
2535 -291 2536 0
-2535 291 2536 0
2536 292 -2537 0
-2536 -292 -2537 0
2536 -292 2537 0
-2536 292 2537 0
2537 293 -2538 0
-2537 -293 -2538 0
2537 -293 2538 0
-2537 293 2538 0
2538 294 -2539 0
-2538 -294 -2539 0
2538 -294 2539 0
-2538 294 2539 0
2539 296 -2540 0
-2539 -296 -2540 0
2539 -296 2540 0
-2539 296 2540 0
2540 297 -2541 0
-2540 -297 -2541 0
2540 -297 2541 0
-2540 297 2541 0
2541 298 -2542 0
-2541 -298 -2542 0
2541 -298 2542 0
-2541 298 2542 0
2542 299 -2543 0
-2542 -299 -2543 0
2542 -299 2543 0
-2542 299 2543 0
2543 300 -2544 0
-2543 -300 -2544 0
2543 -300 2544 0
-2543 300 2544 0
2544 302 -2545 0
-2544 -302 -2545 0
2544 -302 2545 0
-2544 302 2545 0
2545 303 -2546 0
-2545 -303 -2546 0
2545 -303 2546 0
-2545 303 2546 0
2546 304 -2547 0
-2546 -304 -2547 0
2546 -304 2547 0
-2546 304 2547 0
2547 305 -2548 0
-2547 -305 -2548 0
2547 -305 2548 0
-2547 305 2548 0
2548 306 -2549 0
-2548 -306 -2549 0
2548 -306 2549 0
-2548 306 2549 0
2549 308 -2550 0
-2549 -308 -2550 0
2549 -308 2550 0
-2549 308 2550 0
2550 309 -2551 0
-2550 -309 -2551 0
2550 -309 2551 0
-2550 309 2551 0
2551 310 -2552 0
-2551 -310 -2552 0
2551 -310 2552 0
-2551 310 2552 0
2552 311 -2553 0
-2552 -311 -2553 0
2552 -311 2553 0
-2552 311 2553 0
2553 312 -2554 0
-2553 -312 -2554 0
2553 -312 2554 0
-2553 312 2554 0
2554 314 -2555 0
-2554 -314 -2555 0
2554 -314 2555 0
-2554 314 2555 0
2555 315 -2556 0
-2555 -315 -2556 0
2555 -315 2556 0
-2555 315 2556 0
2556 316 -2557 0
-2556 -316 -2557 0
2556 -316 2557 0
-2556 316 2557 0
2557 317 -2558 0
-2557 -317 -2558 0
2557 -317 2558 0
-2557 317 2558 0
2558 318 -2559 0
-2558 -318 -2559 0
2558 -318 2559 0
-2558 318 2559 0
2559 320 -2560 0
-2559 -320 -2560 0
2559 -320 2560 0
-2559 320 2560 0
2560 321 -2561 0
-2560 -321 -2561 0
2560 -321 2561 0
-2560 321 2561 0
2561 322 -2562 0
-2561 -322 -2562 0
2561 -322 2562 0
-2561 322 2562 0
2562 323 -2563 0
-2562 -323 -2563 0
2562 -323 2563 0
-2562 323 2563 0
2563 324 -2564 0
-2563 -324 -2564 0
2563 -324 2564 0
-2563 324 2564 0
2564 326 -2565 0
-2564 -326 -2565 0
2564 -326 2565 0
-2564 326 2565 0
2565 327 -2566 0
-2565 -327 -2566 0
2565 -327 2566 0
-2565 327 2566 0
2566 328 -2567 0
-2566 -328 -2567 0
2566 -328 2567 0
-2566 328 2567 0
2567 329 -2568 0
-2567 -329 -2568 0
2567 -329 2568 0
-2567 329 2568 0
2568 330 -2569 0
-2568 -330 -2569 0
2568 -330 2569 0
-2568 330 2569 0
2569 332 -2570 0
-2569 -332 -2570 0
2569 -332 2570 0
-2569 332 2570 0
2570 333 -2571 0
-2570 -333 -2571 0
2570 -333 2571 0
-2570 333 2571 0
2571 334 -2572 0
-2571 -334 -2572 0
2571 -334 2572 0
-2571 334 2572 0
2572 335 -2573 0
-2572 -335 -2573 0
2572 -335 2573 0
-2572 335 2573 0
2573 336 -2574 0
-2573 -336 -2574 0
2573 -336 2574 0
-2573 336 2574 0
2574 338 -2575 0
-2574 -338 -2575 0
2574 -338 2575 0
-2574 338 2575 0
2575 339 -2576 0
-2575 -339 -2576 0
2575 -339 2576 0
-2575 339 2576 0
2576 340 -2577 0
-2576 -340 -2577 0
2576 -340 2577 0
-2576 340 2577 0
2577 341 -2578 0
-2577 -341 -2578 0
2577 -341 2578 0
-2577 341 2578 0
2578 342 -2579 0
-2578 -342 -2579 0
2578 -342 2579 0
-2578 342 2579 0
2579 344 -2580 0
-2579 -344 -2580 0
2579 -344 2580 0
-2579 344 2580 0
2580 345 -2581 0
-2580 -345 -2581 0
2580 -345 2581 0
-2580 345 2581 0
2581 346 -2582 0
-2581 -346 -2582 0
2581 -346 2582 0
-2581 346 2582 0
2582 347 -2583 0
-2582 -347 -2583 0
2582 -347 2583 0
-2582 347 2583 0
2583 348 -2584 0
-2583 -348 -2584 0
2583 -348 2584 0
-2583 348 2584 0
2584 350 -2585 0
-2584 -350 -2585 0
2584 -350 2585 0
-2584 350 2585 0
2585 351 -2586 0
-2585 -351 -2586 0
2585 -351 2586 0
-2585 351 2586 0
2586 352 -2587 0
-2586 -352 -2587 0
2586 -352 2587 0
-2586 352 2587 0
2587 353 -2588 0
-2587 -353 -2588 0
2587 -353 2588 0
-2587 353 2588 0
2588 354 -2589 0
-2588 -354 -2589 0
2588 -354 2589 0
-2588 354 2589 0
2589 356 -2590 0
-2589 -356 -2590 0
2589 -356 2590 0
-2589 356 2590 0
2590 357 -2591 0
-2590 -357 -2591 0
2590 -357 2591 0
-2590 357 2591 0
2591 358 -2592 0
-2591 -358 -2592 0
2591 -358 2592 0
-2591 358 2592 0
2592 359 -2593 0
-2592 -359 -2593 0
2592 -359 2593 0
-2592 359 2593 0
2593 360 -2594 0
-2593 -360 -2594 0
2593 -360 2594 0
-2593 360 2594 0
2594 362 -2595 0
-2594 -362 -2595 0
2594 -362 2595 0
-2594 362 2595 0
2595 363 -2596 0
-2595 -363 -2596 0
2595 -363 2596 0
-2595 363 2596 0
2596 364 -2597 0
-2596 -364 -2597 0
2596 -364 2597 0
-2596 364 2597 0
2597 365 -2598 0
-2597 -365 -2598 0
2597 -365 2598 0
-2597 365 2598 0
2598 366 -2599 0
-2598 -366 -2599 0
2598 -366 2599 0
-2598 366 2599 0
2599 368 -2600 0
-2599 -368 -2600 0
2599 -368 2600 0
-2599 368 2600 0
2600 369 -2601 0
-2600 -369 -2601 0
2600 -369 2601 0
-2600 369 2601 0
2601 370 -2602 0
-2601 -370 -2602 0
2601 -370 2602 0
-2601 370 2602 0
2602 371 -2603 0
-2602 -371 -2603 0
2602 -371 2603 0
-2602 371 2603 0
2603 372 -2604 0
-2603 -372 -2604 0
2603 -372 2604 0
-2603 372 2604 0
2604 374 -2605 0
-2604 -374 -2605 0
2604 -374 2605 0
-2604 374 2605 0
2605 375 -2606 0
-2605 -375 -2606 0
2605 -375 2606 0
-2605 375 2606 0
2606 376 -2607 0
-2606 -376 -2607 0
2606 -376 2607 0
-2606 376 2607 0
2607 377 -2608 0
-2607 -377 -2608 0
2607 -377 2608 0
-2607 377 2608 0
2608 378 -2609 0
-2608 -378 -2609 0
2608 -378 2609 0
-2608 378 2609 0
2609 385 -2610 0
-2609 -385 -2610 0
2609 -385 2610 0
-2609 385 2610 0
2610 386 -2611 0
-2610 -386 -2611 0
2610 -386 2611 0
-2610 386 2611 0
2611 387 -2612 0
-2611 -387 -2612 0
2611 -387 2612 0
-2611 387 2612 0
2612 388 -2613 0
-2612 -388 -2613 0
2612 -388 2613 0
-2612 388 2613 0
2613 389 -2614 0
-2613 -389 -2614 0
2613 -389 2614 0
-2613 389 2614 0
2614 390 -2615 0
-2614 -390 -2615 0
2614 -390 2615 0
-2614 390 2615 0
2615 392 -2616 0
-2615 -392 -2616 0
2615 -392 2616 0
-2615 392 2616 0
2616 393 -2617 0
-2616 -393 -2617 0
2616 -393 2617 0
-2616 393 2617 0
2617 394 -2618 0
-2617 -394 -2618 0
2617 -394 2618 0
-2617 394 2618 0
2618 395 -2619 0
-2618 -395 -2619 0
2618 -395 2619 0
-2618 395 2619 0
2619 396 -2620 0
-2619 -396 -2620 0
2619 -396 2620 0
-2619 396 2620 0
13 206 -2621 0
-13 -206 -2621 0
13 -206 2621 0
-13 206 2621 0
2621 207 -2622 0
-2621 -207 -2622 0
2621 -207 2622 0
-2621 207 2622 0
2622 208 -2623 0
-2622 -208 -2623 0
2622 -208 2623 0
-2622 208 2623 0
2623 209 -2624 0
-2623 -209 -2624 0
2623 -209 2624 0
-2623 209 2624 0
2624 210 -2625 0
-2624 -210 -2625 0
2624 -210 2625 0
-2624 210 2625 0
2625 211 -2626 0
-2625 -211 -2626 0
2625 -211 2626 0
-2625 211 2626 0
2626 386 -2627 0
-2626 -386 -2627 0
2626 -386 2627 0
-2626 386 2627 0
2627 387 -2628 0
-2627 -387 -2628 0
2627 -387 2628 0
-2627 387 2628 0
2628 388 -2629 0
-2628 -388 -2629 0
2628 -388 2629 0
-2628 388 2629 0
2629 389 -2630 0
-2629 -389 -2630 0
2629 -389 2630 0
-2629 389 2630 0
2630 390 -2631 0
-2630 -390 -2631 0
2630 -390 2631 0
-2630 390 2631 0
2631 391 -2632 0
-2631 -391 -2632 0
2631 -391 2632 0
-2631 391 2632 0
14 207 -2633 0
-14 -207 -2633 0
14 -207 2633 0
-14 207 2633 0
2633 208 -2634 0
-2633 -208 -2634 0
2633 -208 2634 0
-2633 208 2634 0
2634 209 -2635 0
-2634 -209 -2635 0
2634 -209 2635 0
-2634 209 2635 0
2635 210 -2636 0
-2635 -210 -2636 0
2635 -210 2636 0
-2635 210 2636 0
2636 211 -2637 0
-2636 -211 -2637 0
2636 -211 2637 0
-2636 211 2637 0
2637 212 -2638 0
-2637 -212 -2638 0
2637 -212 2638 0
-2637 212 2638 0
2638 387 -2639 0
-2638 -387 -2639 0
2638 -387 2639 0
-2638 387 2639 0
2639 388 -2640 0
-2639 -388 -2640 0
2639 -388 2640 0
-2639 388 2640 0
2640 389 -2641 0
-2640 -389 -2641 0
2640 -389 2641 0
-2640 389 2641 0
2641 390 -2642 0
-2641 -390 -2642 0
2641 -390 2642 0
-2641 390 2642 0
2642 391 -2643 0
-2642 -391 -2643 0
2642 -391 2643 0
-2642 391 2643 0
2643 392 -2644 0
-2643 -392 -2644 0
2643 -392 2644 0
-2643 392 2644 0
15 208 -2645 0
-15 -208 -2645 0
15 -208 2645 0
-15 208 2645 0
2645 209 -2646 0
-2645 -209 -2646 0
2645 -209 2646 0
-2645 209 2646 0
2646 210 -2647 0
-2646 -210 -2647 0
2646 -210 2647 0
-2646 210 2647 0
2647 211 -2648 0
-2647 -211 -2648 0
2647 -211 2648 0
-2647 211 2648 0
2648 212 -2649 0
-2648 -212 -2649 0
2648 -212 2649 0
-2648 212 2649 0
2649 213 -2650 0
-2649 -213 -2650 0
2649 -213 2650 0
-2649 213 2650 0
2650 388 -2651 0
-2650 -388 -2651 0
2650 -388 2651 0
-2650 388 2651 0
2651 389 -2652 0
-2651 -389 -2652 0
2651 -389 2652 0
-2651 389 2652 0
2652 390 -2653 0
-2652 -390 -2653 0
2652 -390 2653 0
-2652 390 2653 0
2653 391 -2654 0
-2653 -391 -2654 0
2653 -391 2654 0
-2653 391 2654 0
2654 392 -2655 0
-2654 -392 -2655 0
2654 -392 2655 0
-2654 392 2655 0
2655 393 -2656 0
-2655 -393 -2656 0
2655 -393 2656 0
-2655 393 2656 0
16 209 -2657 0
-16 -209 -2657 0
16 -209 2657 0
-16 209 2657 0
2657 210 -2658 0
-2657 -210 -2658 0
2657 -210 2658 0
-2657 210 2658 0
2658 211 -2659 0
-2658 -211 -2659 0
2658 -211 2659 0
-2658 211 2659 0
2659 212 -2660 0
-2659 -212 -2660 0
2659 -212 2660 0
-2659 212 2660 0
2660 213 -2661 0
-2660 -213 -2661 0
2660 -213 2661 0
-2660 213 2661 0
2661 214 -2662 0
-2661 -214 -2662 0
2661 -214 2662 0
-2661 214 2662 0
2662 389 -2663 0
-2662 -389 -2663 0
2662 -389 2663 0
-2662 389 2663 0
2663 390 -2664 0
-2663 -390 -2664 0
2663 -390 2664 0
-2663 390 2664 0
2664 391 -2665 0
-2664 -391 -2665 0
2664 -391 2665 0
-2664 391 2665 0
2665 392 -2666 0
-2665 -392 -2666 0
2665 -392 2666 0
-2665 392 2666 0
2666 393 -2667 0
-2666 -393 -2667 0
2666 -393 2667 0
-2666 393 2667 0
2667 394 -2668 0
-2667 -394 -2668 0
2667 -394 2668 0
-2667 394 2668 0
17 210 -2669 0
-17 -210 -2669 0
17 -210 2669 0
-17 210 2669 0
2669 211 -2670 0
-2669 -211 -2670 0
2669 -211 2670 0
-2669 211 2670 0
2670 212 -2671 0
-2670 -212 -2671 0
2670 -212 2671 0
-2670 212 2671 0
2671 213 -2672 0
-2671 -213 -2672 0
2671 -213 2672 0
-2671 213 2672 0
2672 214 -2673 0
-2672 -214 -2673 0
2672 -214 2673 0
-2672 214 2673 0
2673 215 -2674 0
-2673 -215 -2674 0
2673 -215 2674 0
-2673 215 2674 0
2674 390 -2675 0
-2674 -390 -2675 0
2674 -390 2675 0
-2674 390 2675 0
2675 391 -2676 0
-2675 -391 -2676 0
2675 -391 2676 0
-2675 391 2676 0
2676 392 -2677 0
-2676 -392 -2677 0
2676 -392 2677 0
-2676 392 2677 0
2677 393 -2678 0
-2677 -393 -2678 0
2677 -393 2678 0
-2677 393 2678 0
2678 394 -2679 0
-2678 -394 -2679 0
2678 -394 2679 0
-2678 394 2679 0
2679 395 -2680 0
-2679 -395 -2680 0
2679 -395 2680 0
-2679 395 2680 0
1823 1893 1992 2120 2277 2463 2620 2632 2644 2656 2668 2680 0
1 0
-2689 2683 2690 0
-2686 2683 2690 0
-2686 -2689 2690 0
-2690 2681 0
-2687 2681 0
-2690 -2687 2682 0
-2688 2682 0
-2690 -2688 0
-2684 2681 0
-2690 -2684 2682 0
-2685 2682 0
-2690 -2685 0
-2684 -2687 2682 0
-2690 -2684 -2687 0
-2684 -2688 0
-2690 -2684 -2688 0
-2685 -2687 0
-2690 -2685 -2687 0
-2685 -2688 0
-2690 -2685 -2688 0
-2696 2689 2697 0
-2693 2689 2697 0
-2693 -2696 2697 0
-2697 2687 0
-2694 2687 0
-2697 -2694 2688 0
-2695 2688 0
-2697 -2695 0
-2691 2687 0
-2697 -2691 2688 0
-2692 2688 0
-2697 -2692 0
-2691 -2694 2688 0
-2697 -2691 -2694 0
-2691 -2695 0
-2697 -2691 -2695 0
-2692 -2694 0
-2697 -2692 -2694 0
-2692 -2695 0
-2697 -2692 -2695 0
-2703 2696 2704 0
-2700 2696 2704 0
-2700 -2703 2704 0
-2704 2694 0
-2701 2694 0
-2704 -2701 2695 0
-2702 2695 0
-2704 -2702 0
-2698 2694 0
-2704 -2698 2695 0
-2699 2695 0
-2704 -2699 0
-2698 -2701 2695 0
-2704 -2698 -2701 0
-2698 -2702 0
-2704 -2698 -2702 0
-2699 -2701 0
-2704 -2699 -2701 0
-2699 -2702 0
-2704 -2699 -2702 0
-2710 2703 2711 0
-2707 2703 2711 0
-2707 -2710 2711 0
-2711 2701 0
-2708 2701 0
-2711 -2708 2702 0
-2709 2702 0
-2711 -2709 0
-2705 2701 0
-2711 -2705 2702 0
-2706 2702 0
-2711 -2706 0
-2705 -2708 2702 0
-2711 -2705 -2708 0
-2705 -2709 0
-2711 -2705 -2709 0
-2706 -2708 0
-2711 -2706 -2708 0
-2706 -2709 0
-2711 -2706 -2709 0
-2717 2710 2718 0
-2714 2710 2718 0
-2714 -2717 2718 0
-2718 2708 0
-2715 2708 0
-2718 -2715 2709 0
-2716 2709 0
-2718 -2716 0
-2712 2708 0
-2718 -2712 2709 0
-2713 2709 0
-2718 -2713 0
-2712 -2715 2709 0
-2718 -2712 -2715 0
-2712 -2716 0
-2718 -2712 -2716 0
-2713 -2715 0
-2718 -2713 -2715 0
-2713 -2716 0
-2718 -2713 -2716 0
-2724 2717 2725 0
-2721 2717 2725 0
-2721 -2724 2725 0
-2725 2715 0
-2722 2715 0
-2725 -2722 2716 0
-2723 2716 0
-2725 -2723 0
-2719 2715 0
-2725 -2719 2716 0
-2720 2716 0
-2725 -2720 0
-2719 -2722 2716 0
-2725 -2719 -2722 0
-2719 -2723 0
-2725 -2719 -2723 0
-2720 -2722 0
-2725 -2720 -2722 0
-2720 -2723 0
-2725 -2720 -2723 0
-2729 2724 2730 0
-2727 2724 2730 0
-2727 -2729 2730 0
-2730 2722 0
-2728 2722 0
-2730 -2728 2723 0
-2726 2722 0
-2730 -2726 2723 0
-2726 -2728 2723 0
-2730 -2726 -2728 0
-396 2729 2733 0
-2732 2729 2733 0
-2732 -396 2733 0
-2733 2728 0
-2731 2728 0
-2733 -2731 0
-395 2732 2734 0
-394 2732 2734 0
-394 -395 2734 0
-2734 2731 0
-393 2727 2737 0
-2736 2727 2737 0
-2736 -393 2737 0
-2737 2726 0
-2735 2726 0
-2737 -2735 0
-392 2736 2738 0
-391 2736 2738 0
-391 -392 2738 0
-2738 2735 0
-2742 2721 2743 0
-2740 2721 2743 0
-2740 -2742 2743 0
-2743 2719 0
-2741 2719 0
-2743 -2741 2720 0
-2739 2719 0
-2743 -2739 2720 0
-2739 -2741 2720 0
-2743 -2739 -2741 0
-390 2742 2746 0
-2745 2742 2746 0
-2745 -390 2746 0
-2746 2741 0
-2744 2741 0
-2746 -2744 0
-389 2745 2747 0
-388 2745 2747 0
-388 -389 2747 0
-2747 2744 0
-387 2740 2750 0
-2749 2740 2750 0
-2749 -387 2750 0
-2750 2739 0
-2748 2739 0
-2750 -2748 0
-386 2749 2751 0
-385 2749 2751 0
-385 -386 2751 0
-2751 2748 0
-2757 2714 2758 0
-2754 2714 2758 0
-2754 -2757 2758 0
-2758 2712 0
-2755 2712 0
-2758 -2755 2713 0
-2756 2713 0
-2758 -2756 0
-2752 2712 0
-2758 -2752 2713 0
-2753 2713 0
-2758 -2753 0
-2752 -2755 2713 0
-2758 -2752 -2755 0
-2752 -2756 0
-2758 -2752 -2756 0
-2753 -2755 0
-2758 -2753 -2755 0
-2753 -2756 0
-2758 -2753 -2756 0
-2762 2757 2763 0
-2760 2757 2763 0
-2760 -2762 2763 0
-2763 2755 0
-2761 2755 0
-2763 -2761 2756 0
-2759 2755 0
-2763 -2759 2756 0
-2759 -2761 2756 0
-2763 -2759 -2761 0
-384 2762 2766 0
-2765 2762 2766 0
-2765 -384 2766 0
-2766 2761 0
-2764 2761 0
-2766 -2764 0
-383 2765 2767 0
-382 2765 2767 0
-382 -383 2767 0
-2767 2764 0
-381 2760 2770 0
-2769 2760 2770 0
-2769 -381 2770 0
-2770 2759 0
-2768 2759 0
-2770 -2768 0
-380 2769 2771 0
-379 2769 2771 0
-379 -380 2771 0
-2771 2768 0
-2775 2754 2776 0
-2773 2754 2776 0
-2773 -2775 2776 0
-2776 2752 0
-2774 2752 0
-2776 -2774 2753 0
-2772 2752 0
-2776 -2772 2753 0
-2772 -2774 2753 0
-2776 -2772 -2774 0
-378 2775 2779 0
-2778 2775 2779 0
-2778 -378 2779 0
-2779 2774 0
-2777 2774 0
-2779 -2777 0
-377 2778 2780 0
-376 2778 2780 0
-376 -377 2780 0
-2780 2777 0
-375 2773 2783 0
-2782 2773 2783 0
-2782 -375 2783 0
-2783 2772 0
-2781 2772 0
-2783 -2781 0
-374 2782 2784 0
-373 2782 2784 0
-373 -374 2784 0
-2784 2781 0
-2790 2707 2791 0
-2787 2707 2791 0
-2787 -2790 2791 0
-2791 2705 0
-2788 2705 0
-2791 -2788 2706 0
-2789 2706 0
-2791 -2789 0
-2785 2705 0
-2791 -2785 2706 0
-2786 2706 0
-2791 -2786 0
-2785 -2788 2706 0
-2791 -2785 -2788 0
-2785 -2789 0
-2791 -2785 -2789 0
-2786 -2788 0
-2791 -2786 -2788 0
-2786 -2789 0
-2791 -2786 -2789 0
-2797 2790 2798 0
-2794 2790 2798 0
-2794 -2797 2798 0
-2798 2788 0
-2795 2788 0
-2798 -2795 2789 0
-2796 2789 0
-2798 -2796 0
-2792 2788 0
-2798 -2792 2789 0
-2793 2789 0
-2798 -2793 0
-2792 -2795 2789 0
-2798 -2792 -2795 0
-2792 -2796 0
-2798 -2792 -2796 0
-2793 -2795 0
-2798 -2793 -2795 0
-2793 -2796 0
-2798 -2793 -2796 0
-2802 2797 2803 0
-2800 2797 2803 0
-2800 -2802 2803 0
-2803 2795 0
-2801 2795 0
-2803 -2801 2796 0
-2799 2795 0
-2803 -2799 2796 0
-2799 -2801 2796 0
-2803 -2799 -2801 0
-372 2802 2806 0
-2805 2802 2806 0
-2805 -372 2806 0
-2806 2801 0
-2804 2801 0
-2806 -2804 0
-371 2805 2807 0
-370 2805 2807 0
-370 -371 2807 0
-2807 2804 0
-369 2800 2810 0
-2809 2800 2810 0
-2809 -369 2810 0
-2810 2799 0
-2808 2799 0
-2810 -2808 0
-368 2809 2811 0
-367 2809 2811 0
-367 -368 2811 0
-2811 2808 0
-2815 2794 2816 0
-2813 2794 2816 0
-2813 -2815 2816 0
-2816 2792 0
-2814 2792 0
-2816 -2814 2793 0
-2812 2792 0
-2816 -2812 2793 0
-2812 -2814 2793 0
-2816 -2812 -2814 0
-366 2815 2819 0
-2818 2815 2819 0
-2818 -366 2819 0
-2819 2814 0
-2817 2814 0
-2819 -2817 0
-365 2818 2820 0
-364 2818 2820 0
-364 -365 2820 0
-2820 2817 0
-363 2813 2823 0
-2822 2813 2823 0
-2822 -363 2823 0
-2823 2812 0
-2821 2812 0
-2823 -2821 0
-362 2822 2824 0
-361 2822 2824 0
-361 -362 2824 0
-2824 2821 0
-2830 2787 2831 0
-2827 2787 2831 0
-2827 -2830 2831 0
-2831 2785 0
-2828 2785 0
-2831 -2828 2786 0
-2829 2786 0
-2831 -2829 0
-2825 2785 0
-2831 -2825 2786 0
-2826 2786 0
-2831 -2826 0
-2825 -2828 2786 0
-2831 -2825 -2828 0
-2825 -2829 0
-2831 -2825 -2829 0
-2826 -2828 0
-2831 -2826 -2828 0
-2826 -2829 0
-2831 -2826 -2829 0
-2835 2830 2836 0
-2833 2830 2836 0
-2833 -2835 2836 0
-2836 2828 0
-2834 2828 0
-2836 -2834 2829 0
-2832 2828 0
-2836 -2832 2829 0
-2832 -2834 2829 0
-2836 -2832 -2834 0
-360 2835 2839 0
-2838 2835 2839 0
-2838 -360 2839 0
-2839 2834 0
-2837 2834 0
-2839 -2837 0
-359 2838 2840 0
-358 2838 2840 0
-358 -359 2840 0
-2840 2837 0
-357 2833 2843 0
-2842 2833 2843 0
-2842 -357 2843 0
-2843 2832 0
-2841 2832 0
-2843 -2841 0
-356 2842 2844 0
-355 2842 2844 0
-355 -356 2844 0
-2844 2841 0
-2849 2827 2850 0
-2847 2827 2850 0
-2847 -2849 2850 0
-2850 2825 0
-2848 2825 0
-2850 -2848 2826 0
-2845 2825 0
-2850 -2845 2826 0
-2846 2826 0
-2850 -2846 0
-2845 -2848 2826 0
-2850 -2845 -2848 0
-2846 -2848 0
-2850 -2846 -2848 0
-354 2849 2853 0
-2852 2849 2853 0
-2852 -354 2853 0
-2853 2848 0
-2851 2848 0
-2853 -2851 0
-353 2852 2854 0
-352 2852 2854 0
-352 -353 2854 0
-2854 2851 0
-2858 2847 2859 0
-2856 2847 2859 0
-2856 -2858 2859 0
-2859 2845 0
-2857 2845 0
-2859 -2857 2846 0
-2855 2845 0
-2859 -2855 2846 0
-2855 -2857 2846 0
-2859 -2855 -2857 0
-351 2858 2860 0
-350 2858 2860 0
-350 -351 2860 0
-2860 2857 0
-349 2856 2861 0
-348 2856 2861 0
-348 -349 2861 0
-2861 2855 0
-2867 2700 2868 0
-2864 2700 2868 0
-2864 -2867 2868 0
-2868 2698 0
-2865 2698 0
-2868 -2865 2699 0
-2866 2699 0
-2868 -2866 0
-2862 2698 0
-2868 -2862 2699 0
-2863 2699 0
-2868 -2863 0
-2862 -2865 2699 0
-2868 -2862 -2865 0
-2862 -2866 0
-2868 -2862 -2866 0
-2863 -2865 0
-2868 -2863 -2865 0
-2863 -2866 0
-2868 -2863 -2866 0
-2874 2867 2875 0
-2871 2867 2875 0
-2871 -2874 2875 0
-2875 2865 0
-2872 2865 0
-2875 -2872 2866 0
-2873 2866 0
-2875 -2873 0
-2869 2865 0
-2875 -2869 2866 0
-2870 2866 0
-2875 -2870 0
-2869 -2872 2866 0
-2875 -2869 -2872 0
-2869 -2873 0
-2875 -2869 -2873 0
-2870 -2872 0
-2875 -2870 -2872 0
-2870 -2873 0
-2875 -2870 -2873 0
-2881 2874 2882 0
-2878 2874 2882 0
-2878 -2881 2882 0
-2882 2872 0
-2879 2872 0
-2882 -2879 2873 0
-2880 2873 0
-2882 -2880 0
-2876 2872 0
-2882 -2876 2873 0
-2877 2873 0
-2882 -2877 0
-2876 -2879 2873 0
-2882 -2876 -2879 0
-2876 -2880 0
-2882 -2876 -2880 0
-2877 -2879 0
-2882 -2877 -2879 0
-2877 -2880 0
-2882 -2877 -2880 0
-2886 2881 2887 0
-2884 2881 2887 0
-2884 -2886 2887 0
-2887 2879 0
-2885 2879 0
-2887 -2885 2880 0
-2883 2879 0
-2887 -2883 2880 0
-2883 -2885 2880 0
-2887 -2883 -2885 0
-347 2886 2890 0
-2889 2886 2890 0
-2889 -347 2890 0
-2890 2885 0
-2888 2885 0
-2890 -2888 0
-346 2889 2891 0
-345 2889 2891 0
-345 -346 2891 0
-2891 2888 0
-344 2884 2894 0
-2893 2884 2894 0
-2893 -344 2894 0
-2894 2883 0
-2892 2883 0
-2894 -2892 0
-343 2893 2895 0
-342 2893 2895 0
-342 -343 2895 0
-2895 2892 0
-2899 2878 2900 0
-2897 2878 2900 0
-2897 -2899 2900 0
-2900 2876 0
-2898 2876 0
-2900 -2898 2877 0
-2896 2876 0
-2900 -2896 2877 0
-2896 -2898 2877 0
-2900 -2896 -2898 0
-341 2899 2903 0
-2902 2899 2903 0
-2902 -341 2903 0
-2903 2898 0
-2901 2898 0
-2903 -2901 0
-340 2902 2904 0
-339 2902 2904 0
-339 -340 2904 0
-2904 2901 0
-338 2897 2907 0
-2906 2897 2907 0
-2906 -338 2907 0
-2907 2896 0
-2905 2896 0
-2907 -2905 0
-337 2906 2908 0
-336 2906 2908 0
-336 -337 2908 0
-2908 2905 0
-2914 2871 2915 0
-2911 2871 2915 0
-2911 -2914 2915 0
-2915 2869 0
-2912 2869 0
-2915 -2912 2870 0
-2913 2870 0
-2915 -2913 0
-2909 2869 0
-2915 -2909 2870 0
-2910 2870 0
-2915 -2910 0
-2909 -2912 2870 0
-2915 -2909 -2912 0
-2909 -2913 0
-2915 -2909 -2913 0
-2910 -2912 0
-2915 -2910 -2912 0
-2910 -2913 0
-2915 -2910 -2913 0
-2919 2914 2920 0
-2917 2914 2920 0
-2917 -2919 2920 0
-2920 2912 0
-2918 2912 0
-2920 -2918 2913 0
-2916 2912 0
-2920 -2916 2913 0
-2916 -2918 2913 0
-2920 -2916 -2918 0
-335 2919 2923 0
-2922 2919 2923 0
-2922 -335 2923 0
-2923 2918 0
-2921 2918 0
-2923 -2921 0
-334 2922 2924 0
-333 2922 2924 0
-333 -334 2924 0
-2924 2921 0
-332 2917 2927 0
-2926 2917 2927 0
-2926 -332 2927 0
-2927 2916 0
-2925 2916 0
-2927 -2925 0
-331 2926 2928 0
-330 2926 2928 0
-330 -331 2928 0
-2928 2925 0
-2933 2911 2934 0
-2931 2911 2934 0
-2931 -2933 2934 0
-2934 2909 0
-2932 2909 0
-2934 -2932 2910 0
-2929 2909 0
-2934 -2929 2910 0
-2930 2910 0
-2934 -2930 0
-2929 -2932 2910 0
-2934 -2929 -2932 0
-2930 -2932 0
-2934 -2930 -2932 0
-329 2933 2937 0
-2936 2933 2937 0
-2936 -329 2937 0
-2937 2932 0
-2935 2932 0
-2937 -2935 0
-328 2936 2938 0
-327 2936 2938 0
-327 -328 2938 0
-2938 2935 0
-2942 2931 2943 0
-2940 2931 2943 0
-2940 -2942 2943 0
-2943 2929 0
-2941 2929 0
-2943 -2941 2930 0
-2939 2929 0
-2943 -2939 2930 0
-2939 -2941 2930 0
-2943 -2939 -2941 0
-326 2942 2944 0
-325 2942 2944 0
-325 -326 2944 0
-2944 2941 0
-324 2940 2945 0
-323 2940 2945 0
-323 -324 2945 0
-2945 2939 0
-2951 2864 2952 0
-2948 2864 2952 0
-2948 -2951 2952 0
-2952 2862 0
-2949 2862 0
-2952 -2949 2863 0
-2950 2863 0
-2952 -2950 0
-2946 2862 0
-2952 -2946 2863 0
-2947 2863 0
-2952 -2947 0
-2946 -2949 2863 0
-2952 -2946 -2949 0
-2946 -2950 0
-2952 -2946 -2950 0
-2947 -2949 0
-2952 -2947 -2949 0
-2947 -2950 0
-2952 -2947 -2950 0
-2958 2951 2959 0
-2955 2951 2959 0
-2955 -2958 2959 0
-2959 2949 0
-2956 2949 0
-2959 -2956 2950 0
-2957 2950 0
-2959 -2957 0
-2953 2949 0
-2959 -2953 2950 0
-2954 2950 0
-2959 -2954 0
-2953 -2956 2950 0
-2959 -2953 -2956 0
-2953 -2957 0
-2959 -2953 -2957 0
-2954 -2956 0
-2959 -2954 -2956 0
-2954 -2957 0
-2959 -2954 -2957 0
-2963 2958 2964 0
-2961 2958 2964 0
-2961 -2963 2964 0
-2964 2956 0
-2962 2956 0
-2964 -2962 2957 0
-2960 2956 0
-2964 -2960 2957 0
-2960 -2962 2957 0
-2964 -2960 -2962 0
-322 2963 2967 0
-2966 2963 2967 0
-2966 -322 2967 0
-2967 2962 0
-2965 2962 0
-2967 -2965 0
-321 2966 2968 0
-320 2966 2968 0
-320 -321 2968 0
-2968 2965 0
-319 2961 2971 0
-2970 2961 2971 0
-2970 -319 2971 0
-2971 2960 0
-2969 2960 0
-2971 -2969 0
-318 2970 2972 0
-317 2970 2972 0
-317 -318 2972 0
-2972 2969 0
-2976 2955 2977 0
-2974 2955 2977 0
-2974 -2976 2977 0
-2977 2953 0
-2975 2953 0
-2977 -2975 2954 0
-2973 2953 0
-2977 -2973 2954 0
-2973 -2975 2954 0
-2977 -2973 -2975 0
-316 2976 2980 0
-2979 2976 2980 0
-2979 -316 2980 0
-2980 2975 0
-2978 2975 0
-2980 -2978 0
-315 2979 2981 0
-314 2979 2981 0
-314 -315 2981 0
-2981 2978 0
-313 2974 2984 0
-2983 2974 2984 0
-2983 -313 2984 0
-2984 2973 0
-2982 2973 0
-2984 -2982 0
-312 2983 2985 0
-311 2983 2985 0
-311 -312 2985 0
-2985 2982 0
-2991 2948 2992 0
-2988 2948 2992 0
-2988 -2991 2992 0
-2992 2946 0
-2989 2946 0
-2992 -2989 2947 0
-2990 2947 0
-2992 -2990 0
-2986 2946 0
-2992 -2986 2947 0
-2987 2947 0
-2992 -2987 0
-2986 -2989 2947 0
-2992 -2986 -2989 0
-2986 -2990 0
-2992 -2986 -2990 0
-2987 -2989 0
-2992 -2987 -2989 0
-2987 -2990 0
-2992 -2987 -2990 0
-2996 2991 2997 0
-2994 2991 2997 0
-2994 -2996 2997 0
-2997 2989 0
-2995 2989 0
-2997 -2995 2990 0
-2993 2989 0
-2997 -2993 2990 0
-2993 -2995 2990 0
-2997 -2993 -2995 0
-310 2996 3000 0
-2999 2996 3000 0
-2999 -310 3000 0
-3000 2995 0
-2998 2995 0
-3000 -2998 0
-309 2999 3001 0
-308 2999 3001 0
-308 -309 3001 0
-3001 2998 0
-307 2994 3004 0
-3003 2994 3004 0
-3003 -307 3004 0
-3004 2993 0
-3002 2993 0
-3004 -3002 0
-306 3003 3005 0
-305 3003 3005 0
-305 -306 3005 0
-3005 3002 0
-3010 2988 3011 0
-3008 2988 3011 0
-3008 -3010 3011 0
-3011 2986 0
-3009 2986 0
-3011 -3009 2987 0
-3006 2986 0
-3011 -3006 2987 0
-3007 2987 0
-3011 -3007 0
-3006 -3009 2987 0
-3011 -3006 -3009 0
-3007 -3009 0
-3011 -3007 -3009 0
-304 3010 3014 0
-3013 3010 3014 0
-3013 -304 3014 0
-3014 3009 0
-3012 3009 0
-3014 -3012 0
-303 3013 3015 0
-302 3013 3015 0
-302 -303 3015 0
-3015 3012 0
-3019 3008 3020 0
-3017 3008 3020 0
-3017 -3019 3020 0
-3020 3006 0
-3018 3006 0
-3020 -3018 3007 0
-3016 3006 0
-3020 -3016 3007 0
-3016 -3018 3007 0
-3020 -3016 -3018 0
-301 3019 3021 0
-300 3019 3021 0
-300 -301 3021 0
-3021 3018 0
-299 3017 3022 0
-298 3017 3022 0
-298 -299 3022 0
-3022 3016 0
-3028 2693 3029 0
-3025 2693 3029 0
-3025 -3028 3029 0
-3029 2691 0
-3026 2691 0
-3029 -3026 2692 0
-3027 2692 0
-3029 -3027 0
-3023 2691 0
-3029 -3023 2692 0
-3024 2692 0
-3029 -3024 0
-3023 -3026 2692 0
-3029 -3023 -3026 0
-3023 -3027 0
-3029 -3023 -3027 0
-3024 -3026 0
-3029 -3024 -3026 0
-3024 -3027 0
-3029 -3024 -3027 0
-3035 3028 3036 0
-3032 3028 3036 0
-3032 -3035 3036 0
-3036 3026 0
-3033 3026 0
-3036 -3033 3027 0
-3034 3027 0
-3036 -3034 0
-3030 3026 0
-3036 -3030 3027 0
-3031 3027 0
-3036 -3031 0
-3030 -3033 3027 0
-3036 -3030 -3033 0
-3030 -3034 0
-3036 -3030 -3034 0
-3031 -3033 0
-3036 -3031 -3033 0
-3031 -3034 0
-3036 -3031 -3034 0
-3042 3035 3043 0
-3039 3035 3043 0
-3039 -3042 3043 0
-3043 3033 0
-3040 3033 0
-3043 -3040 3034 0
-3041 3034 0
-3043 -3041 0
-3037 3033 0
-3043 -3037 3034 0
-3038 3034 0
-3043 -3038 0
-3037 -3040 3034 0
-3043 -3037 -3040 0
-3037 -3041 0
-3043 -3037 -3041 0
-3038 -3040 0
-3043 -3038 -3040 0
-3038 -3041 0
-3043 -3038 -3041 0
-3049 3042 3050 0
-3046 3042 3050 0
-3046 -3049 3050 0
-3050 3040 0
-3047 3040 0
-3050 -3047 3041 0
-3048 3041 0
-3050 -3048 0
-3044 3040 0
-3050 -3044 3041 0
-3045 3041 0
-3050 -3045 0
-3044 -3047 3041 0
-3050 -3044 -3047 0
-3044 -3048 0
-3050 -3044 -3048 0
-3045 -3047 0
-3050 -3045 -3047 0
-3045 -3048 0
-3050 -3045 -3048 0
-3054 3049 3055 0
-3052 3049 3055 0
-3052 -3054 3055 0
-3055 3047 0
-3053 3047 0
-3055 -3053 3048 0
-3051 3047 0
-3055 -3051 3048 0
-3051 -3053 3048 0
-3055 -3051 -3053 0
-297 3054 3058 0
-3057 3054 3058 0
-3057 -297 3058 0
-3058 3053 0
-3056 3053 0
-3058 -3056 0
-296 3057 3059 0
-295 3057 3059 0
-295 -296 3059 0
-3059 3056 0
-294 3052 3062 0
-3061 3052 3062 0
-3061 -294 3062 0
-3062 3051 0
-3060 3051 0
-3062 -3060 0
-293 3061 3063 0
-292 3061 3063 0
-292 -293 3063 0
-3063 3060 0
-3067 3046 3068 0
-3065 3046 3068 0
-3065 -3067 3068 0
-3068 3044 0
-3066 3044 0
-3068 -3066 3045 0
-3064 3044 0
-3068 -3064 3045 0
-3064 -3066 3045 0
-3068 -3064 -3066 0
-291 3067 3071 0
-3070 3067 3071 0
-3070 -291 3071 0
-3071 3066 0
-3069 3066 0
-3071 -3069 0
-290 3070 3072 0
-289 3070 3072 0
-289 -290 3072 0
-3072 3069 0
-288 3065 3075 0
-3074 3065 3075 0
-3074 -288 3075 0
-3075 3064 0
-3073 3064 0
-3075 -3073 0
-287 3074 3076 0
-286 3074 3076 0
-286 -287 3076 0
-3076 3073 0
-3082 3039 3083 0
-3079 3039 3083 0
-3079 -3082 3083 0
-3083 3037 0
-3080 3037 0
-3083 -3080 3038 0
-3081 3038 0
-3083 -3081 0
-3077 3037 0
-3083 -3077 3038 0
-3078 3038 0
-3083 -3078 0
-3077 -3080 3038 0
-3083 -3077 -3080 0
-3077 -3081 0
-3083 -3077 -3081 0
-3078 -3080 0
-3083 -3078 -3080 0
-3078 -3081 0
-3083 -3078 -3081 0
-3087 3082 3088 0
-3085 3082 3088 0
-3085 -3087 3088 0
-3088 3080 0
-3086 3080 0
-3088 -3086 3081 0
-3084 3080 0
-3088 -3084 3081 0
-3084 -3086 3081 0
-3088 -3084 -3086 0
-285 3087 3091 0
-3090 3087 3091 0
-3090 -285 3091 0
-3091 3086 0
-3089 3086 0
-3091 -3089 0
-284 3090 3092 0
-283 3090 3092 0
-283 -284 3092 0
-3092 3089 0
-282 3085 3095 0
-3094 3085 3095 0
-3094 -282 3095 0
-3095 3084 0
-3093 3084 0
-3095 -3093 0
-281 3094 3096 0
-280 3094 3096 0
-280 -281 3096 0
-3096 3093 0
-3100 3079 3101 0
-3098 3079 3101 0
-3098 -3100 3101 0
-3101 3077 0
-3099 3077 0
-3101 -3099 3078 0
-3097 3077 0
-3101 -3097 3078 0
-3097 -3099 3078 0
-3101 -3097 -3099 0
-279 3100 3104 0
-3103 3100 3104 0
-3103 -279 3104 0
-3104 3099 0
-3102 3099 0
-3104 -3102 0
-278 3103 3105 0
-277 3103 3105 0
-277 -278 3105 0
-3105 3102 0
-276 3098 3108 0
-3107 3098 3108 0
-3107 -276 3108 0
-3108 3097 0
-3106 3097 0
-3108 -3106 0
-275 3107 3109 0
-274 3107 3109 0
-274 -275 3109 0
-3109 3106 0
-3115 3032 3116 0
-3112 3032 3116 0
-3112 -3115 3116 0
-3116 3030 0
-3113 3030 0
-3116 -3113 3031 0
-3114 3031 0
-3116 -3114 0
-3110 3030 0
-3116 -3110 3031 0
-3111 3031 0
-3116 -3111 0
-3110 -3113 3031 0
-3116 -3110 -3113 0
-3110 -3114 0
-3116 -3110 -3114 0
-3111 -3113 0
-3116 -3111 -3113 0
-3111 -3114 0
-3116 -3111 -3114 0
-3122 3115 3123 0
-3119 3115 3123 0
-3119 -3122 3123 0
-3123 3113 0
-3120 3113 0
-3123 -3120 3114 0
-3121 3114 0
-3123 -3121 0
-3117 3113 0
-3123 -3117 3114 0
-3118 3114 0
-3123 -3118 0
-3117 -3120 3114 0
-3123 -3117 -3120 0
-3117 -3121 0
-3123 -3117 -3121 0
-3118 -3120 0
-3123 -3118 -3120 0
-3118 -3121 0
-3123 -3118 -3121 0
-3127 3122 3128 0
-3125 3122 3128 0
-3125 -3127 3128 0
-3128 3120 0
-3126 3120 0
-3128 -3126 3121 0
-3124 3120 0
-3128 -3124 3121 0
-3124 -3126 3121 0
-3128 -3124 -3126 0
-273 3127 3131 0
-3130 3127 3131 0
-3130 -273 3131 0
-3131 3126 0
-3129 3126 0
-3131 -3129 0
-272 3130 3132 0
-271 3130 3132 0
-271 -272 3132 0
-3132 3129 0
-270 3125 3135 0
-3134 3125 3135 0
-3134 -270 3135 0
-3135 3124 0
-3133 3124 0
-3135 -3133 0
-269 3134 3136 0
-268 3134 3136 0
-268 -269 3136 0
-3136 3133 0
-3140 3119 3141 0
-3138 3119 3141 0
-3138 -3140 3141 0
-3141 3117 0
-3139 3117 0
-3141 -3139 3118 0
-3137 3117 0
-3141 -3137 3118 0
-3137 -3139 3118 0
-3141 -3137 -3139 0
-267 3140 3144 0
-3143 3140 3144 0
-3143 -267 3144 0
-3144 3139 0
-3142 3139 0
-3144 -3142 0
-266 3143 3145 0
-265 3143 3145 0
-265 -266 3145 0
-3145 3142 0
-264 3138 3148 0
-3147 3138 3148 0
-3147 -264 3148 0
-3148 3137 0
-3146 3137 0
-3148 -3146 0
-263 3147 3149 0
-262 3147 3149 0
-262 -263 3149 0
-3149 3146 0
-3155 3112 3156 0
-3152 3112 3156 0
-3152 -3155 3156 0
-3156 3110 0
-3153 3110 0
-3156 -3153 3111 0
-3154 3111 0
-3156 -3154 0
-3150 3110 0
-3156 -3150 3111 0
-3151 3111 0
-3156 -3151 0
-3150 -3153 3111 0
-3156 -3150 -3153 0
-3150 -3154 0
-3156 -3150 -3154 0
-3151 -3153 0
-3156 -3151 -3153 0
-3151 -3154 0
-3156 -3151 -3154 0
-3160 3155 3161 0
-3158 3155 3161 0
-3158 -3160 3161 0
-3161 3153 0
-3159 3153 0
-3161 -3159 3154 0
-3157 3153 0
-3161 -3157 3154 0
-3157 -3159 3154 0
-3161 -3157 -3159 0
-261 3160 3164 0
-3163 3160 3164 0
-3163 -261 3164 0
-3164 3159 0
-3162 3159 0
-3164 -3162 0
-260 3163 3165 0
-259 3163 3165 0
-259 -260 3165 0
-3165 3162 0
-258 3158 3168 0
-3167 3158 3168 0
-3167 -258 3168 0
-3168 3157 0
-3166 3157 0
-3168 -3166 0
-257 3167 3169 0
-256 3167 3169 0
-256 -257 3169 0
-3169 3166 0
-3174 3152 3175 0
-3172 3152 3175 0
-3172 -3174 3175 0
-3175 3150 0
-3173 3150 0
-3175 -3173 3151 0
-3170 3150 0
-3175 -3170 3151 0
-3171 3151 0
-3175 -3171 0
-3170 -3173 3151 0
-3175 -3170 -3173 0
-3171 -3173 0
-3175 -3171 -3173 0
-255 3174 3178 0
-3177 3174 3178 0
-3177 -255 3178 0
-3178 3173 0
-3176 3173 0
-3178 -3176 0
-254 3177 3179 0
-253 3177 3179 0
-253 -254 3179 0
-3179 3176 0
-3183 3172 3184 0
-3181 3172 3184 0
-3181 -3183 3184 0
-3184 3170 0
-3182 3170 0
-3184 -3182 3171 0
-3180 3170 0
-3184 -3180 3171 0
-3180 -3182 3171 0
-3184 -3180 -3182 0
-252 3183 3185 0
-251 3183 3185 0
-251 -252 3185 0
-3185 3182 0
-250 3181 3186 0
-249 3181 3186 0
-249 -250 3186 0
-3186 3180 0
-3192 3025 3193 0
-3189 3025 3193 0
-3189 -3192 3193 0
-3193 3023 0
-3190 3023 0
-3193 -3190 3024 0
-3191 3024 0
-3193 -3191 0
-3187 3023 0
-3193 -3187 3024 0
-3188 3024 0
-3193 -3188 0
-3187 -3190 3024 0
-3193 -3187 -3190 0
-3187 -3191 0
-3193 -3187 -3191 0
-3188 -3190 0
-3193 -3188 -3190 0
-3188 -3191 0
-3193 -3188 -3191 0
-3199 3192 3200 0
-3196 3192 3200 0
-3196 -3199 3200 0
-3200 3190 0
-3197 3190 0
-3200 -3197 3191 0
-3198 3191 0
-3200 -3198 0
-3194 3190 0
-3200 -3194 3191 0
-3195 3191 0
-3200 -3195 0
-3194 -3197 3191 0
-3200 -3194 -3197 0
-3194 -3198 0
-3200 -3194 -3198 0
-3195 -3197 0
-3200 -3195 -3197 0
-3195 -3198 0
-3200 -3195 -3198 0
-3206 3199 3207 0
-3203 3199 3207 0
-3203 -3206 3207 0
-3207 3197 0
-3204 3197 0
-3207 -3204 3198 0
-3205 3198 0
-3207 -3205 0
-3201 3197 0
-3207 -3201 3198 0
-3202 3198 0
-3207 -3202 0
-3201 -3204 3198 0
-3207 -3201 -3204 0
-3201 -3205 0
-3207 -3201 -3205 0
-3202 -3204 0
-3207 -3202 -3204 0
-3202 -3205 0
-3207 -3202 -3205 0
-3211 3206 3212 0
-3209 3206 3212 0
-3209 -3211 3212 0
-3212 3204 0
-3210 3204 0
-3212 -3210 3205 0
-3208 3204 0
-3212 -3208 3205 0
-3208 -3210 3205 0
-3212 -3208 -3210 0
-248 3211 3215 0
-3214 3211 3215 0
-3214 -248 3215 0
-3215 3210 0
-3213 3210 0
-3215 -3213 0
-247 3214 3216 0
-246 3214 3216 0
-246 -247 3216 0
-3216 3213 0
-245 3209 3219 0
-3218 3209 3219 0
-3218 -245 3219 0
-3219 3208 0
-3217 3208 0
-3219 -3217 0
-244 3218 3220 0
-243 3218 3220 0
-243 -244 3220 0
-3220 3217 0
-3224 3203 3225 0
-3222 3203 3225 0
-3222 -3224 3225 0
-3225 3201 0
-3223 3201 0
-3225 -3223 3202 0
-3221 3201 0
-3225 -3221 3202 0
-3221 -3223 3202 0
-3225 -3221 -3223 0
-242 3224 3228 0
-3227 3224 3228 0
-3227 -242 3228 0
-3228 3223 0
-3226 3223 0
-3228 -3226 0
-241 3227 3229 0
-240 3227 3229 0
-240 -241 3229 0
-3229 3226 0
-239 3222 3232 0
-3231 3222 3232 0
-3231 -239 3232 0
-3232 3221 0
-3230 3221 0
-3232 -3230 0
-238 3231 3233 0
-237 3231 3233 0
-237 -238 3233 0
-3233 3230 0
-3239 3196 3240 0
-3236 3196 3240 0
-3236 -3239 3240 0
-3240 3194 0
-3237 3194 0
-3240 -3237 3195 0
-3238 3195 0
-3240 -3238 0
-3234 3194 0
-3240 -3234 3195 0
-3235 3195 0
-3240 -3235 0
-3234 -3237 3195 0
-3240 -3234 -3237 0
-3234 -3238 0
-3240 -3234 -3238 0
-3235 -3237 0
-3240 -3235 -3237 0
-3235 -3238 0
-3240 -3235 -3238 0
-3244 3239 3245 0
-3242 3239 3245 0
-3242 -3244 3245 0
-3245 3237 0
-3243 3237 0
-3245 -3243 3238 0
-3241 3237 0
-3245 -3241 3238 0
-3241 -3243 3238 0
-3245 -3241 -3243 0
-236 3244 3248 0
-3247 3244 3248 0
-3247 -236 3248 0
-3248 3243 0
-3246 3243 0
-3248 -3246 0
-235 3247 3249 0
-234 3247 3249 0
-234 -235 3249 0
-3249 3246 0
-233 3242 3252 0
-3251 3242 3252 0
-3251 -233 3252 0
-3252 3241 0
-3250 3241 0
-3252 -3250 0
-232 3251 3253 0
-231 3251 3253 0
-231 -232 3253 0
-3253 3250 0
-3258 3236 3259 0
-3256 3236 3259 0
-3256 -3258 3259 0
-3259 3234 0
-3257 3234 0
-3259 -3257 3235 0
-3254 3234 0
-3259 -3254 3235 0
-3255 3235 0
-3259 -3255 0
-3254 -3257 3235 0
-3259 -3254 -3257 0
-3255 -3257 0
-3259 -3255 -3257 0
-230 3258 3262 0
-3261 3258 3262 0
-3261 -230 3262 0
-3262 3257 0
-3260 3257 0
-3262 -3260 0
-229 3261 3263 0
-228 3261 3263 0
-228 -229 3263 0
-3263 3260 0
-3267 3256 3268 0
-3265 3256 3268 0
-3265 -3267 3268 0
-3268 3254 0
-3266 3254 0
-3268 -3266 3255 0
-3264 3254 0
-3268 -3264 3255 0
-3264 -3266 3255 0
-3268 -3264 -3266 0
-227 3267 3269 0
-226 3267 3269 0
-226 -227 3269 0
-3269 3266 0
-225 3265 3270 0
-224 3265 3270 0
-224 -225 3270 0
-3270 3264 0
-3276 3189 3277 0
-3273 3189 3277 0
-3273 -3276 3277 0
-3277 3187 0
-3274 3187 0
-3277 -3274 3188 0
-3275 3188 0
-3277 -3275 0
-3271 3187 0
-3277 -3271 3188 0
-3272 3188 0
-3277 -3272 0
-3271 -3274 3188 0
-3277 -3271 -3274 0
-3271 -3275 0
-3277 -3271 -3275 0
-3272 -3274 0
-3277 -3272 -3274 0
-3272 -3275 0
-3277 -3272 -3275 0
-3283 3276 3284 0
-3280 3276 3284 0
-3280 -3283 3284 0
-3284 3274 0
-3281 3274 0
-3284 -3281 3275 0
-3282 3275 0
-3284 -3282 0
-3278 3274 0
-3284 -3278 3275 0
-3279 3275 0
-3284 -3279 0
-3278 -3281 3275 0
-3284 -3278 -3281 0
-3278 -3282 0
-3284 -3278 -3282 0
-3279 -3281 0
-3284 -3279 -3281 0
-3279 -3282 0
-3284 -3279 -3282 0
-3288 3283 3289 0
-3286 3283 3289 0
-3286 -3288 3289 0
-3289 3281 0
-3287 3281 0
-3289 -3287 3282 0
-3285 3281 0
-3289 -3285 3282 0
-3285 -3287 3282 0
-3289 -3285 -3287 0
-223 3288 3292 0
-3291 3288 3292 0
-3291 -223 3292 0
-3292 3287 0
-3290 3287 0
-3292 -3290 0
-222 3291 3293 0
-221 3291 3293 0
-221 -222 3293 0
-3293 3290 0
-220 3286 3296 0
-3295 3286 3296 0
-3295 -220 3296 0
-3296 3285 0
-3294 3285 0
-3296 -3294 0
-219 3295 3297 0
-218 3295 3297 0
-218 -219 3297 0
-3297 3294 0
-3301 3280 3302 0
-3299 3280 3302 0
-3299 -3301 3302 0
-3302 3278 0
-3300 3278 0
-3302 -3300 3279 0
-3298 3278 0
-3302 -3298 3279 0
-3298 -3300 3279 0
-3302 -3298 -3300 0
-217 3301 3305 0
-3304 3301 3305 0
-3304 -217 3305 0
-3305 3300 0
-3303 3300 0
-3305 -3303 0
-216 3304 3306 0
-215 3304 3306 0
-215 -216 3306 0
-3306 3303 0
-214 3299 3309 0
-3308 3299 3309 0
-3308 -214 3309 0
-3309 3298 0
-3307 3298 0
-3309 -3307 0
-213 3308 3310 0
-212 3308 3310 0
-212 -213 3310 0
-3310 3307 0
-3316 3273 3317 0
-3313 3273 3317 0
-3313 -3316 3317 0
-3317 3271 0
-3314 3271 0
-3317 -3314 3272 0
-3315 3272 0
-3317 -3315 0
-3311 3271 0
-3317 -3311 3272 0
-3312 3272 0
-3317 -3312 0
-3311 -3314 3272 0
-3317 -3311 -3314 0
-3311 -3315 0
-3317 -3311 -3315 0
-3312 -3314 0
-3317 -3312 -3314 0
-3312 -3315 0
-3317 -3312 -3315 0
-3321 3316 3322 0
-3319 3316 3322 0
-3319 -3321 3322 0
-3322 3314 0
-3320 3314 0
-3322 -3320 3315 0
-3318 3314 0
-3322 -3318 3315 0
-3318 -3320 3315 0
-3322 -3318 -3320 0
-211 3321 3325 0
-3324 3321 3325 0
-3324 -211 3325 0
-3325 3320 0
-3323 3320 0
-3325 -3323 0
-210 3324 3326 0
-209 3324 3326 0
-209 -210 3326 0
-3326 3323 0
-208 3319 3329 0
-3328 3319 3329 0
-3328 -208 3329 0
-3329 3318 0
-3327 3318 0
-3329 -3327 0
-207 3328 3330 0
-206 3328 3330 0
-206 -207 3330 0
-3330 3327 0
-3335 3313 3336 0
-3333 3313 3336 0
-3333 -3335 3336 0
-3336 3311 0
-3334 3311 0
-3336 -3334 3312 0
-3331 3311 0
-3336 -3331 3312 0
-3332 3312 0
-3336 -3332 0
-3331 -3334 3312 0
-3336 -3331 -3334 0
-3332 -3334 0
-3336 -3332 -3334 0
-205 3335 3339 0
-3338 3335 3339 0
-3338 -205 3339 0
-3339 3334 0
-3337 3334 0
-3339 -3337 0
-204 3338 3340 0
-203 3338 3340 0
-203 -204 3340 0
-3340 3337 0
-3344 3333 3345 0
-3342 3333 3345 0
-3342 -3344 3345 0
-3345 3331 0
-3343 3331 0
-3345 -3343 3332 0
-3341 3331 0
-3345 -3341 3332 0
-3341 -3343 3332 0
-3345 -3341 -3343 0
-202 3344 3346 0
-201 3344 3346 0
-201 -202 3346 0
-3346 3343 0
-200 3342 3347 0
-199 3342 3347 0
-199 -200 3347 0
-3347 3341 0
-3353 2686 3354 0
-3350 2686 3354 0
-3350 -3353 3354 0
-3354 2684 0
-3351 2684 0
-3354 -3351 2685 0
-3352 2685 0
-3354 -3352 0
-3348 2684 0
-3354 -3348 2685 0
-3349 2685 0
-3354 -3349 0
-3348 -3351 2685 0
-3354 -3348 -3351 0
-3348 -3352 0
-3354 -3348 -3352 0
-3349 -3351 0
-3354 -3349 -3351 0
-3349 -3352 0
-3354 -3349 -3352 0
-3360 3353 3361 0
-3357 3353 3361 0
-3357 -3360 3361 0
-3361 3351 0
-3358 3351 0
-3361 -3358 3352 0
-3359 3352 0
-3361 -3359 0
-3355 3351 0
-3361 -3355 3352 0
-3356 3352 0
-3361 -3356 0
-3355 -3358 3352 0
-3361 -3355 -3358 0
-3355 -3359 0
-3361 -3355 -3359 0
-3356 -3358 0
-3361 -3356 -3358 0
-3356 -3359 0
-3361 -3356 -3359 0
-3367 3360 3368 0
-3364 3360 3368 0
-3364 -3367 3368 0
-3368 3358 0
-3365 3358 0
-3368 -3365 3359 0
-3366 3359 0
-3368 -3366 0
-3362 3358 0
-3368 -3362 3359 0
-3363 3359 0
-3368 -3363 0
-3362 -3365 3359 0
-3368 -3362 -3365 0
-3362 -3366 0
-3368 -3362 -3366 0
-3363 -3365 0
-3368 -3363 -3365 0
-3363 -3366 0
-3368 -3363 -3366 0
-3374 3367 3375 0
-3371 3367 3375 0
-3371 -3374 3375 0
-3375 3365 0
-3372 3365 0
-3375 -3372 3366 0
-3373 3366 0
-3375 -3373 0
-3369 3365 0
-3375 -3369 3366 0
-3370 3366 0
-3375 -3370 0
-3369 -3372 3366 0
-3375 -3369 -3372 0
-3369 -3373 0
-3375 -3369 -3373 0
-3370 -3372 0
-3375 -3370 -3372 0
-3370 -3373 0
-3375 -3370 -3373 0
-3381 3374 3382 0
-3378 3374 3382 0
-3378 -3381 3382 0
-3382 3372 0
-3379 3372 0
-3382 -3379 3373 0
-3380 3373 0
-3382 -3380 0
-3376 3372 0
-3382 -3376 3373 0
-3377 3373 0
-3382 -3377 0
-3376 -3379 3373 0
-3382 -3376 -3379 0
-3376 -3380 0
-3382 -3376 -3380 0
-3377 -3379 0
-3382 -3377 -3379 0
-3377 -3380 0
-3382 -3377 -3380 0
-3386 3381 3387 0
-3384 3381 3387 0
-3384 -3386 3387 0
-3387 3379 0
-3385 3379 0
-3387 -3385 3380 0
-3383 3379 0
-3387 -3383 3380 0
-3383 -3385 3380 0
-3387 -3383 -3385 0
-198 3386 3390 0
-3389 3386 3390 0
-3389 -198 3390 0
-3390 3385 0
-3388 3385 0
-3390 -3388 0
-197 3389 3391 0
-196 3389 3391 0
-196 -197 3391 0
-3391 3388 0
-195 3384 3394 0
-3393 3384 3394 0
-3393 -195 3394 0
-3394 3383 0
-3392 3383 0
-3394 -3392 0
-194 3393 3395 0
-193 3393 3395 0
-193 -194 3395 0
-3395 3392 0
-3399 3378 3400 0
-3397 3378 3400 0
-3397 -3399 3400 0
-3400 3376 0
-3398 3376 0
-3400 -3398 3377 0
-3396 3376 0
-3400 -3396 3377 0
-3396 -3398 3377 0
-3400 -3396 -3398 0
-192 3399 3403 0
-3402 3399 3403 0
-3402 -192 3403 0
-3403 3398 0
-3401 3398 0
-3403 -3401 0
-191 3402 3404 0
-190 3402 3404 0
-190 -191 3404 0
-3404 3401 0
-189 3397 3407 0
-3406 3397 3407 0
-3406 -189 3407 0
-3407 3396 0
-3405 3396 0
-3407 -3405 0
-188 3406 3408 0
-187 3406 3408 0
-187 -188 3408 0
-3408 3405 0
-3414 3371 3415 0
-3411 3371 3415 0
-3411 -3414 3415 0
-3415 3369 0
-3412 3369 0
-3415 -3412 3370 0
-3413 3370 0
-3415 -3413 0
-3409 3369 0
-3415 -3409 3370 0
-3410 3370 0
-3415 -3410 0
-3409 -3412 3370 0
-3415 -3409 -3412 0
-3409 -3413 0
-3415 -3409 -3413 0
-3410 -3412 0
-3415 -3410 -3412 0
-3410 -3413 0
-3415 -3410 -3413 0
-3419 3414 3420 0
-3417 3414 3420 0
-3417 -3419 3420 0
-3420 3412 0
-3418 3412 0
-3420 -3418 3413 0
-3416 3412 0
-3420 -3416 3413 0
-3416 -3418 3413 0
-3420 -3416 -3418 0
-186 3419 3423 0
-3422 3419 3423 0
-3422 -186 3423 0
-3423 3418 0
-3421 3418 0
-3423 -3421 0
-185 3422 3424 0
-184 3422 3424 0
-184 -185 3424 0
-3424 3421 0
-183 3417 3427 0
-3426 3417 3427 0
-3426 -183 3427 0
-3427 3416 0
-3425 3416 0
-3427 -3425 0
-182 3426 3428 0
-181 3426 3428 0
-181 -182 3428 0
-3428 3425 0
-3432 3411 3433 0
-3430 3411 3433 0
-3430 -3432 3433 0
-3433 3409 0
-3431 3409 0
-3433 -3431 3410 0
-3429 3409 0
-3433 -3429 3410 0
-3429 -3431 3410 0
-3433 -3429 -3431 0
-180 3432 3436 0
-3435 3432 3436 0
-3435 -180 3436 0
-3436 3431 0
-3434 3431 0
-3436 -3434 0
-179 3435 3437 0
-178 3435 3437 0
-178 -179 3437 0
-3437 3434 0
-177 3430 3440 0
-3439 3430 3440 0
-3439 -177 3440 0
-3440 3429 0
-3438 3429 0
-3440 -3438 0
-176 3439 3441 0
-175 3439 3441 0
-175 -176 3441 0
-3441 3438 0
-3447 3364 3448 0
-3444 3364 3448 0
-3444 -3447 3448 0
-3448 3362 0
-3445 3362 0
-3448 -3445 3363 0
-3446 3363 0
-3448 -3446 0
-3442 3362 0
-3448 -3442 3363 0
-3443 3363 0
-3448 -3443 0
-3442 -3445 3363 0
-3448 -3442 -3445 0
-3442 -3446 0
-3448 -3442 -3446 0
-3443 -3445 0
-3448 -3443 -3445 0
-3443 -3446 0
-3448 -3443 -3446 0
-3454 3447 3455 0
-3451 3447 3455 0
-3451 -3454 3455 0
-3455 3445 0
-3452 3445 0
-3455 -3452 3446 0
-3453 3446 0
-3455 -3453 0
-3449 3445 0
-3455 -3449 3446 0
-3450 3446 0
-3455 -3450 0
-3449 -3452 3446 0
-3455 -3449 -3452 0
-3449 -3453 0
-3455 -3449 -3453 0
-3450 -3452 0
-3455 -3450 -3452 0
-3450 -3453 0
-3455 -3450 -3453 0
-3459 3454 3460 0
-3457 3454 3460 0
-3457 -3459 3460 0
-3460 3452 0
-3458 3452 0
-3460 -3458 3453 0
-3456 3452 0
-3460 -3456 3453 0
-3456 -3458 3453 0
-3460 -3456 -3458 0
-174 3459 3463 0
-3462 3459 3463 0
-3462 -174 3463 0
-3463 3458 0
-3461 3458 0
-3463 -3461 0
-173 3462 3464 0
-172 3462 3464 0
-172 -173 3464 0
-3464 3461 0
-171 3457 3467 0
-3466 3457 3467 0
-3466 -171 3467 0
-3467 3456 0
-3465 3456 0
-3467 -3465 0
-170 3466 3468 0
-169 3466 3468 0
-169 -170 3468 0
-3468 3465 0
-3472 3451 3473 0
-3470 3451 3473 0
-3470 -3472 3473 0
-3473 3449 0
-3471 3449 0
-3473 -3471 3450 0
-3469 3449 0
-3473 -3469 3450 0
-3469 -3471 3450 0
-3473 -3469 -3471 0
-168 3472 3476 0
-3475 3472 3476 0
-3475 -168 3476 0
-3476 3471 0
-3474 3471 0
-3476 -3474 0
-167 3475 3477 0
-166 3475 3477 0
-166 -167 3477 0
-3477 3474 0
-165 3470 3480 0
-3479 3470 3480 0
-3479 -165 3480 0
-3480 3469 0
-3478 3469 0
-3480 -3478 0
-164 3479 3481 0
-163 3479 3481 0
-163 -164 3481 0
-3481 3478 0
-3487 3444 3488 0
-3484 3444 3488 0
-3484 -3487 3488 0
-3488 3442 0
-3485 3442 0
-3488 -3485 3443 0
-3486 3443 0
-3488 -3486 0
-3482 3442 0
-3488 -3482 3443 0
-3483 3443 0
-3488 -3483 0
-3482 -3485 3443 0
-3488 -3482 -3485 0
-3482 -3486 0
-3488 -3482 -3486 0
-3483 -3485 0
-3488 -3483 -3485 0
-3483 -3486 0
-3488 -3483 -3486 0
-3492 3487 3493 0
-3490 3487 3493 0
-3490 -3492 3493 0
-3493 3485 0
-3491 3485 0
-3493 -3491 3486 0
-3489 3485 0
-3493 -3489 3486 0
-3489 -3491 3486 0
-3493 -3489 -3491 0
-162 3492 3496 0
-3495 3492 3496 0
-3495 -162 3496 0
-3496 3491 0
-3494 3491 0
-3496 -3494 0
-161 3495 3497 0
-160 3495 3497 0
-160 -161 3497 0
-3497 3494 0
-159 3490 3500 0
-3499 3490 3500 0
-3499 -159 3500 0
-3500 3489 0
-3498 3489 0
-3500 -3498 0
-158 3499 3501 0
-157 3499 3501 0
-157 -158 3501 0
-3501 3498 0
-3506 3484 3507 0
-3504 3484 3507 0
-3504 -3506 3507 0
-3507 3482 0
-3505 3482 0
-3507 -3505 3483 0
-3502 3482 0
-3507 -3502 3483 0
-3503 3483 0
-3507 -3503 0
-3502 -3505 3483 0
-3507 -3502 -3505 0
-3503 -3505 0
-3507 -3503 -3505 0
-156 3506 3510 0
-3509 3506 3510 0
-3509 -156 3510 0
-3510 3505 0
-3508 3505 0
-3510 -3508 0
-155 3509 3511 0
-154 3509 3511 0
-154 -155 3511 0
-3511 3508 0
-3515 3504 3516 0
-3513 3504 3516 0
-3513 -3515 3516 0
-3516 3502 0
-3514 3502 0
-3516 -3514 3503 0
-3512 3502 0
-3516 -3512 3503 0
-3512 -3514 3503 0
-3516 -3512 -3514 0
-153 3515 3517 0
-152 3515 3517 0
-152 -153 3517 0
-3517 3514 0
-151 3513 3518 0
-150 3513 3518 0
-150 -151 3518 0
-3518 3512 0
-3524 3357 3525 0
-3521 3357 3525 0
-3521 -3524 3525 0
-3525 3355 0
-3522 3355 0
-3525 -3522 3356 0
-3523 3356 0
-3525 -3523 0
-3519 3355 0
-3525 -3519 3356 0
-3520 3356 0
-3525 -3520 0
-3519 -3522 3356 0
-3525 -3519 -3522 0
-3519 -3523 0
-3525 -3519 -3523 0
-3520 -3522 0
-3525 -3520 -3522 0
-3520 -3523 0
-3525 -3520 -3523 0
-3531 3524 3532 0
-3528 3524 3532 0
-3528 -3531 3532 0
-3532 3522 0
-3529 3522 0
-3532 -3529 3523 0
-3530 3523 0
-3532 -3530 0
-3526 3522 0
-3532 -3526 3523 0
-3527 3523 0
-3532 -3527 0
-3526 -3529 3523 0
-3532 -3526 -3529 0
-3526 -3530 0
-3532 -3526 -3530 0
-3527 -3529 0
-3532 -3527 -3529 0
-3527 -3530 0
-3532 -3527 -3530 0
-3538 3531 3539 0
-3535 3531 3539 0
-3535 -3538 3539 0
-3539 3529 0
-3536 3529 0
-3539 -3536 3530 0
-3537 3530 0
-3539 -3537 0
-3533 3529 0
-3539 -3533 3530 0
-3534 3530 0
-3539 -3534 0
-3533 -3536 3530 0
-3539 -3533 -3536 0
-3533 -3537 0
-3539 -3533 -3537 0
-3534 -3536 0
-3539 -3534 -3536 0
-3534 -3537 0
-3539 -3534 -3537 0
-3543 3538 3544 0
-3541 3538 3544 0
-3541 -3543 3544 0
-3544 3536 0
-3542 3536 0
-3544 -3542 3537 0
-3540 3536 0
-3544 -3540 3537 0
-3540 -3542 3537 0
-3544 -3540 -3542 0
-149 3543 3547 0
-3546 3543 3547 0
-3546 -149 3547 0
-3547 3542 0
-3545 3542 0
-3547 -3545 0
-148 3546 3548 0
-147 3546 3548 0
-147 -148 3548 0
-3548 3545 0
-146 3541 3551 0
-3550 3541 3551 0
-3550 -146 3551 0
-3551 3540 0
-3549 3540 0
-3551 -3549 0
-145 3550 3552 0
-144 3550 3552 0
-144 -145 3552 0
-3552 3549 0
-3556 3535 3557 0
-3554 3535 3557 0
-3554 -3556 3557 0
-3557 3533 0
-3555 3533 0
-3557 -3555 3534 0
-3553 3533 0
-3557 -3553 3534 0
-3553 -3555 3534 0
-3557 -3553 -3555 0
-143 3556 3560 0
-3559 3556 3560 0
-3559 -143 3560 0
-3560 3555 0
-3558 3555 0
-3560 -3558 0
-142 3559 3561 0
-141 3559 3561 0
-141 -142 3561 0
-3561 3558 0
-140 3554 3564 0
-3563 3554 3564 0
-3563 -140 3564 0
-3564 3553 0
-3562 3553 0
-3564 -3562 0
-139 3563 3565 0
-138 3563 3565 0
-138 -139 3565 0
-3565 3562 0
-3571 3528 3572 0
-3568 3528 3572 0
-3568 -3571 3572 0
-3572 3526 0
-3569 3526 0
-3572 -3569 3527 0
-3570 3527 0
-3572 -3570 0
-3566 3526 0
-3572 -3566 3527 0
-3567 3527 0
-3572 -3567 0
-3566 -3569 3527 0
-3572 -3566 -3569 0
-3566 -3570 0
-3572 -3566 -3570 0
-3567 -3569 0
-3572 -3567 -3569 0
-3567 -3570 0
-3572 -3567 -3570 0
-3576 3571 3577 0
-3574 3571 3577 0
-3574 -3576 3577 0
-3577 3569 0
-3575 3569 0
-3577 -3575 3570 0
-3573 3569 0
-3577 -3573 3570 0
-3573 -3575 3570 0
-3577 -3573 -3575 0
-137 3576 3580 0
-3579 3576 3580 0
-3579 -137 3580 0
-3580 3575 0
-3578 3575 0
-3580 -3578 0
-136 3579 3581 0
-135 3579 3581 0
-135 -136 3581 0
-3581 3578 0
-134 3574 3584 0
-3583 3574 3584 0
-3583 -134 3584 0
-3584 3573 0
-3582 3573 0
-3584 -3582 0
-133 3583 3585 0
-132 3583 3585 0
-132 -133 3585 0
-3585 3582 0
-3590 3568 3591 0
-3588 3568 3591 0
-3588 -3590 3591 0
-3591 3566 0
-3589 3566 0
-3591 -3589 3567 0
-3586 3566 0
-3591 -3586 3567 0
-3587 3567 0
-3591 -3587 0
-3586 -3589 3567 0
-3591 -3586 -3589 0
-3587 -3589 0
-3591 -3587 -3589 0
-131 3590 3594 0
-3593 3590 3594 0
-3593 -131 3594 0
-3594 3589 0
-3592 3589 0
-3594 -3592 0
-130 3593 3595 0
-129 3593 3595 0
-129 -130 3595 0
-3595 3592 0
-3599 3588 3600 0
-3597 3588 3600 0
-3597 -3599 3600 0
-3600 3586 0
-3598 3586 0
-3600 -3598 3587 0
-3596 3586 0
-3600 -3596 3587 0
-3596 -3598 3587 0
-3600 -3596 -3598 0
-128 3599 3601 0
-127 3599 3601 0
-127 -128 3601 0
-3601 3598 0
-126 3597 3602 0
-125 3597 3602 0
-125 -126 3602 0
-3602 3596 0
-3608 3521 3609 0
-3605 3521 3609 0
-3605 -3608 3609 0
-3609 3519 0
-3606 3519 0
-3609 -3606 3520 0
-3607 3520 0
-3609 -3607 0
-3603 3519 0
-3609 -3603 3520 0
-3604 3520 0
-3609 -3604 0
-3603 -3606 3520 0
-3609 -3603 -3606 0
-3603 -3607 0
-3609 -3603 -3607 0
-3604 -3606 0
-3609 -3604 -3606 0
-3604 -3607 0
-3609 -3604 -3607 0
-3615 3608 3616 0
-3612 3608 3616 0
-3612 -3615 3616 0
-3616 3606 0
-3613 3606 0
-3616 -3613 3607 0
-3614 3607 0
-3616 -3614 0
-3610 3606 0
-3616 -3610 3607 0
-3611 3607 0
-3616 -3611 0
-3610 -3613 3607 0
-3616 -3610 -3613 0
-3610 -3614 0
-3616 -3610 -3614 0
-3611 -3613 0
-3616 -3611 -3613 0
-3611 -3614 0
-3616 -3611 -3614 0
-3620 3615 3621 0
-3618 3615 3621 0
-3618 -3620 3621 0
-3621 3613 0
-3619 3613 0
-3621 -3619 3614 0
-3617 3613 0
-3621 -3617 3614 0
-3617 -3619 3614 0
-3621 -3617 -3619 0
-124 3620 3624 0
-3623 3620 3624 0
-3623 -124 3624 0
-3624 3619 0
-3622 3619 0
-3624 -3622 0
-123 3623 3625 0
-122 3623 3625 0
-122 -123 3625 0
-3625 3622 0
-121 3618 3628 0
-3627 3618 3628 0
-3627 -121 3628 0
-3628 3617 0
-3626 3617 0
-3628 -3626 0
-120 3627 3629 0
-119 3627 3629 0
-119 -120 3629 0
-3629 3626 0
-3633 3612 3634 0
-3631 3612 3634 0
-3631 -3633 3634 0
-3634 3610 0
-3632 3610 0
-3634 -3632 3611 0
-3630 3610 0
-3634 -3630 3611 0
-3630 -3632 3611 0
-3634 -3630 -3632 0
-118 3633 3637 0
-3636 3633 3637 0
-3636 -118 3637 0
-3637 3632 0
-3635 3632 0
-3637 -3635 0
-117 3636 3638 0
-116 3636 3638 0
-116 -117 3638 0
-3638 3635 0
-115 3631 3641 0
-3640 3631 3641 0
-3640 -115 3641 0
-3641 3630 0
-3639 3630 0
-3641 -3639 0
-114 3640 3642 0
-113 3640 3642 0
-113 -114 3642 0
-3642 3639 0
-3648 3605 3649 0
-3645 3605 3649 0
-3645 -3648 3649 0
-3649 3603 0
-3646 3603 0
-3649 -3646 3604 0
-3647 3604 0
-3649 -3647 0
-3643 3603 0
-3649 -3643 3604 0
-3644 3604 0
-3649 -3644 0
-3643 -3646 3604 0
-3649 -3643 -3646 0
-3643 -3647 0
-3649 -3643 -3647 0
-3644 -3646 0
-3649 -3644 -3646 0
-3644 -3647 0
-3649 -3644 -3647 0
-3653 3648 3654 0
-3651 3648 3654 0
-3651 -3653 3654 0
-3654 3646 0
-3652 3646 0
-3654 -3652 3647 0
-3650 3646 0
-3654 -3650 3647 0
-3650 -3652 3647 0
-3654 -3650 -3652 0
-112 3653 3657 0
-3656 3653 3657 0
-3656 -112 3657 0
-3657 3652 0
-3655 3652 0
-3657 -3655 0
-111 3656 3658 0
-110 3656 3658 0
-110 -111 3658 0
-3658 3655 0
-109 3651 3661 0
-3660 3651 3661 0
-3660 -109 3661 0
-3661 3650 0
-3659 3650 0
-3661 -3659 0
-108 3660 3662 0
-107 3660 3662 0
-107 -108 3662 0
-3662 3659 0
-3667 3645 3668 0
-3665 3645 3668 0
-3665 -3667 3668 0
-3668 3643 0
-3666 3643 0
-3668 -3666 3644 0
-3663 3643 0
-3668 -3663 3644 0
-3664 3644 0
-3668 -3664 0
-3663 -3666 3644 0
-3668 -3663 -3666 0
-3664 -3666 0
-3668 -3664 -3666 0
-106 3667 3671 0
-3670 3667 3671 0
-3670 -106 3671 0
-3671 3666 0
-3669 3666 0
-3671 -3669 0
-105 3670 3672 0
-104 3670 3672 0
-104 -105 3672 0
-3672 3669 0
-3676 3665 3677 0
-3674 3665 3677 0
-3674 -3676 3677 0
-3677 3663 0
-3675 3663 0
-3677 -3675 3664 0
-3673 3663 0
-3677 -3673 3664 0
-3673 -3675 3664 0
-3677 -3673 -3675 0
-103 3676 3678 0
-102 3676 3678 0
-102 -103 3678 0
-3678 3675 0
-101 3674 3679 0
-100 3674 3679 0
-100 -101 3679 0
-3679 3673 0
-3685 3350 3686 0
-3682 3350 3686 0
-3682 -3685 3686 0
-3686 3348 0
-3683 3348 0
-3686 -3683 3349 0
-3684 3349 0
-3686 -3684 0
-3680 3348 0
-3686 -3680 3349 0
-3681 3349 0
-3686 -3681 0
-3680 -3683 3349 0
-3686 -3680 -3683 0
-3680 -3684 0
-3686 -3680 -3684 0
-3681 -3683 0
-3686 -3681 -3683 0
-3681 -3684 0
-3686 -3681 -3684 0
-3692 3685 3693 0
-3689 3685 3693 0
-3689 -3692 3693 0
-3693 3683 0
-3690 3683 0
-3693 -3690 3684 0
-3691 3684 0
-3693 -3691 0
-3687 3683 0
-3693 -3687 3684 0
-3688 3684 0
-3693 -3688 0
-3687 -3690 3684 0
-3693 -3687 -3690 0
-3687 -3691 0
-3693 -3687 -3691 0
-3688 -3690 0
-3693 -3688 -3690 0
-3688 -3691 0
-3693 -3688 -3691 0
-3699 3692 3700 0
-3696 3692 3700 0
-3696 -3699 3700 0
-3700 3690 0
-3697 3690 0
-3700 -3697 3691 0
-3698 3691 0
-3700 -3698 0
-3694 3690 0
-3700 -3694 3691 0
-3695 3691 0
-3700 -3695 0
-3694 -3697 3691 0
-3700 -3694 -3697 0
-3694 -3698 0
-3700 -3694 -3698 0
-3695 -3697 0
-3700 -3695 -3697 0
-3695 -3698 0
-3700 -3695 -3698 0
-3706 3699 3707 0
-3703 3699 3707 0
-3703 -3706 3707 0
-3707 3697 0
-3704 3697 0
-3707 -3704 3698 0
-3705 3698 0
-3707 -3705 0
-3701 3697 0
-3707 -3701 3698 0
-3702 3698 0
-3707 -3702 0
-3701 -3704 3698 0
-3707 -3701 -3704 0
-3701 -3705 0
-3707 -3701 -3705 0
-3702 -3704 0
-3707 -3702 -3704 0
-3702 -3705 0
-3707 -3702 -3705 0
-3711 3706 3712 0
-3709 3706 3712 0
-3709 -3711 3712 0
-3712 3704 0
-3710 3704 0
-3712 -3710 3705 0
-3708 3704 0
-3712 -3708 3705 0
-3708 -3710 3705 0
-3712 -3708 -3710 0
-99 3711 3715 0
-3714 3711 3715 0
-3714 -99 3715 0
-3715 3710 0
-3713 3710 0
-3715 -3713 0
-98 3714 3716 0
-97 3714 3716 0
-97 -98 3716 0
-3716 3713 0
-96 3709 3719 0
-3718 3709 3719 0
-3718 -96 3719 0
-3719 3708 0
-3717 3708 0
-3719 -3717 0
-95 3718 3720 0
-94 3718 3720 0
-94 -95 3720 0
-3720 3717 0
-3724 3703 3725 0
-3722 3703 3725 0
-3722 -3724 3725 0
-3725 3701 0
-3723 3701 0
-3725 -3723 3702 0
-3721 3701 0
-3725 -3721 3702 0
-3721 -3723 3702 0
-3725 -3721 -3723 0
-93 3724 3728 0
-3727 3724 3728 0
-3727 -93 3728 0
-3728 3723 0
-3726 3723 0
-3728 -3726 0
-92 3727 3729 0
-91 3727 3729 0
-91 -92 3729 0
-3729 3726 0
-90 3722 3732 0
-3731 3722 3732 0
-3731 -90 3732 0
-3732 3721 0
-3730 3721 0
-3732 -3730 0
-89 3731 3733 0
-88 3731 3733 0
-88 -89 3733 0
-3733 3730 0
-3739 3696 3740 0
-3736 3696 3740 0
-3736 -3739 3740 0
-3740 3694 0
-3737 3694 0
-3740 -3737 3695 0
-3738 3695 0
-3740 -3738 0
-3734 3694 0
-3740 -3734 3695 0
-3735 3695 0
-3740 -3735 0
-3734 -3737 3695 0
-3740 -3734 -3737 0
-3734 -3738 0
-3740 -3734 -3738 0
-3735 -3737 0
-3740 -3735 -3737 0
-3735 -3738 0
-3740 -3735 -3738 0
-3744 3739 3745 0
-3742 3739 3745 0
-3742 -3744 3745 0
-3745 3737 0
-3743 3737 0
-3745 -3743 3738 0
-3741 3737 0
-3745 -3741 3738 0
-3741 -3743 3738 0
-3745 -3741 -3743 0
-87 3744 3748 0
-3747 3744 3748 0
-3747 -87 3748 0
-3748 3743 0
-3746 3743 0
-3748 -3746 0
-86 3747 3749 0
-85 3747 3749 0
-85 -86 3749 0
-3749 3746 0
-84 3742 3752 0
-3751 3742 3752 0
-3751 -84 3752 0
-3752 3741 0
-3750 3741 0
-3752 -3750 0
-83 3751 3753 0
-82 3751 3753 0
-82 -83 3753 0
-3753 3750 0
-3757 3736 3758 0
-3755 3736 3758 0
-3755 -3757 3758 0
-3758 3734 0
-3756 3734 0
-3758 -3756 3735 0
-3754 3734 0
-3758 -3754 3735 0
-3754 -3756 3735 0
-3758 -3754 -3756 0
-81 3757 3761 0
-3760 3757 3761 0
-3760 -81 3761 0
-3761 3756 0
-3759 3756 0
-3761 -3759 0
-80 3760 3762 0
-79 3760 3762 0
-79 -80 3762 0
-3762 3759 0
-78 3755 3765 0
-3764 3755 3765 0
-3764 -78 3765 0
-3765 3754 0
-3763 3754 0
-3765 -3763 0
-77 3764 3766 0
-76 3764 3766 0
-76 -77 3766 0
-3766 3763 0
-3772 3689 3773 0
-3769 3689 3773 0
-3769 -3772 3773 0
-3773 3687 0
-3770 3687 0
-3773 -3770 3688 0
-3771 3688 0
-3773 -3771 0
-3767 3687 0
-3773 -3767 3688 0
-3768 3688 0
-3773 -3768 0
-3767 -3770 3688 0
-3773 -3767 -3770 0
-3767 -3771 0
-3773 -3767 -3771 0
-3768 -3770 0
-3773 -3768 -3770 0
-3768 -3771 0
-3773 -3768 -3771 0
-3779 3772 3780 0
-3776 3772 3780 0
-3776 -3779 3780 0
-3780 3770 0
-3777 3770 0
-3780 -3777 3771 0
-3778 3771 0
-3780 -3778 0
-3774 3770 0
-3780 -3774 3771 0
-3775 3771 0
-3780 -3775 0
-3774 -3777 3771 0
-3780 -3774 -3777 0
-3774 -3778 0
-3780 -3774 -3778 0
-3775 -3777 0
-3780 -3775 -3777 0
-3775 -3778 0
-3780 -3775 -3778 0
-3784 3779 3785 0
-3782 3779 3785 0
-3782 -3784 3785 0
-3785 3777 0
-3783 3777 0
-3785 -3783 3778 0
-3781 3777 0
-3785 -3781 3778 0
-3781 -3783 3778 0
-3785 -3781 -3783 0
-75 3784 3788 0
-3787 3784 3788 0
-3787 -75 3788 0
-3788 3783 0
-3786 3783 0
-3788 -3786 0
-74 3787 3789 0
-73 3787 3789 0
-73 -74 3789 0
-3789 3786 0
-72 3782 3792 0
-3791 3782 3792 0
-3791 -72 3792 0
-3792 3781 0
-3790 3781 0
-3792 -3790 0
-71 3791 3793 0
-70 3791 3793 0
-70 -71 3793 0
-3793 3790 0
-3797 3776 3798 0
-3795 3776 3798 0
-3795 -3797 3798 0
-3798 3774 0
-3796 3774 0
-3798 -3796 3775 0
-3794 3774 0
-3798 -3794 3775 0
-3794 -3796 3775 0
-3798 -3794 -3796 0
-69 3797 3801 0
-3800 3797 3801 0
-3800 -69 3801 0
-3801 3796 0
-3799 3796 0
-3801 -3799 0
-68 3800 3802 0
-67 3800 3802 0
-67 -68 3802 0
-3802 3799 0
-66 3795 3805 0
-3804 3795 3805 0
-3804 -66 3805 0
-3805 3794 0
-3803 3794 0
-3805 -3803 0
-65 3804 3806 0
-64 3804 3806 0
-64 -65 3806 0
-3806 3803 0
-3812 3769 3813 0
-3809 3769 3813 0
-3809 -3812 3813 0
-3813 3767 0
-3810 3767 0
-3813 -3810 3768 0
-3811 3768 0
-3813 -3811 0
-3807 3767 0
-3813 -3807 3768 0
-3808 3768 0
-3813 -3808 0
-3807 -3810 3768 0
-3813 -3807 -3810 0
-3807 -3811 0
-3813 -3807 -3811 0
-3808 -3810 0
-3813 -3808 -3810 0
-3808 -3811 0
-3813 -3808 -3811 0
-3817 3812 3818 0
-3815 3812 3818 0
-3815 -3817 3818 0
-3818 3810 0
-3816 3810 0
-3818 -3816 3811 0
-3814 3810 0
-3818 -3814 3811 0
-3814 -3816 3811 0
-3818 -3814 -3816 0
-63 3817 3821 0
-3820 3817 3821 0
-3820 -63 3821 0
-3821 3816 0
-3819 3816 0
-3821 -3819 0
-62 3820 3822 0
-61 3820 3822 0
-61 -62 3822 0
-3822 3819 0
-60 3815 3825 0
-3824 3815 3825 0
-3824 -60 3825 0
-3825 3814 0
-3823 3814 0
-3825 -3823 0
-59 3824 3826 0
-58 3824 3826 0
-58 -59 3826 0
-3826 3823 0
-3831 3809 3832 0
-3829 3809 3832 0
-3829 -3831 3832 0
-3832 3807 0
-3830 3807 0
-3832 -3830 3808 0
-3827 3807 0
-3832 -3827 3808 0
-3828 3808 0
-3832 -3828 0
-3827 -3830 3808 0
-3832 -3827 -3830 0
-3828 -3830 0
-3832 -3828 -3830 0
-57 3831 3835 0
-3834 3831 3835 0
-3834 -57 3835 0
-3835 3830 0
-3833 3830 0
-3835 -3833 0
-56 3834 3836 0
-55 3834 3836 0
-55 -56 3836 0
-3836 3833 0
-3840 3829 3841 0
-3838 3829 3841 0
-3838 -3840 3841 0
-3841 3827 0
-3839 3827 0
-3841 -3839 3828 0
-3837 3827 0
-3841 -3837 3828 0
-3837 -3839 3828 0
-3841 -3837 -3839 0
-54 3840 3842 0
-53 3840 3842 0
-53 -54 3842 0
-3842 3839 0
-52 3838 3843 0
-51 3838 3843 0
-51 -52 3843 0
-3843 3837 0
-3849 3682 3850 0
-3846 3682 3850 0
-3846 -3849 3850 0
-3850 3680 0
-3847 3680 0
-3850 -3847 3681 0
-3848 3681 0
-3850 -3848 0
-3844 3680 0
-3850 -3844 3681 0
-3845 3681 0
-3850 -3845 0
-3844 -3847 3681 0
-3850 -3844 -3847 0
-3844 -3848 0
-3850 -3844 -3848 0
-3845 -3847 0
-3850 -3845 -3847 0
-3845 -3848 0
-3850 -3845 -3848 0
-3856 3849 3857 0
-3853 3849 3857 0
-3853 -3856 3857 0
-3857 3847 0
-3854 3847 0
-3857 -3854 3848 0
-3855 3848 0
-3857 -3855 0
-3851 3847 0
-3857 -3851 3848 0
-3852 3848 0
-3857 -3852 0
-3851 -3854 3848 0
-3857 -3851 -3854 0
-3851 -3855 0
-3857 -3851 -3855 0
-3852 -3854 0
-3857 -3852 -3854 0
-3852 -3855 0
-3857 -3852 -3855 0
-3863 3856 3864 0
-3860 3856 3864 0
-3860 -3863 3864 0
-3864 3854 0
-3861 3854 0
-3864 -3861 3855 0
-3862 3855 0
-3864 -3862 0
-3858 3854 0
-3864 -3858 3855 0
-3859 3855 0
-3864 -3859 0
-3858 -3861 3855 0
-3864 -3858 -3861 0
-3858 -3862 0
-3864 -3858 -3862 0
-3859 -3861 0
-3864 -3859 -3861 0
-3859 -3862 0
-3864 -3859 -3862 0
-3868 3863 3869 0
-3866 3863 3869 0
-3866 -3868 3869 0
-3869 3861 0
-3867 3861 0
-3869 -3867 3862 0
-3865 3861 0
-3869 -3865 3862 0
-3865 -3867 3862 0
-3869 -3865 -3867 0
-50 3868 3872 0
-3871 3868 3872 0
-3871 -50 3872 0
-3872 3867 0
-3870 3867 0
-3872 -3870 0
-49 3871 3873 0
-48 3871 3873 0
-48 -49 3873 0
-3873 3870 0
-47 3866 3876 0
-3875 3866 3876 0
-3875 -47 3876 0
-3876 3865 0
-3874 3865 0
-3876 -3874 0
-46 3875 3877 0
-45 3875 3877 0
-45 -46 3877 0
-3877 3874 0
-3881 3860 3882 0
-3879 3860 3882 0
-3879 -3881 3882 0
-3882 3858 0
-3880 3858 0
-3882 -3880 3859 0
-3878 3858 0
-3882 -3878 3859 0
-3878 -3880 3859 0
-3882 -3878 -3880 0
-44 3881 3885 0
-3884 3881 3885 0
-3884 -44 3885 0
-3885 3880 0
-3883 3880 0
-3885 -3883 0
-43 3884 3886 0
-42 3884 3886 0
-42 -43 3886 0
-3886 3883 0
-41 3879 3889 0
-3888 3879 3889 0
-3888 -41 3889 0
-3889 3878 0
-3887 3878 0
-3889 -3887 0
-40 3888 3890 0
-39 3888 3890 0
-39 -40 3890 0
-3890 3887 0
-3896 3853 3897 0
-3893 3853 3897 0
-3893 -3896 3897 0
-3897 3851 0
-3894 3851 0
-3897 -3894 3852 0
-3895 3852 0
-3897 -3895 0
-3891 3851 0
-3897 -3891 3852 0
-3892 3852 0
-3897 -3892 0
-3891 -3894 3852 0
-3897 -3891 -3894 0
-3891 -3895 0
-3897 -3891 -3895 0
-3892 -3894 0
-3897 -3892 -3894 0
-3892 -3895 0
-3897 -3892 -3895 0
-3901 3896 3902 0
-3899 3896 3902 0
-3899 -3901 3902 0
-3902 3894 0
-3900 3894 0
-3902 -3900 3895 0
-3898 3894 0
-3902 -3898 3895 0
-3898 -3900 3895 0
-3902 -3898 -3900 0
-38 3901 3905 0
-3904 3901 3905 0
-3904 -38 3905 0
-3905 3900 0
-3903 3900 0
-3905 -3903 0
-37 3904 3906 0
-36 3904 3906 0
-36 -37 3906 0
-3906 3903 0
-35 3899 3909 0
-3908 3899 3909 0
-3908 -35 3909 0
-3909 3898 0
-3907 3898 0
-3909 -3907 0
-34 3908 3910 0
-33 3908 3910 0
-33 -34 3910 0
-3910 3907 0
-3915 3893 3916 0
-3913 3893 3916 0
-3913 -3915 3916 0
-3916 3891 0
-3914 3891 0
-3916 -3914 3892 0
-3911 3891 0
-3916 -3911 3892 0
-3912 3892 0
-3916 -3912 0
-3911 -3914 3892 0
-3916 -3911 -3914 0
-3912 -3914 0
-3916 -3912 -3914 0
-32 3915 3919 0
-3918 3915 3919 0
-3918 -32 3919 0
-3919 3914 0
-3917 3914 0
-3919 -3917 0
-31 3918 3920 0
-30 3918 3920 0
-30 -31 3920 0
-3920 3917 0
-3924 3913 3925 0
-3922 3913 3925 0
-3922 -3924 3925 0
-3925 3911 0
-3923 3911 0
-3925 -3923 3912 0
-3921 3911 0
-3925 -3921 3912 0
-3921 -3923 3912 0
-3925 -3921 -3923 0
-29 3924 3926 0
-28 3924 3926 0
-28 -29 3926 0
-3926 3923 0
-27 3922 3927 0
-26 3922 3927 0
-26 -27 3927 0
-3927 3921 0
-3933 3846 3934 0
-3930 3846 3934 0
-3930 -3933 3934 0
-3934 3844 0
-3931 3844 0
-3934 -3931 3845 0
-3932 3845 0
-3934 -3932 0
-3928 3844 0
-3934 -3928 3845 0
-3929 3845 0
-3934 -3929 0
-3928 -3931 3845 0
-3934 -3928 -3931 0
-3928 -3932 0
-3934 -3928 -3932 0
-3929 -3931 0
-3934 -3929 -3931 0
-3929 -3932 0
-3934 -3929 -3932 0
-3940 3933 3941 0
-3937 3933 3941 0
-3937 -3940 3941 0
-3941 3931 0
-3938 3931 0
-3941 -3938 3932 0
-3939 3932 0
-3941 -3939 0
-3935 3931 0
-3941 -3935 3932 0
-3936 3932 0
-3941 -3936 0
-3935 -3938 3932 0
-3941 -3935 -3938 0
-3935 -3939 0
-3941 -3935 -3939 0
-3936 -3938 0
-3941 -3936 -3938 0
-3936 -3939 0
-3941 -3936 -3939 0
-3945 3940 3946 0
-3943 3940 3946 0
-3943 -3945 3946 0
-3946 3938 0
-3944 3938 0
-3946 -3944 3939 0
-3942 3938 0
-3946 -3942 3939 0
-3942 -3944 3939 0
-3946 -3942 -3944 0
-25 3945 3949 0
-3948 3945 3949 0
-3948 -25 3949 0
-3949 3944 0
-3947 3944 0
-3949 -3947 0
-24 3948 3950 0
-23 3948 3950 0
-23 -24 3950 0
-3950 3947 0
-22 3943 3953 0
-3952 3943 3953 0
-3952 -22 3953 0
-3953 3942 0
-3951 3942 0
-3953 -3951 0
-21 3952 3954 0
-20 3952 3954 0
-20 -21 3954 0
-3954 3951 0
-3958 3937 3959 0
-3956 3937 3959 0
-3956 -3958 3959 0
-3959 3935 0
-3957 3935 0
-3959 -3957 3936 0
-3955 3935 0
-3959 -3955 3936 0
-3955 -3957 3936 0
-3959 -3955 -3957 0
-19 3958 3962 0
-3961 3958 3962 0
-3961 -19 3962 0
-3962 3957 0
-3960 3957 0
-3962 -3960 0
-18 3961 3963 0
-17 3961 3963 0
-17 -18 3963 0
-3963 3960 0
-16 3956 3966 0
-3965 3956 3966 0
-3965 -16 3966 0
-3966 3955 0
-3964 3955 0
-3966 -3964 0
-15 3965 3967 0
-14 3965 3967 0
-14 -15 3967 0
-3967 3964 0
-3973 3930 3974 0
-3970 3930 3974 0
-3970 -3973 3974 0
-3974 3928 0
-3971 3928 0
-3974 -3971 3929 0
-3972 3929 0
-3974 -3972 0
-3968 3928 0
-3974 -3968 3929 0
-3969 3929 0
-3974 -3969 0
-3968 -3971 3929 0
-3974 -3968 -3971 0
-3968 -3972 0
-3974 -3968 -3972 0
-3969 -3971 0
-3974 -3969 -3971 0
-3969 -3972 0
-3974 -3969 -3972 0
-3978 3973 3979 0
-3976 3973 3979 0
-3976 -3978 3979 0
-3979 3971 0
-3977 3971 0
-3979 -3977 3972 0
-3975 3971 0
-3979 -3975 3972 0
-3975 -3977 3972 0
-3979 -3975 -3977 0
-13 3978 3982 0
-3981 3978 3982 0
-3981 -13 3982 0
-3982 3977 0
-3980 3977 0
-3982 -3980 0
-12 3981 3983 0
-11 3981 3983 0
-11 -12 3983 0
-3983 3980 0
-10 3976 3986 0
-3985 3976 3986 0
-3985 -10 3986 0
-3986 3975 0
-3984 3975 0
-3986 -3984 0
-9 3985 3987 0
-8 3985 3987 0
-8 -9 3987 0
-3987 3984 0
-3992 3970 3993 0
-3990 3970 3993 0
-3990 -3992 3993 0
-3993 3968 0
-3991 3968 0
-3993 -3991 3969 0
-3988 3968 0
-3993 -3988 3969 0
-3989 3969 0
-3993 -3989 0
-3988 -3991 3969 0
-3993 -3988 -3991 0
-3989 -3991 0
-3993 -3989 -3991 0
-7 3992 3996 0
-3995 3992 3996 0
-3995 -7 3996 0
-3996 3991 0
-3994 3991 0
-3996 -3994 0
-6 3995 3997 0
-5 3995 3997 0
-5 -6 3997 0
-3997 3994 0
-4001 3990 4002 0
-3999 3990 4002 0
-3999 -4001 4002 0
-4002 3988 0
-4000 3988 0
-4002 -4000 3989 0
-3998 3988 0
-4002 -3998 3989 0
-3998 -4000 3989 0
-4002 -3998 -4000 0
-4 4001 4003 0
-3 4001 4003 0
-3 -4 4003 0
-4003 4000 0
-2 3999 4004 0
-1 3999 4004 0
-1 -2 4004 0
-4004 3998 0
