p cnf 1389 4321
1 72 -151 0
-1 -72 -151 0
1 -72 151 0
-1 72 151 0
151 73 -152 0
-151 -73 -152 0
151 -73 152 0
-151 73 152 0
152 75 -153 0
-152 -75 -153 0
152 -75 153 0
-152 75 153 0
153 76 -154 0
-153 -76 -154 0
153 -76 154 0
-153 76 154 0
154 136 -155 0
-154 -136 -155 0
154 -136 155 0
-154 136 155 0
155 142 -156 0
-155 -142 -156 0
155 -142 156 0
-155 142 156 0
156 145 -157 0
-156 -145 -157 0
156 -145 157 0
-156 145 157 0
-157 0
1 2 -158 0
-1 -2 -158 0
1 -2 158 0
-1 2 158 0
158 73 -159 0
-158 -73 -159 0
158 -73 159 0
-158 73 159 0
159 74 -160 0
-159 -74 -160 0
159 -74 160 0
-159 74 160 0
160 77 -161 0
-160 -77 -161 0
160 -77 161 0
-160 77 161 0
161 137 -162 0
-161 -137 -162 0
161 -137 162 0
-161 137 162 0
162 143 -163 0
-162 -143 -163 0
162 -143 163 0
-162 143 163 0
163 146 -164 0
-163 -146 -164 0
163 -146 164 0
-163 146 164 0
-164 0
2 3 -165 0
-2 -3 -165 0
2 -3 165 0
-2 3 165 0
165 74 -166 0
-165 -74 -166 0
165 -74 166 0
-165 74 166 0
166 75 -167 0
-166 -75 -167 0
166 -75 167 0
-166 75 167 0
167 78 -168 0
-167 -78 -168 0
167 -78 168 0
-167 78 168 0
168 138 -169 0
-168 -138 -169 0
168 -138 169 0
-168 138 169 0
169 144 -170 0
-169 -144 -170 0
169 -144 170 0
-169 144 170 0
170 147 -171 0
-170 -147 -171 0
170 -147 171 0
-170 147 171 0
-171 0
1 3 -172 0
-1 -3 -172 0
1 -3 172 0
-1 3 172 0
172 4 -173 0
-172 -4 -173 0
172 -4 173 0
-172 4 173 0
173 75 -174 0
-173 -75 -174 0
173 -75 174 0
-173 75 174 0
174 79 -175 0
-174 -79 -175 0
174 -79 175 0
-174 79 175 0
175 139 -176 0
-175 -139 -176 0
175 -139 176 0
-175 139 176 0
176 145 -177 0
-176 -145 -177 0
176 -145 177 0
-176 145 177 0
177 148 -178 0
-177 -148 -178 0
177 -148 178 0
-177 148 178 0
-178 0
1 2 -179 0
-1 -2 -179 0
1 -2 179 0
-1 2 179 0
179 4 -180 0
-179 -4 -180 0
179 -4 180 0
-179 4 180 0
180 5 -181 0
-180 -5 -181 0
180 -5 181 0
-180 5 181 0
181 80 -182 0
-181 -80 -182 0
181 -80 182 0
-181 80 182 0
182 140 -183 0
-182 -140 -183 0
182 -140 183 0
-182 140 183 0
183 146 -184 0
-183 -146 -184 0
183 -146 184 0
-183 146 184 0
184 149 -185 0
-184 -149 -185 0
184 -149 185 0
-184 149 185 0
-185 0
2 3 -186 0
-2 -3 -186 0
2 -3 186 0
-2 3 186 0
186 5 -187 0
-186 -5 -187 0
186 -5 187 0
-186 5 187 0
187 6 -188 0
-187 -6 -188 0
187 -6 188 0
-187 6 188 0
188 81 -189 0
-188 -81 -189 0
188 -81 189 0
-188 81 189 0
189 141 -190 0
-189 -141 -190 0
189 -141 190 0
-189 141 190 0
190 147 -191 0
-190 -147 -191 0
190 -147 191 0
-190 147 191 0
191 150 -192 0
-191 -150 -192 0
191 -150 192 0
-191 150 192 0
-192 0
3 4 -193 0
-3 -4 -193 0
3 -4 193 0
-3 4 193 0
193 6 -194 0
-193 -6 -194 0
193 -6 194 0
-193 6 194 0
194 7 -195 0
-194 -7 -195 0
194 -7 195 0
-194 7 195 0
195 76 -196 0
-195 -76 -196 0
195 -76 196 0
-195 76 196 0
196 82 -197 0
-196 -82 -197 0
196 -82 197 0
-196 82 197 0
197 142 -198 0
-197 -142 -198 0
197 -142 198 0
-197 142 198 0
198 148 -199 0
-198 -148 -199 0
198 -148 199 0
-198 148 199 0
-199 0
4 5 -200 0
-4 -5 -200 0
4 -5 200 0
-4 5 200 0
200 7 -201 0
-200 -7 -201 0
200 -7 201 0
-200 7 201 0
201 8 -202 0
-201 -8 -202 0
201 -8 202 0
-201 8 202 0
202 77 -203 0
-202 -77 -203 0
202 -77 203 0
-202 77 203 0
203 83 -204 0
-203 -83 -204 0
203 -83 204 0
-203 83 204 0
204 143 -205 0
-204 -143 -205 0
204 -143 205 0
-204 143 205 0
205 149 -206 0
-205 -149 -206 0
205 -149 206 0
-205 149 206 0
-206 0
5 6 -207 0
-5 -6 -207 0
5 -6 207 0
-5 6 207 0
207 8 -208 0
-207 -8 -208 0
207 -8 208 0
-207 8 208 0
208 9 -209 0
-208 -9 -209 0
208 -9 209 0
-208 9 209 0
209 78 -210 0
-209 -78 -210 0
209 -78 210 0
-209 78 210 0
210 84 -211 0
-210 -84 -211 0
210 -84 211 0
-210 84 211 0
211 144 -212 0
-211 -144 -212 0
211 -144 212 0
-211 144 212 0
212 150 -213 0
-212 -150 -213 0
212 -150 213 0
-212 150 213 0
-213 0
6 7 -214 0
-6 -7 -214 0
6 -7 214 0
-6 7 214 0
214 9 -215 0
-214 -9 -215 0
214 -9 215 0
-214 9 215 0
215 10 -216 0
-215 -10 -216 0
215 -10 216 0
-215 10 216 0
216 76 -217 0
-216 -76 -217 0
216 -76 217 0
-216 76 217 0
217 79 -218 0
-217 -79 -218 0
217 -79 218 0
-217 79 218 0
218 85 -219 0
-218 -85 -219 0
218 -85 219 0
-218 85 219 0
219 145 -220 0
-219 -145 -220 0
219 -145 220 0
-219 145 220 0
-220 0
7 8 -221 0
-7 -8 -221 0
7 -8 221 0
-7 8 221 0
221 10 -222 0
-221 -10 -222 0
221 -10 222 0
-221 10 222 0
222 11 -223 0
-222 -11 -223 0
222 -11 223 0
-222 11 223 0
223 77 -224 0
-223 -77 -224 0
223 -77 224 0
-223 77 224 0
224 80 -225 0
-224 -80 -225 0
224 -80 225 0
-224 80 225 0
225 86 -226 0
-225 -86 -226 0
225 -86 226 0
-225 86 226 0
226 146 -227 0
-226 -146 -227 0
226 -146 227 0
-226 146 227 0
-227 0
8 9 -228 0
-8 -9 -228 0
8 -9 228 0
-8 9 228 0
228 11 -229 0
-228 -11 -229 0
228 -11 229 0
-228 11 229 0
229 12 -230 0
-229 -12 -230 0
229 -12 230 0
-229 12 230 0
230 78 -231 0
-230 -78 -231 0
230 -78 231 0
-230 78 231 0
231 81 -232 0
-231 -81 -232 0
231 -81 232 0
-231 81 232 0
232 87 -233 0
-232 -87 -233 0
232 -87 233 0
-232 87 233 0
233 147 -234 0
-233 -147 -234 0
233 -147 234 0
-233 147 234 0
-234 0
9 10 -235 0
-9 -10 -235 0
9 -10 235 0
-9 10 235 0
235 12 -236 0
-235 -12 -236 0
235 -12 236 0
-235 12 236 0
236 13 -237 0
-236 -13 -237 0
236 -13 237 0
-236 13 237 0
237 79 -238 0
-237 -79 -238 0
237 -79 238 0
-237 79 238 0
238 82 -239 0
-238 -82 -239 0
238 -82 239 0
-238 82 239 0
239 88 -240 0
-239 -88 -240 0
239 -88 240 0
-239 88 240 0
240 148 -241 0
-240 -148 -241 0
240 -148 241 0
-240 148 241 0
-241 0
10 11 -242 0
-10 -11 -242 0
10 -11 242 0
-10 11 242 0
242 13 -243 0
-242 -13 -243 0
242 -13 243 0
-242 13 243 0
243 14 -244 0
-243 -14 -244 0
243 -14 244 0
-243 14 244 0
244 80 -245 0
-244 -80 -245 0
244 -80 245 0
-244 80 245 0
245 83 -246 0
-245 -83 -246 0
245 -83 246 0
-245 83 246 0
246 89 -247 0
-246 -89 -247 0
246 -89 247 0
-246 89 247 0
247 149 -248 0
-247 -149 -248 0
247 -149 248 0
-247 149 248 0
-248 0
11 12 -249 0
-11 -12 -249 0
11 -12 249 0
-11 12 249 0
249 14 -250 0
-249 -14 -250 0
249 -14 250 0
-249 14 250 0
250 15 -251 0
-250 -15 -251 0
250 -15 251 0
-250 15 251 0
251 81 -252 0
-251 -81 -252 0
251 -81 252 0
-251 81 252 0
252 84 -253 0
-252 -84 -253 0
252 -84 253 0
-252 84 253 0
253 90 -254 0
-253 -90 -254 0
253 -90 254 0
-253 90 254 0
254 150 -255 0
-254 -150 -255 0
254 -150 255 0
-254 150 255 0
-255 0
12 13 -256 0
-12 -13 -256 0
12 -13 256 0
-12 13 256 0
256 15 -257 0
-256 -15 -257 0
256 -15 257 0
-256 15 257 0
257 16 -258 0
-257 -16 -258 0
257 -16 258 0
-257 16 258 0
258 76 -259 0
-258 -76 -259 0
258 -76 259 0
-258 76 259 0
259 82 -260 0
-259 -82 -260 0
259 -82 260 0
-259 82 260 0
260 85 -261 0
-260 -85 -261 0
260 -85 261 0
-260 85 261 0
261 91 -262 0
-261 -91 -262 0
261 -91 262 0
-261 91 262 0
-262 0
13 14 -263 0
-13 -14 -263 0
13 -14 263 0
-13 14 263 0
263 16 -264 0
-263 -16 -264 0
263 -16 264 0
-263 16 264 0
264 17 -265 0
-264 -17 -265 0
264 -17 265 0
-264 17 265 0
265 77 -266 0
-265 -77 -266 0
265 -77 266 0
-265 77 266 0
266 83 -267 0
-266 -83 -267 0
266 -83 267 0
-266 83 267 0
267 86 -268 0
-267 -86 -268 0
267 -86 268 0
-267 86 268 0
268 92 -269 0
-268 -92 -269 0
268 -92 269 0
-268 92 269 0
-269 0
14 15 -270 0
-14 -15 -270 0
14 -15 270 0
-14 15 270 0
270 17 -271 0
-270 -17 -271 0
270 -17 271 0
-270 17 271 0
271 18 -272 0
-271 -18 -272 0
271 -18 272 0
-271 18 272 0
272 78 -273 0
-272 -78 -273 0
272 -78 273 0
-272 78 273 0
273 84 -274 0
-273 -84 -274 0
273 -84 274 0
-273 84 274 0
274 87 -275 0
-274 -87 -275 0
274 -87 275 0
-274 87 275 0
275 93 -276 0
-275 -93 -276 0
275 -93 276 0
-275 93 276 0
-276 0
15 16 -277 0
-15 -16 -277 0
15 -16 277 0
-15 16 277 0
277 18 -278 0
-277 -18 -278 0
277 -18 278 0
-277 18 278 0
278 19 -279 0
-278 -19 -279 0
278 -19 279 0
-278 19 279 0
279 79 -280 0
-279 -79 -280 0
279 -79 280 0
-279 79 280 0
280 85 -281 0
-280 -85 -281 0
280 -85 281 0
-280 85 281 0
281 88 -282 0
-281 -88 -282 0
281 -88 282 0
-281 88 282 0
282 94 -283 0
-282 -94 -283 0
282 -94 283 0
-282 94 283 0
-283 0
16 17 -284 0
-16 -17 -284 0
16 -17 284 0
-16 17 284 0
284 19 -285 0
-284 -19 -285 0
284 -19 285 0
-284 19 285 0
285 20 -286 0
-285 -20 -286 0
285 -20 286 0
-285 20 286 0
286 80 -287 0
-286 -80 -287 0
286 -80 287 0
-286 80 287 0
287 86 -288 0
-287 -86 -288 0
287 -86 288 0
-287 86 288 0
288 89 -289 0
-288 -89 -289 0
288 -89 289 0
-288 89 289 0
289 95 -290 0
-289 -95 -290 0
289 -95 290 0
-289 95 290 0
-290 0
17 18 -291 0
-17 -18 -291 0
17 -18 291 0
-17 18 291 0
291 20 -292 0
-291 -20 -292 0
291 -20 292 0
-291 20 292 0
292 21 -293 0
-292 -21 -293 0
292 -21 293 0
-292 21 293 0
293 81 -294 0
-293 -81 -294 0
293 -81 294 0
-293 81 294 0
294 87 -295 0
-294 -87 -295 0
294 -87 295 0
-294 87 295 0
295 90 -296 0
-295 -90 -296 0
295 -90 296 0
-295 90 296 0
296 96 -297 0
-296 -96 -297 0
296 -96 297 0
-296 96 297 0
-297 0
18 19 -298 0
-18 -19 -298 0
18 -19 298 0
-18 19 298 0
298 21 -299 0
-298 -21 -299 0
298 -21 299 0
-298 21 299 0
299 22 -300 0
-299 -22 -300 0
299 -22 300 0
-299 22 300 0
300 82 -301 0
-300 -82 -301 0
300 -82 301 0
-300 82 301 0
301 88 -302 0
-301 -88 -302 0
301 -88 302 0
-301 88 302 0
302 91 -303 0
-302 -91 -303 0
302 -91 303 0
-302 91 303 0
303 97 -304 0
-303 -97 -304 0
303 -97 304 0
-303 97 304 0
-304 0
19 20 -305 0
-19 -20 -305 0
19 -20 305 0
-19 20 305 0
305 22 -306 0
-305 -22 -306 0
305 -22 306 0
-305 22 306 0
306 23 -307 0
-306 -23 -307 0
306 -23 307 0
-306 23 307 0
307 83 -308 0
-307 -83 -308 0
307 -83 308 0
-307 83 308 0
308 89 -309 0
-308 -89 -309 0
308 -89 309 0
-308 89 309 0
309 92 -310 0
-309 -92 -310 0
309 -92 310 0
-309 92 310 0
310 98 -311 0
-310 -98 -311 0
310 -98 311 0
-310 98 311 0
-311 0
20 21 -312 0
-20 -21 -312 0
20 -21 312 0
-20 21 312 0
312 23 -313 0
-312 -23 -313 0
312 -23 313 0
-312 23 313 0
313 24 -314 0
-313 -24 -314 0
313 -24 314 0
-313 24 314 0
314 84 -315 0
-314 -84 -315 0
314 -84 315 0
-314 84 315 0
315 90 -316 0
-315 -90 -316 0
315 -90 316 0
-315 90 316 0
316 93 -317 0
-316 -93 -317 0
316 -93 317 0
-316 93 317 0
317 99 -318 0
-317 -99 -318 0
317 -99 318 0
-317 99 318 0
-318 0
21 22 -319 0
-21 -22 -319 0
21 -22 319 0
-21 22 319 0
319 24 -320 0
-319 -24 -320 0
319 -24 320 0
-319 24 320 0
320 25 -321 0
-320 -25 -321 0
320 -25 321 0
-320 25 321 0
321 85 -322 0
-321 -85 -322 0
321 -85 322 0
-321 85 322 0
322 91 -323 0
-322 -91 -323 0
322 -91 323 0
-322 91 323 0
323 94 -324 0
-323 -94 -324 0
323 -94 324 0
-323 94 324 0
324 100 -325 0
-324 -100 -325 0
324 -100 325 0
-324 100 325 0
-325 0
22 23 -326 0
-22 -23 -326 0
22 -23 326 0
-22 23 326 0
326 25 -327 0
-326 -25 -327 0
326 -25 327 0
-326 25 327 0
327 26 -328 0
-327 -26 -328 0
327 -26 328 0
-327 26 328 0
328 86 -329 0
-328 -86 -329 0
328 -86 329 0
-328 86 329 0
329 92 -330 0
-329 -92 -330 0
329 -92 330 0
-329 92 330 0
330 95 -331 0
-330 -95 -331 0
330 -95 331 0
-330 95 331 0
331 101 -332 0
-331 -101 -332 0
331 -101 332 0
-331 101 332 0
-332 0
23 24 -333 0
-23 -24 -333 0
23 -24 333 0
-23 24 333 0
333 26 -334 0
-333 -26 -334 0
333 -26 334 0
-333 26 334 0
334 27 -335 0
-334 -27 -335 0
334 -27 335 0
-334 27 335 0
335 87 -336 0
-335 -87 -336 0
335 -87 336 0
-335 87 336 0
336 93 -337 0
-336 -93 -337 0
336 -93 337 0
-336 93 337 0
337 96 -338 0
-337 -96 -338 0
337 -96 338 0
-337 96 338 0
338 102 -339 0
-338 -102 -339 0
338 -102 339 0
-338 102 339 0
-339 0
24 25 -340 0
-24 -25 -340 0
24 -25 340 0
-24 25 340 0
340 27 -341 0
-340 -27 -341 0
340 -27 341 0
-340 27 341 0
341 28 -342 0
-341 -28 -342 0
341 -28 342 0
-341 28 342 0
342 88 -343 0
-342 -88 -343 0
342 -88 343 0
-342 88 343 0
343 94 -344 0
-343 -94 -344 0
343 -94 344 0
-343 94 344 0
344 97 -345 0
-344 -97 -345 0
344 -97 345 0
-344 97 345 0
345 103 -346 0
-345 -103 -346 0
345 -103 346 0
-345 103 346 0
-346 0
25 26 -347 0
-25 -26 -347 0
25 -26 347 0
-25 26 347 0
347 28 -348 0
-347 -28 -348 0
347 -28 348 0
-347 28 348 0
348 29 -349 0
-348 -29 -349 0
348 -29 349 0
-348 29 349 0
349 89 -350 0
-349 -89 -350 0
349 -89 350 0
-349 89 350 0
350 95 -351 0
-350 -95 -351 0
350 -95 351 0
-350 95 351 0
351 98 -352 0
-351 -98 -352 0
351 -98 352 0
-351 98 352 0
352 104 -353 0
-352 -104 -353 0
352 -104 353 0
-352 104 353 0
-353 0
26 27 -354 0
-26 -27 -354 0
26 -27 354 0
-26 27 354 0
354 29 -355 0
-354 -29 -355 0
354 -29 355 0
-354 29 355 0
355 30 -356 0
-355 -30 -356 0
355 -30 356 0
-355 30 356 0
356 90 -357 0
-356 -90 -357 0
356 -90 357 0
-356 90 357 0
357 96 -358 0
-357 -96 -358 0
357 -96 358 0
-357 96 358 0
358 99 -359 0
-358 -99 -359 0
358 -99 359 0
-358 99 359 0
359 105 -360 0
-359 -105 -360 0
359 -105 360 0
-359 105 360 0
-360 0
27 28 -361 0
-27 -28 -361 0
27 -28 361 0
-27 28 361 0
361 30 -362 0
-361 -30 -362 0
361 -30 362 0
-361 30 362 0
362 31 -363 0
-362 -31 -363 0
362 -31 363 0
-362 31 363 0
363 91 -364 0
-363 -91 -364 0
363 -91 364 0
-363 91 364 0
364 97 -365 0
-364 -97 -365 0
364 -97 365 0
-364 97 365 0
365 100 -366 0
-365 -100 -366 0
365 -100 366 0
-365 100 366 0
366 106 -367 0
-366 -106 -367 0
366 -106 367 0
-366 106 367 0
-367 0
28 29 -368 0
-28 -29 -368 0
28 -29 368 0
-28 29 368 0
368 31 -369 0
-368 -31 -369 0
368 -31 369 0
-368 31 369 0
369 32 -370 0
-369 -32 -370 0
369 -32 370 0
-369 32 370 0
370 92 -371 0
-370 -92 -371 0
370 -92 371 0
-370 92 371 0
371 98 -372 0
-371 -98 -372 0
371 -98 372 0
-371 98 372 0
372 101 -373 0
-372 -101 -373 0
372 -101 373 0
-372 101 373 0
373 107 -374 0
-373 -107 -374 0
373 -107 374 0
-373 107 374 0
-374 0
29 30 -375 0
-29 -30 -375 0
29 -30 375 0
-29 30 375 0
375 32 -376 0
-375 -32 -376 0
375 -32 376 0
-375 32 376 0
376 33 -377 0
-376 -33 -377 0
376 -33 377 0
-376 33 377 0
377 93 -378 0
-377 -93 -378 0
377 -93 378 0
-377 93 378 0
378 99 -379 0
-378 -99 -379 0
378 -99 379 0
-378 99 379 0
379 102 -380 0
-379 -102 -380 0
379 -102 380 0
-379 102 380 0
380 108 -381 0
-380 -108 -381 0
380 -108 381 0
-380 108 381 0
-381 0
30 31 -382 0
-30 -31 -382 0
30 -31 382 0
-30 31 382 0
382 33 -383 0
-382 -33 -383 0
382 -33 383 0
-382 33 383 0
383 34 -384 0
-383 -34 -384 0
383 -34 384 0
-383 34 384 0
384 94 -385 0
-384 -94 -385 0
384 -94 385 0
-384 94 385 0
385 100 -386 0
-385 -100 -386 0
385 -100 386 0
-385 100 386 0
386 103 -387 0
-386 -103 -387 0
386 -103 387 0
-386 103 387 0
387 109 -388 0
-387 -109 -388 0
387 -109 388 0
-387 109 388 0
-388 0
31 32 -389 0
-31 -32 -389 0
31 -32 389 0
-31 32 389 0
389 34 -390 0
-389 -34 -390 0
389 -34 390 0
-389 34 390 0
390 35 -391 0
-390 -35 -391 0
390 -35 391 0
-390 35 391 0
391 95 -392 0
-391 -95 -392 0
391 -95 392 0
-391 95 392 0
392 101 -393 0
-392 -101 -393 0
392 -101 393 0
-392 101 393 0
393 104 -394 0
-393 -104 -394 0
393 -104 394 0
-393 104 394 0
394 110 -395 0
-394 -110 -395 0
394 -110 395 0
-394 110 395 0
-395 0
32 33 -396 0
-32 -33 -396 0
32 -33 396 0
-32 33 396 0
396 35 -397 0
-396 -35 -397 0
396 -35 397 0
-396 35 397 0
397 36 -398 0
-397 -36 -398 0
397 -36 398 0
-397 36 398 0
398 96 -399 0
-398 -96 -399 0
398 -96 399 0
-398 96 399 0
399 102 -400 0
-399 -102 -400 0
399 -102 400 0
-399 102 400 0
400 105 -401 0
-400 -105 -401 0
400 -105 401 0
-400 105 401 0
401 111 -402 0
-401 -111 -402 0
401 -111 402 0
-401 111 402 0
-402 0
33 34 -403 0
-33 -34 -403 0
33 -34 403 0
-33 34 403 0
403 36 -404 0
-403 -36 -404 0
403 -36 404 0
-403 36 404 0
404 37 -405 0
-404 -37 -405 0
404 -37 405 0
-404 37 405 0
405 97 -406 0
-405 -97 -406 0
405 -97 406 0
-405 97 406 0
406 103 -407 0
-406 -103 -407 0
406 -103 407 0
-406 103 407 0
407 106 -408 0
-407 -106 -408 0
407 -106 408 0
-407 106 408 0
408 112 -409 0
-408 -112 -409 0
408 -112 409 0
-408 112 409 0
-409 0
34 35 -410 0
-34 -35 -410 0
34 -35 410 0
-34 35 410 0
410 37 -411 0
-410 -37 -411 0
410 -37 411 0
-410 37 411 0
411 38 -412 0
-411 -38 -412 0
411 -38 412 0
-411 38 412 0
412 98 -413 0
-412 -98 -413 0
412 -98 413 0
-412 98 413 0
413 104 -414 0
-413 -104 -414 0
413 -104 414 0
-413 104 414 0
414 107 -415 0
-414 -107 -415 0
414 -107 415 0
-414 107 415 0
415 113 -416 0
-415 -113 -416 0
415 -113 416 0
-415 113 416 0
-416 0
35 36 -417 0
-35 -36 -417 0
35 -36 417 0
-35 36 417 0
417 38 -418 0
-417 -38 -418 0
417 -38 418 0
-417 38 418 0
418 39 -419 0
-418 -39 -419 0
418 -39 419 0
-418 39 419 0
419 99 -420 0
-419 -99 -420 0
419 -99 420 0
-419 99 420 0
420 105 -421 0
-420 -105 -421 0
420 -105 421 0
-420 105 421 0
421 108 -422 0
-421 -108 -422 0
421 -108 422 0
-421 108 422 0
422 114 -423 0
-422 -114 -423 0
422 -114 423 0
-422 114 423 0
-423 0
36 37 -424 0
-36 -37 -424 0
36 -37 424 0
-36 37 424 0
424 39 -425 0
-424 -39 -425 0
424 -39 425 0
-424 39 425 0
425 40 -426 0
-425 -40 -426 0
425 -40 426 0
-425 40 426 0
426 100 -427 0
-426 -100 -427 0
426 -100 427 0
-426 100 427 0
427 106 -428 0
-427 -106 -428 0
427 -106 428 0
-427 106 428 0
428 109 -429 0
-428 -109 -429 0
428 -109 429 0
-428 109 429 0
429 115 -430 0
-429 -115 -430 0
429 -115 430 0
-429 115 430 0
-430 0
37 38 -431 0
-37 -38 -431 0
37 -38 431 0
-37 38 431 0
431 40 -432 0
-431 -40 -432 0
431 -40 432 0
-431 40 432 0
432 41 -433 0
-432 -41 -433 0
432 -41 433 0
-432 41 433 0
433 101 -434 0
-433 -101 -434 0
433 -101 434 0
-433 101 434 0
434 107 -435 0
-434 -107 -435 0
434 -107 435 0
-434 107 435 0
435 110 -436 0
-435 -110 -436 0
435 -110 436 0
-435 110 436 0
436 116 -437 0
-436 -116 -437 0
436 -116 437 0
-436 116 437 0
-437 0
38 39 -438 0
-38 -39 -438 0
38 -39 438 0
-38 39 438 0
438 41 -439 0
-438 -41 -439 0
438 -41 439 0
-438 41 439 0
439 42 -440 0
-439 -42 -440 0
439 -42 440 0
-439 42 440 0
440 102 -441 0
-440 -102 -441 0
440 -102 441 0
-440 102 441 0
441 108 -442 0
-441 -108 -442 0
441 -108 442 0
-441 108 442 0
442 111 -443 0
-442 -111 -443 0
442 -111 443 0
-442 111 443 0
443 117 -444 0
-443 -117 -444 0
443 -117 444 0
-443 117 444 0
-444 0
39 40 -445 0
-39 -40 -445 0
39 -40 445 0
-39 40 445 0
445 42 -446 0
-445 -42 -446 0
445 -42 446 0
-445 42 446 0
446 43 -447 0
-446 -43 -447 0
446 -43 447 0
-446 43 447 0
447 103 -448 0
-447 -103 -448 0
447 -103 448 0
-447 103 448 0
448 109 -449 0
-448 -109 -449 0
448 -109 449 0
-448 109 449 0
449 112 -450 0
-449 -112 -450 0
449 -112 450 0
-449 112 450 0
450 118 -451 0
-450 -118 -451 0
450 -118 451 0
-450 118 451 0
-451 0
40 41 -452 0
-40 -41 -452 0
40 -41 452 0
-40 41 452 0
452 43 -453 0
-452 -43 -453 0
452 -43 453 0
-452 43 453 0
453 44 -454 0
-453 -44 -454 0
453 -44 454 0
-453 44 454 0
454 104 -455 0
-454 -104 -455 0
454 -104 455 0
-454 104 455 0
455 110 -456 0
-455 -110 -456 0
455 -110 456 0
-455 110 456 0
456 113 -457 0
-456 -113 -457 0
456 -113 457 0
-456 113 457 0
457 119 -458 0
-457 -119 -458 0
457 -119 458 0
-457 119 458 0
-458 0
41 42 -459 0
-41 -42 -459 0
41 -42 459 0
-41 42 459 0
459 44 -460 0
-459 -44 -460 0
459 -44 460 0
-459 44 460 0
460 45 -461 0
-460 -45 -461 0
460 -45 461 0
-460 45 461 0
461 105 -462 0
-461 -105 -462 0
461 -105 462 0
-461 105 462 0
462 111 -463 0
-462 -111 -463 0
462 -111 463 0
-462 111 463 0
463 114 -464 0
-463 -114 -464 0
463 -114 464 0
-463 114 464 0
464 120 -465 0
-464 -120 -465 0
464 -120 465 0
-464 120 465 0
-465 0
42 43 -466 0
-42 -43 -466 0
42 -43 466 0
-42 43 466 0
466 45 -467 0
-466 -45 -467 0
466 -45 467 0
-466 45 467 0
467 46 -468 0
-467 -46 -468 0
467 -46 468 0
-467 46 468 0
468 106 -469 0
-468 -106 -469 0
468 -106 469 0
-468 106 469 0
469 112 -470 0
-469 -112 -470 0
469 -112 470 0
-469 112 470 0
470 115 -471 0
-470 -115 -471 0
470 -115 471 0
-470 115 471 0
471 121 -472 0
-471 -121 -472 0
471 -121 472 0
-471 121 472 0
-472 0
43 44 -473 0
-43 -44 -473 0
43 -44 473 0
-43 44 473 0
473 46 -474 0
-473 -46 -474 0
473 -46 474 0
-473 46 474 0
474 47 -475 0
-474 -47 -475 0
474 -47 475 0
-474 47 475 0
475 107 -476 0
-475 -107 -476 0
475 -107 476 0
-475 107 476 0
476 113 -477 0
-476 -113 -477 0
476 -113 477 0
-476 113 477 0
477 116 -478 0
-477 -116 -478 0
477 -116 478 0
-477 116 478 0
478 122 -479 0
-478 -122 -479 0
478 -122 479 0
-478 122 479 0
-479 0
44 45 -480 0
-44 -45 -480 0
44 -45 480 0
-44 45 480 0
480 47 -481 0
-480 -47 -481 0
480 -47 481 0
-480 47 481 0
481 48 -482 0
-481 -48 -482 0
481 -48 482 0
-481 48 482 0
482 108 -483 0
-482 -108 -483 0
482 -108 483 0
-482 108 483 0
483 114 -484 0
-483 -114 -484 0
483 -114 484 0
-483 114 484 0
484 117 -485 0
-484 -117 -485 0
484 -117 485 0
-484 117 485 0
485 123 -486 0
-485 -123 -486 0
485 -123 486 0
-485 123 486 0
-486 0
45 46 -487 0
-45 -46 -487 0
45 -46 487 0
-45 46 487 0
487 48 -488 0
-487 -48 -488 0
487 -48 488 0
-487 48 488 0
488 49 -489 0
-488 -49 -489 0
488 -49 489 0
-488 49 489 0
489 109 -490 0
-489 -109 -490 0
489 -109 490 0
-489 109 490 0
490 115 -491 0
-490 -115 -491 0
490 -115 491 0
-490 115 491 0
491 118 -492 0
-491 -118 -492 0
491 -118 492 0
-491 118 492 0
492 124 -493 0
-492 -124 -493 0
492 -124 493 0
-492 124 493 0
-493 0
46 47 -494 0
-46 -47 -494 0
46 -47 494 0
-46 47 494 0
494 49 -495 0
-494 -49 -495 0
494 -49 495 0
-494 49 495 0
495 50 -496 0
-495 -50 -496 0
495 -50 496 0
-495 50 496 0
496 110 -497 0
-496 -110 -497 0
496 -110 497 0
-496 110 497 0
497 116 -498 0
-497 -116 -498 0
497 -116 498 0
-497 116 498 0
498 119 -499 0
-498 -119 -499 0
498 -119 499 0
-498 119 499 0
499 125 -500 0
-499 -125 -500 0
499 -125 500 0
-499 125 500 0
-500 0
47 48 -501 0
-47 -48 -501 0
47 -48 501 0
-47 48 501 0
501 50 -502 0
-501 -50 -502 0
501 -50 502 0
-501 50 502 0
502 51 -503 0
-502 -51 -503 0
502 -51 503 0
-502 51 503 0
503 111 -504 0
-503 -111 -504 0
503 -111 504 0
-503 111 504 0
504 117 -505 0
-504 -117 -505 0
504 -117 505 0
-504 117 505 0
505 120 -506 0
-505 -120 -506 0
505 -120 506 0
-505 120 506 0
506 126 -507 0
-506 -126 -507 0
506 -126 507 0
-506 126 507 0
-507 0
48 49 -508 0
-48 -49 -508 0
48 -49 508 0
-48 49 508 0
508 51 -509 0
-508 -51 -509 0
508 -51 509 0
-508 51 509 0
509 52 -510 0
-509 -52 -510 0
509 -52 510 0
-509 52 510 0
510 112 -511 0
-510 -112 -511 0
510 -112 511 0
-510 112 511 0
511 118 -512 0
-511 -118 -512 0
511 -118 512 0
-511 118 512 0
512 121 -513 0
-512 -121 -513 0
512 -121 513 0
-512 121 513 0
513 127 -514 0
-513 -127 -514 0
513 -127 514 0
-513 127 514 0
-514 0
49 50 -515 0
-49 -50 -515 0
49 -50 515 0
-49 50 515 0
515 52 -516 0
-515 -52 -516 0
515 -52 516 0
-515 52 516 0
516 53 -517 0
-516 -53 -517 0
516 -53 517 0
-516 53 517 0
517 113 -518 0
-517 -113 -518 0
517 -113 518 0
-517 113 518 0
518 119 -519 0
-518 -119 -519 0
518 -119 519 0
-518 119 519 0
519 122 -520 0
-519 -122 -520 0
519 -122 520 0
-519 122 520 0
520 128 -521 0
-520 -128 -521 0
520 -128 521 0
-520 128 521 0
-521 0
50 51 -522 0
-50 -51 -522 0
50 -51 522 0
-50 51 522 0
522 53 -523 0
-522 -53 -523 0
522 -53 523 0
-522 53 523 0
523 54 -524 0
-523 -54 -524 0
523 -54 524 0
-523 54 524 0
524 114 -525 0
-524 -114 -525 0
524 -114 525 0
-524 114 525 0
525 120 -526 0
-525 -120 -526 0
525 -120 526 0
-525 120 526 0
526 123 -527 0
-526 -123 -527 0
526 -123 527 0
-526 123 527 0
527 129 -528 0
-527 -129 -528 0
527 -129 528 0
-527 129 528 0
-528 0
51 52 -529 0
-51 -52 -529 0
51 -52 529 0
-51 52 529 0
529 54 -530 0
-529 -54 -530 0
529 -54 530 0
-529 54 530 0
530 55 -531 0
-530 -55 -531 0
530 -55 531 0
-530 55 531 0
531 115 -532 0
-531 -115 -532 0
531 -115 532 0
-531 115 532 0
532 121 -533 0
-532 -121 -533 0
532 -121 533 0
-532 121 533 0
533 124 -534 0
-533 -124 -534 0
533 -124 534 0
-533 124 534 0
534 130 -535 0
-534 -130 -535 0
534 -130 535 0
-534 130 535 0
-535 0
52 53 -536 0
-52 -53 -536 0
52 -53 536 0
-52 53 536 0
536 55 -537 0
-536 -55 -537 0
536 -55 537 0
-536 55 537 0
537 56 -538 0
-537 -56 -538 0
537 -56 538 0
-537 56 538 0
538 116 -539 0
-538 -116 -539 0
538 -116 539 0
-538 116 539 0
539 122 -540 0
-539 -122 -540 0
539 -122 540 0
-539 122 540 0
540 125 -541 0
-540 -125 -541 0
540 -125 541 0
-540 125 541 0
541 131 -542 0
-541 -131 -542 0
541 -131 542 0
-541 131 542 0
-542 0
53 54 -543 0
-53 -54 -543 0
53 -54 543 0
-53 54 543 0
543 56 -544 0
-543 -56 -544 0
543 -56 544 0
-543 56 544 0
544 57 -545 0
-544 -57 -545 0
544 -57 545 0
-544 57 545 0
545 117 -546 0
-545 -117 -546 0
545 -117 546 0
-545 117 546 0
546 123 -547 0
-546 -123 -547 0
546 -123 547 0
-546 123 547 0
547 126 -548 0
-547 -126 -548 0
547 -126 548 0
-547 126 548 0
548 132 -549 0
-548 -132 -549 0
548 -132 549 0
-548 132 549 0
-549 0
54 55 -550 0
-54 -55 -550 0
54 -55 550 0
-54 55 550 0
550 57 -551 0
-550 -57 -551 0
550 -57 551 0
-550 57 551 0
551 58 -552 0
-551 -58 -552 0
551 -58 552 0
-551 58 552 0
552 118 -553 0
-552 -118 -553 0
552 -118 553 0
-552 118 553 0
553 124 -554 0
-553 -124 -554 0
553 -124 554 0
-553 124 554 0
554 127 -555 0
-554 -127 -555 0
554 -127 555 0
-554 127 555 0
555 133 -556 0
-555 -133 -556 0
555 -133 556 0
-555 133 556 0
-556 0
55 56 -557 0
-55 -56 -557 0
55 -56 557 0
-55 56 557 0
557 58 -558 0
-557 -58 -558 0
557 -58 558 0
-557 58 558 0
558 59 -559 0
-558 -59 -559 0
558 -59 559 0
-558 59 559 0
559 119 -560 0
-559 -119 -560 0
559 -119 560 0
-559 119 560 0
560 125 -561 0
-560 -125 -561 0
560 -125 561 0
-560 125 561 0
561 128 -562 0
-561 -128 -562 0
561 -128 562 0
-561 128 562 0
562 134 -563 0
-562 -134 -563 0
562 -134 563 0
-562 134 563 0
-563 0
56 57 -564 0
-56 -57 -564 0
56 -57 564 0
-56 57 564 0
564 59 -565 0
-564 -59 -565 0
564 -59 565 0
-564 59 565 0
565 60 -566 0
-565 -60 -566 0
565 -60 566 0
-565 60 566 0
566 120 -567 0
-566 -120 -567 0
566 -120 567 0
-566 120 567 0
567 126 -568 0
-567 -126 -568 0
567 -126 568 0
-567 126 568 0
568 129 -569 0
-568 -129 -569 0
568 -129 569 0
-568 129 569 0
569 135 -570 0
-569 -135 -570 0
569 -135 570 0
-569 135 570 0
-570 0
57 58 -571 0
-57 -58 -571 0
57 -58 571 0
-57 58 571 0
571 60 -572 0
-571 -60 -572 0
571 -60 572 0
-571 60 572 0
572 61 -573 0
-572 -61 -573 0
572 -61 573 0
-572 61 573 0
573 121 -574 0
-573 -121 -574 0
573 -121 574 0
-573 121 574 0
574 127 -575 0
-574 -127 -575 0
574 -127 575 0
-574 127 575 0
575 130 -576 0
-575 -130 -576 0
575 -130 576 0
-575 130 576 0
576 136 -577 0
-576 -136 -577 0
576 -136 577 0
-576 136 577 0
-577 0
58 59 -578 0
-58 -59 -578 0
58 -59 578 0
-58 59 578 0
578 61 -579 0
-578 -61 -579 0
578 -61 579 0
-578 61 579 0
579 62 -580 0
-579 -62 -580 0
579 -62 580 0
-579 62 580 0
580 122 -581 0
-580 -122 -581 0
580 -122 581 0
-580 122 581 0
581 128 -582 0
-581 -128 -582 0
581 -128 582 0
-581 128 582 0
582 131 -583 0
-582 -131 -583 0
582 -131 583 0
-582 131 583 0
583 137 -584 0
-583 -137 -584 0
583 -137 584 0
-583 137 584 0
-584 0
59 60 -585 0
-59 -60 -585 0
59 -60 585 0
-59 60 585 0
585 62 -586 0
-585 -62 -586 0
585 -62 586 0
-585 62 586 0
586 63 -587 0
-586 -63 -587 0
586 -63 587 0
-586 63 587 0
587 123 -588 0
-587 -123 -588 0
587 -123 588 0
-587 123 588 0
588 129 -589 0
-588 -129 -589 0
588 -129 589 0
-588 129 589 0
589 132 -590 0
-589 -132 -590 0
589 -132 590 0
-589 132 590 0
590 138 -591 0
-590 -138 -591 0
590 -138 591 0
-590 138 591 0
-591 0
60 61 -592 0
-60 -61 -592 0
60 -61 592 0
-60 61 592 0
592 63 -593 0
-592 -63 -593 0
592 -63 593 0
-592 63 593 0
593 64 -594 0
-593 -64 -594 0
593 -64 594 0
-593 64 594 0
594 124 -595 0
-594 -124 -595 0
594 -124 595 0
-594 124 595 0
595 130 -596 0
-595 -130 -596 0
595 -130 596 0
-595 130 596 0
596 133 -597 0
-596 -133 -597 0
596 -133 597 0
-596 133 597 0
597 139 -598 0
-597 -139 -598 0
597 -139 598 0
-597 139 598 0
-598 0
61 62 -599 0
-61 -62 -599 0
61 -62 599 0
-61 62 599 0
599 64 -600 0
-599 -64 -600 0
599 -64 600 0
-599 64 600 0
600 65 -601 0
-600 -65 -601 0
600 -65 601 0
-600 65 601 0
601 125 -602 0
-601 -125 -602 0
601 -125 602 0
-601 125 602 0
602 131 -603 0
-602 -131 -603 0
602 -131 603 0
-602 131 603 0
603 134 -604 0
-603 -134 -604 0
603 -134 604 0
-603 134 604 0
604 140 -605 0
-604 -140 -605 0
604 -140 605 0
-604 140 605 0
-605 0
62 63 -606 0
-62 -63 -606 0
62 -63 606 0
-62 63 606 0
606 65 -607 0
-606 -65 -607 0
606 -65 607 0
-606 65 607 0
607 66 -608 0
-607 -66 -608 0
607 -66 608 0
-607 66 608 0
608 126 -609 0
-608 -126 -609 0
608 -126 609 0
-608 126 609 0
609 132 -610 0
-609 -132 -610 0
609 -132 610 0
-609 132 610 0
610 135 -611 0
-610 -135 -611 0
610 -135 611 0
-610 135 611 0
611 141 -612 0
-611 -141 -612 0
611 -141 612 0
-611 141 612 0
-612 0
63 64 -613 0
-63 -64 -613 0
63 -64 613 0
-63 64 613 0
613 66 -614 0
-613 -66 -614 0
613 -66 614 0
-613 66 614 0
614 67 -615 0
-614 -67 -615 0
614 -67 615 0
-614 67 615 0
615 127 -616 0
-615 -127 -616 0
615 -127 616 0
-615 127 616 0
616 133 -617 0
-616 -133 -617 0
616 -133 617 0
-616 133 617 0
617 136 -618 0
-617 -136 -618 0
617 -136 618 0
-617 136 618 0
618 142 -619 0
-618 -142 -619 0
618 -142 619 0
-618 142 619 0
-619 0
64 65 -620 0
-64 -65 -620 0
64 -65 620 0
-64 65 620 0
620 67 -621 0
-620 -67 -621 0
620 -67 621 0
-620 67 621 0
621 68 -622 0
-621 -68 -622 0
621 -68 622 0
-621 68 622 0
622 128 -623 0
-622 -128 -623 0
622 -128 623 0
-622 128 623 0
623 134 -624 0
-623 -134 -624 0
623 -134 624 0
-623 134 624 0
624 137 -625 0
-624 -137 -625 0
624 -137 625 0
-624 137 625 0
625 143 -626 0
-625 -143 -626 0
625 -143 626 0
-625 143 626 0
-626 0
65 66 -627 0
-65 -66 -627 0
65 -66 627 0
-65 66 627 0
627 68 -628 0
-627 -68 -628 0
627 -68 628 0
-627 68 628 0
628 69 -629 0
-628 -69 -629 0
628 -69 629 0
-628 69 629 0
629 129 -630 0
-629 -129 -630 0
629 -129 630 0
-629 129 630 0
630 135 -631 0
-630 -135 -631 0
630 -135 631 0
-630 135 631 0
631 138 -632 0
-631 -138 -632 0
631 -138 632 0
-631 138 632 0
632 144 -633 0
-632 -144 -633 0
632 -144 633 0
-632 144 633 0
-633 0
66 67 -634 0
-66 -67 -634 0
66 -67 634 0
-66 67 634 0
634 69 -635 0
-634 -69 -635 0
634 -69 635 0
-634 69 635 0
635 70 -636 0
-635 -70 -636 0
635 -70 636 0
-635 70 636 0
636 130 -637 0
-636 -130 -637 0
636 -130 637 0
-636 130 637 0
637 136 -638 0
-637 -136 -638 0
637 -136 638 0
-637 136 638 0
638 139 -639 0
-638 -139 -639 0
638 -139 639 0
-638 139 639 0
639 145 -640 0
-639 -145 -640 0
639 -145 640 0
-639 145 640 0
-640 0
67 68 -641 0
-67 -68 -641 0
67 -68 641 0
-67 68 641 0
641 70 -642 0
-641 -70 -642 0
641 -70 642 0
-641 70 642 0
642 71 -643 0
-642 -71 -643 0
642 -71 643 0
-642 71 643 0
643 131 -644 0
-643 -131 -644 0
643 -131 644 0
-643 131 644 0
644 137 -645 0
-644 -137 -645 0
644 -137 645 0
-644 137 645 0
645 140 -646 0
-645 -140 -646 0
645 -140 646 0
-645 140 646 0
646 146 -647 0
-646 -146 -647 0
646 -146 647 0
-646 146 647 0
-647 0
68 69 -648 0
-68 -69 -648 0
68 -69 648 0
-68 69 648 0
648 71 -649 0
-648 -71 -649 0
648 -71 649 0
-648 71 649 0
649 72 -650 0
-649 -72 -650 0
649 -72 650 0
-649 72 650 0
650 132 -651 0
-650 -132 -651 0
650 -132 651 0
-650 132 651 0
651 138 -652 0
-651 -138 -652 0
651 -138 652 0
-651 138 652 0
652 141 -653 0
-652 -141 -653 0
652 -141 653 0
-652 141 653 0
653 147 -654 0
-653 -147 -654 0
653 -147 654 0
-653 147 654 0
-654 0
69 70 -655 0
-69 -70 -655 0
69 -70 655 0
-69 70 655 0
655 72 -656 0
-655 -72 -656 0
655 -72 656 0
-655 72 656 0
656 73 -657 0
-656 -73 -657 0
656 -73 657 0
-656 73 657 0
657 133 -658 0
-657 -133 -658 0
657 -133 658 0
-657 133 658 0
658 139 -659 0
-658 -139 -659 0
658 -139 659 0
-658 139 659 0
659 142 -660 0
-659 -142 -660 0
659 -142 660 0
-659 142 660 0
660 148 -661 0
-660 -148 -661 0
660 -148 661 0
-660 148 661 0
-661 0
70 71 -662 0
-70 -71 -662 0
70 -71 662 0
-70 71 662 0
662 73 -663 0
-662 -73 -663 0
662 -73 663 0
-662 73 663 0
663 74 -664 0
-663 -74 -664 0
663 -74 664 0
-663 74 664 0
664 134 -665 0
-664 -134 -665 0
664 -134 665 0
-664 134 665 0
665 140 -666 0
-665 -140 -666 0
665 -140 666 0
-665 140 666 0
666 143 -667 0
-666 -143 -667 0
666 -143 667 0
-666 143 667 0
667 149 -668 0
-667 -149 -668 0
667 -149 668 0
-667 149 668 0
-668 0
71 72 -669 0
-71 -72 -669 0
71 -72 669 0
-71 72 669 0
669 74 -670 0
-669 -74 -670 0
669 -74 670 0
-669 74 670 0
670 75 -671 0
-670 -75 -671 0
670 -75 671 0
-670 75 671 0
671 135 -672 0
-671 -135 -672 0
671 -135 672 0
-671 135 672 0
672 141 -673 0
-672 -141 -673 0
672 -141 673 0
-672 141 673 0
673 144 -674 0
-673 -144 -674 0
673 -144 674 0
-673 144 674 0
674 150 -675 0
-674 -150 -675 0
674 -150 675 0
-674 150 675 0
-675 0
1 79 -676 0
-1 -79 -676 0
1 -79 676 0
-1 79 676 0
676 82 -677 0
-676 -82 -677 0
676 -82 677 0
-676 82 677 0
677 85 -678 0
-677 -85 -678 0
677 -85 678 0
-677 85 678 0
678 88 -679 0
-678 -88 -679 0
678 -88 679 0
-678 88 679 0
679 91 -680 0
-679 -91 -680 0
679 -91 680 0
-679 91 680 0
680 94 -681 0
-680 -94 -681 0
680 -94 681 0
-680 94 681 0
681 97 -682 0
-681 -97 -682 0
681 -97 682 0
-681 97 682 0
682 100 -683 0
-682 -100 -683 0
682 -100 683 0
-682 100 683 0
683 103 -684 0
-683 -103 -684 0
683 -103 684 0
-683 103 684 0
684 106 -685 0
-684 -106 -685 0
684 -106 685 0
-684 106 685 0
685 109 -686 0
-685 -109 -686 0
685 -109 686 0
-685 109 686 0
686 112 -687 0
-686 -112 -687 0
686 -112 687 0
-686 112 687 0
687 115 -688 0
-687 -115 -688 0
687 -115 688 0
-687 115 688 0
688 118 -689 0
-688 -118 -689 0
688 -118 689 0
-688 118 689 0
689 121 -690 0
-689 -121 -690 0
689 -121 690 0
-689 121 690 0
690 124 -691 0
-690 -124 -691 0
690 -124 691 0
-690 124 691 0
691 127 -692 0
-691 -127 -692 0
691 -127 692 0
-691 127 692 0
692 130 -693 0
-692 -130 -693 0
692 -130 693 0
-692 130 693 0
693 133 -694 0
-693 -133 -694 0
693 -133 694 0
-693 133 694 0
694 136 -695 0
-694 -136 -695 0
694 -136 695 0
-694 136 695 0
695 139 -696 0
-695 -139 -696 0
695 -139 696 0
-695 139 696 0
696 140 -697 0
-696 -140 -697 0
696 -140 697 0
-696 140 697 0
697 141 -698 0
-697 -141 -698 0
697 -141 698 0
-697 141 698 0
698 145 -699 0
-698 -145 -699 0
698 -145 699 0
-698 145 699 0
699 148 -700 0
-699 -148 -700 0
699 -148 700 0
-699 148 700 0
700 149 -701 0
-700 -149 -701 0
700 -149 701 0
-700 149 701 0
701 150 -702 0
-701 -150 -702 0
701 -150 702 0
-701 150 702 0
2 79 -703 0
-2 -79 -703 0
2 -79 703 0
-2 79 703 0
703 80 -704 0
-703 -80 -704 0
703 -80 704 0
-703 80 704 0
704 82 -705 0
-704 -82 -705 0
704 -82 705 0
-704 82 705 0
705 83 -706 0
-705 -83 -706 0
705 -83 706 0
-705 83 706 0
706 85 -707 0
-706 -85 -707 0
706 -85 707 0
-706 85 707 0
707 86 -708 0
-707 -86 -708 0
707 -86 708 0
-707 86 708 0
708 88 -709 0
-708 -88 -709 0
708 -88 709 0
-708 88 709 0
709 89 -710 0
-709 -89 -710 0
709 -89 710 0
-709 89 710 0
710 91 -711 0
-710 -91 -711 0
710 -91 711 0
-710 91 711 0
711 92 -712 0
-711 -92 -712 0
711 -92 712 0
-711 92 712 0
712 94 -713 0
-712 -94 -713 0
712 -94 713 0
-712 94 713 0
713 95 -714 0
-713 -95 -714 0
713 -95 714 0
-713 95 714 0
714 97 -715 0
-714 -97 -715 0
714 -97 715 0
-714 97 715 0
715 98 -716 0
-715 -98 -716 0
715 -98 716 0
-715 98 716 0
716 100 -717 0
-716 -100 -717 0
716 -100 717 0
-716 100 717 0
717 101 -718 0
-717 -101 -718 0
717 -101 718 0
-717 101 718 0
718 103 -719 0
-718 -103 -719 0
718 -103 719 0
-718 103 719 0
719 104 -720 0
-719 -104 -720 0
719 -104 720 0
-719 104 720 0
720 106 -721 0
-720 -106 -721 0
720 -106 721 0
-720 106 721 0
721 107 -722 0
-721 -107 -722 0
721 -107 722 0
-721 107 722 0
722 109 -723 0
-722 -109 -723 0
722 -109 723 0
-722 109 723 0
723 110 -724 0
-723 -110 -724 0
723 -110 724 0
-723 110 724 0
724 112 -725 0
-724 -112 -725 0
724 -112 725 0
-724 112 725 0
725 113 -726 0
-725 -113 -726 0
725 -113 726 0
-725 113 726 0
726 115 -727 0
-726 -115 -727 0
726 -115 727 0
-726 115 727 0
727 116 -728 0
-727 -116 -728 0
727 -116 728 0
-727 116 728 0
728 118 -729 0
-728 -118 -729 0
728 -118 729 0
-728 118 729 0
729 119 -730 0
-729 -119 -730 0
729 -119 730 0
-729 119 730 0
730 121 -731 0
-730 -121 -731 0
730 -121 731 0
-730 121 731 0
731 122 -732 0
-731 -122 -732 0
731 -122 732 0
-731 122 732 0
732 124 -733 0
-732 -124 -733 0
732 -124 733 0
-732 124 733 0
733 125 -734 0
-733 -125 -734 0
733 -125 734 0
-733 125 734 0
734 127 -735 0
-734 -127 -735 0
734 -127 735 0
-734 127 735 0
735 128 -736 0
-735 -128 -736 0
735 -128 736 0
-735 128 736 0
736 130 -737 0
-736 -130 -737 0
736 -130 737 0
-736 130 737 0
737 131 -738 0
-737 -131 -738 0
737 -131 738 0
-737 131 738 0
738 133 -739 0
-738 -133 -739 0
738 -133 739 0
-738 133 739 0
739 134 -740 0
-739 -134 -740 0
739 -134 740 0
-739 134 740 0
740 136 -741 0
-740 -136 -741 0
740 -136 741 0
-740 136 741 0
741 137 -742 0
-741 -137 -742 0
741 -137 742 0
-741 137 742 0
742 139 -743 0
-742 -139 -743 0
742 -139 743 0
-742 139 743 0
743 140 -744 0
-743 -140 -744 0
743 -140 744 0
-743 140 744 0
744 141 -745 0
-744 -141 -745 0
744 -141 745 0
-744 141 745 0
745 145 -746 0
-745 -145 -746 0
745 -145 746 0
-745 145 746 0
746 146 -747 0
-746 -146 -747 0
746 -146 747 0
-746 146 747 0
747 148 -748 0
-747 -148 -748 0
747 -148 748 0
-747 148 748 0
748 149 -749 0
-748 -149 -749 0
748 -149 749 0
-748 149 749 0
749 150 -750 0
-749 -150 -750 0
749 -150 750 0
-749 150 750 0
3 79 -751 0
-3 -79 -751 0
3 -79 751 0
-3 79 751 0
751 80 -752 0
-751 -80 -752 0
751 -80 752 0
-751 80 752 0
752 81 -753 0
-752 -81 -753 0
752 -81 753 0
-752 81 753 0
753 82 -754 0
-753 -82 -754 0
753 -82 754 0
-753 82 754 0
754 83 -755 0
-754 -83 -755 0
754 -83 755 0
-754 83 755 0
755 84 -756 0
-755 -84 -756 0
755 -84 756 0
-755 84 756 0
756 85 -757 0
-756 -85 -757 0
756 -85 757 0
-756 85 757 0
757 86 -758 0
-757 -86 -758 0
757 -86 758 0
-757 86 758 0
758 87 -759 0
-758 -87 -759 0
758 -87 759 0
-758 87 759 0
759 88 -760 0
-759 -88 -760 0
759 -88 760 0
-759 88 760 0
760 89 -761 0
-760 -89 -761 0
760 -89 761 0
-760 89 761 0
761 90 -762 0
-761 -90 -762 0
761 -90 762 0
-761 90 762 0
762 91 -763 0
-762 -91 -763 0
762 -91 763 0
-762 91 763 0
763 92 -764 0
-763 -92 -764 0
763 -92 764 0
-763 92 764 0
764 93 -765 0
-764 -93 -765 0
764 -93 765 0
-764 93 765 0
765 94 -766 0
-765 -94 -766 0
765 -94 766 0
-765 94 766 0
766 95 -767 0
-766 -95 -767 0
766 -95 767 0
-766 95 767 0
767 96 -768 0
-767 -96 -768 0
767 -96 768 0
-767 96 768 0
768 97 -769 0
-768 -97 -769 0
768 -97 769 0
-768 97 769 0
769 98 -770 0
-769 -98 -770 0
769 -98 770 0
-769 98 770 0
770 99 -771 0
-770 -99 -771 0
770 -99 771 0
-770 99 771 0
771 100 -772 0
-771 -100 -772 0
771 -100 772 0
-771 100 772 0
772 101 -773 0
-772 -101 -773 0
772 -101 773 0
-772 101 773 0
773 102 -774 0
-773 -102 -774 0
773 -102 774 0
-773 102 774 0
774 103 -775 0
-774 -103 -775 0
774 -103 775 0
-774 103 775 0
775 104 -776 0
-775 -104 -776 0
775 -104 776 0
-775 104 776 0
776 105 -777 0
-776 -105 -777 0
776 -105 777 0
-776 105 777 0
777 106 -778 0
-777 -106 -778 0
777 -106 778 0
-777 106 778 0
778 107 -779 0
-778 -107 -779 0
778 -107 779 0
-778 107 779 0
779 108 -780 0
-779 -108 -780 0
779 -108 780 0
-779 108 780 0
780 109 -781 0
-780 -109 -781 0
780 -109 781 0
-780 109 781 0
781 110 -782 0
-781 -110 -782 0
781 -110 782 0
-781 110 782 0
782 111 -783 0
-782 -111 -783 0
782 -111 783 0
-782 111 783 0
783 112 -784 0
-783 -112 -784 0
783 -112 784 0
-783 112 784 0
784 113 -785 0
-784 -113 -785 0
784 -113 785 0
-784 113 785 0
785 114 -786 0
-785 -114 -786 0
785 -114 786 0
-785 114 786 0
786 115 -787 0
-786 -115 -787 0
786 -115 787 0
-786 115 787 0
787 116 -788 0
-787 -116 -788 0
787 -116 788 0
-787 116 788 0
788 117 -789 0
-788 -117 -789 0
788 -117 789 0
-788 117 789 0
789 118 -790 0
-789 -118 -790 0
789 -118 790 0
-789 118 790 0
790 119 -791 0
-790 -119 -791 0
790 -119 791 0
-790 119 791 0
791 120 -792 0
-791 -120 -792 0
791 -120 792 0
-791 120 792 0
792 121 -793 0
-792 -121 -793 0
792 -121 793 0
-792 121 793 0
793 122 -794 0
-793 -122 -794 0
793 -122 794 0
-793 122 794 0
794 123 -795 0
-794 -123 -795 0
794 -123 795 0
-794 123 795 0
795 124 -796 0
-795 -124 -796 0
795 -124 796 0
-795 124 796 0
796 125 -797 0
-796 -125 -797 0
796 -125 797 0
-796 125 797 0
797 126 -798 0
-797 -126 -798 0
797 -126 798 0
-797 126 798 0
798 127 -799 0
-798 -127 -799 0
798 -127 799 0
-798 127 799 0
799 128 -800 0
-799 -128 -800 0
799 -128 800 0
-799 128 800 0
800 129 -801 0
-800 -129 -801 0
800 -129 801 0
-800 129 801 0
801 130 -802 0
-801 -130 -802 0
801 -130 802 0
-801 130 802 0
802 131 -803 0
-802 -131 -803 0
802 -131 803 0
-802 131 803 0
803 132 -804 0
-803 -132 -804 0
803 -132 804 0
-803 132 804 0
804 133 -805 0
-804 -133 -805 0
804 -133 805 0
-804 133 805 0
805 134 -806 0
-805 -134 -806 0
805 -134 806 0
-805 134 806 0
806 135 -807 0
-806 -135 -807 0
806 -135 807 0
-806 135 807 0
807 136 -808 0
-807 -136 -808 0
807 -136 808 0
-807 136 808 0
808 137 -809 0
-808 -137 -809 0
808 -137 809 0
-808 137 809 0
809 138 -810 0
-809 -138 -810 0
809 -138 810 0
-809 138 810 0
810 139 -811 0
-810 -139 -811 0
810 -139 811 0
-810 139 811 0
811 140 -812 0
-811 -140 -812 0
811 -140 812 0
-811 140 812 0
812 141 -813 0
-812 -141 -813 0
812 -141 813 0
-812 141 813 0
813 145 -814 0
-813 -145 -814 0
813 -145 814 0
-813 145 814 0
814 146 -815 0
-814 -146 -815 0
814 -146 815 0
-814 146 815 0
815 147 -816 0
-815 -147 -816 0
815 -147 816 0
-815 147 816 0
816 148 -817 0
-816 -148 -817 0
816 -148 817 0
-816 148 817 0
817 149 -818 0
-817 -149 -818 0
817 -149 818 0
-817 149 818 0
818 150 -819 0
-818 -150 -819 0
818 -150 819 0
-818 150 819 0
4 79 -820 0
-4 -79 -820 0
4 -79 820 0
-4 79 820 0
820 80 -821 0
-820 -80 -821 0
820 -80 821 0
-820 80 821 0
821 81 -822 0
-821 -81 -822 0
821 -81 822 0
-821 81 822 0
822 83 -823 0
-822 -83 -823 0
822 -83 823 0
-822 83 823 0
823 84 -824 0
-823 -84 -824 0
823 -84 824 0
-823 84 824 0
824 86 -825 0
-824 -86 -825 0
824 -86 825 0
-824 86 825 0
825 87 -826 0
-825 -87 -826 0
825 -87 826 0
-825 87 826 0
826 89 -827 0
-826 -89 -827 0
826 -89 827 0
-826 89 827 0
827 90 -828 0
-827 -90 -828 0
827 -90 828 0
-827 90 828 0
828 92 -829 0
-828 -92 -829 0
828 -92 829 0
-828 92 829 0
829 93 -830 0
-829 -93 -830 0
829 -93 830 0
-829 93 830 0
830 95 -831 0
-830 -95 -831 0
830 -95 831 0
-830 95 831 0
831 96 -832 0
-831 -96 -832 0
831 -96 832 0
-831 96 832 0
832 98 -833 0
-832 -98 -833 0
832 -98 833 0
-832 98 833 0
833 99 -834 0
-833 -99 -834 0
833 -99 834 0
-833 99 834 0
834 101 -835 0
-834 -101 -835 0
834 -101 835 0
-834 101 835 0
835 102 -836 0
-835 -102 -836 0
835 -102 836 0
-835 102 836 0
836 104 -837 0
-836 -104 -837 0
836 -104 837 0
-836 104 837 0
837 105 -838 0
-837 -105 -838 0
837 -105 838 0
-837 105 838 0
838 107 -839 0
-838 -107 -839 0
838 -107 839 0
-838 107 839 0
839 108 -840 0
-839 -108 -840 0
839 -108 840 0
-839 108 840 0
840 110 -841 0
-840 -110 -841 0
840 -110 841 0
-840 110 841 0
841 111 -842 0
-841 -111 -842 0
841 -111 842 0
-841 111 842 0
842 113 -843 0
-842 -113 -843 0
842 -113 843 0
-842 113 843 0
843 114 -844 0
-843 -114 -844 0
843 -114 844 0
-843 114 844 0
844 116 -845 0
-844 -116 -845 0
844 -116 845 0
-844 116 845 0
845 117 -846 0
-845 -117 -846 0
845 -117 846 0
-845 117 846 0
846 119 -847 0
-846 -119 -847 0
846 -119 847 0
-846 119 847 0
847 120 -848 0
-847 -120 -848 0
847 -120 848 0
-847 120 848 0
848 122 -849 0
-848 -122 -849 0
848 -122 849 0
-848 122 849 0
849 123 -850 0
-849 -123 -850 0
849 -123 850 0
-849 123 850 0
850 125 -851 0
-850 -125 -851 0
850 -125 851 0
-850 125 851 0
851 126 -852 0
-851 -126 -852 0
851 -126 852 0
-851 126 852 0
852 128 -853 0
-852 -128 -853 0
852 -128 853 0
-852 128 853 0
853 129 -854 0
-853 -129 -854 0
853 -129 854 0
-853 129 854 0
854 131 -855 0
-854 -131 -855 0
854 -131 855 0
-854 131 855 0
855 132 -856 0
-855 -132 -856 0
855 -132 856 0
-855 132 856 0
856 134 -857 0
-856 -134 -857 0
856 -134 857 0
-856 134 857 0
857 135 -858 0
-857 -135 -858 0
857 -135 858 0
-857 135 858 0
858 137 -859 0
-858 -137 -859 0
858 -137 859 0
-858 137 859 0
859 138 -860 0
-859 -138 -860 0
859 -138 860 0
-859 138 860 0
860 140 -861 0
-860 -140 -861 0
860 -140 861 0
-860 140 861 0
861 141 -862 0
-861 -141 -862 0
861 -141 862 0
-861 141 862 0
862 145 -863 0
-862 -145 -863 0
862 -145 863 0
-862 145 863 0
863 146 -864 0
-863 -146 -864 0
863 -146 864 0
-863 146 864 0
864 147 -865 0
-864 -147 -865 0
864 -147 865 0
-864 147 865 0
865 149 -866 0
-865 -149 -866 0
865 -149 866 0
-865 149 866 0
866 150 -867 0
-866 -150 -867 0
866 -150 867 0
-866 150 867 0
7 80 -868 0
-7 -80 -868 0
7 -80 868 0
-7 80 868 0
868 81 -869 0
-868 -81 -869 0
868 -81 869 0
-868 81 869 0
869 82 -870 0
-869 -82 -870 0
869 -82 870 0
-869 82 870 0
870 146 -871 0
-870 -146 -871 0
870 -146 871 0
-870 146 871 0
871 147 -872 0
-871 -147 -872 0
871 -147 872 0
-871 147 872 0
872 148 -873 0
-872 -148 -873 0
872 -148 873 0
-872 148 873 0
8 81 -874 0
-8 -81 -874 0
8 -81 874 0
-8 81 874 0
874 82 -875 0
-874 -82 -875 0
874 -82 875 0
-874 82 875 0
875 83 -876 0
-875 -83 -876 0
875 -83 876 0
-875 83 876 0
876 147 -877 0
-876 -147 -877 0
876 -147 877 0
-876 147 877 0
877 148 -878 0
-877 -148 -878 0
877 -148 878 0
-877 148 878 0
878 149 -879 0
-878 -149 -879 0
878 -149 879 0
-878 149 879 0
702 750 819 867 873 879 0
1 0
-888 882 889 0
-885 882 889 0
-885 -888 889 0
-889 880 0
-886 880 0
-889 -886 881 0
-887 881 0
-889 -887 0
-883 880 0
-889 -883 881 0
-884 881 0
-889 -884 0
-883 -886 881 0
-889 -883 -886 0
-883 -887 0
-889 -883 -887 0
-884 -886 0
-889 -884 -886 0
-884 -887 0
-889 -884 -887 0
-895 888 896 0
-892 888 896 0
-892 -895 896 0
-896 886 0
-893 886 0
-896 -893 887 0
-894 887 0
-896 -894 0
-890 886 0
-896 -890 887 0
-891 887 0
-896 -891 0
-890 -893 887 0
-896 -890 -893 0
-890 -894 0
-896 -890 -894 0
-891 -893 0
-896 -891 -893 0
-891 -894 0
-896 -891 -894 0
-902 895 903 0
-899 895 903 0
-899 -902 903 0
-903 893 0
-900 893 0
-903 -900 894 0
-901 894 0
-903 -901 0
-897 893 0
-903 -897 894 0
-898 894 0
-903 -898 0
-897 -900 894 0
-903 -897 -900 0
-897 -901 0
-903 -897 -901 0
-898 -900 0
-903 -898 -900 0
-898 -901 0
-903 -898 -901 0
-909 902 910 0
-906 902 910 0
-906 -909 910 0
-910 900 0
-907 900 0
-910 -907 901 0
-908 901 0
-910 -908 0
-904 900 0
-910 -904 901 0
-905 901 0
-910 -905 0
-904 -907 901 0
-910 -904 -907 0
-904 -908 0
-910 -904 -908 0
-905 -907 0
-910 -905 -907 0
-905 -908 0
-910 -905 -908 0
-916 909 917 0
-913 909 917 0
-913 -916 917 0
-917 907 0
-914 907 0
-917 -914 908 0
-915 908 0
-917 -915 0
-911 907 0
-917 -911 908 0
-912 908 0
-917 -912 0
-911 -914 908 0
-917 -911 -914 0
-911 -915 0
-917 -911 -915 0
-912 -914 0
-917 -912 -914 0
-912 -915 0
-917 -912 -915 0
-921 916 922 0
-919 916 922 0
-919 -921 922 0
-922 914 0
-920 914 0
-922 -920 915 0
-918 914 0
-922 -918 915 0
-918 -920 915 0
-922 -918 -920 0
-150 921 923 0
-149 921 923 0
-149 -150 923 0
-923 920 0
-148 919 924 0
-147 919 924 0
-147 -148 924 0
-924 918 0
-928 913 929 0
-926 913 929 0
-926 -928 929 0
-929 911 0
-927 911 0
-929 -927 912 0
-925 911 0
-929 -925 912 0
-925 -927 912 0
-929 -925 -927 0
-146 928 930 0
-145 928 930 0
-145 -146 930 0
-930 927 0
-144 926 933 0
-932 926 933 0
-932 -144 933 0
-933 925 0
-931 925 0
-933 -931 0
-143 932 934 0
-142 932 934 0
-142 -143 934 0
-934 931 0
-940 906 941 0
-937 906 941 0
-937 -940 941 0
-941 904 0
-938 904 0
-941 -938 905 0
-939 905 0
-941 -939 0
-935 904 0
-941 -935 905 0
-936 905 0
-941 -936 0
-935 -938 905 0
-941 -935 -938 0
-935 -939 0
-941 -935 -939 0
-936 -938 0
-941 -936 -938 0
-936 -939 0
-941 -936 -939 0
-945 940 946 0
-943 940 946 0
-943 -945 946 0
-946 938 0
-944 938 0
-946 -944 939 0
-942 938 0
-946 -942 939 0
-942 -944 939 0
-946 -942 -944 0
-141 945 947 0
-140 945 947 0
-140 -141 947 0
-947 944 0
-139 943 948 0
-138 943 948 0
-138 -139 948 0
-948 942 0
-952 937 953 0
-950 937 953 0
-950 -952 953 0
-953 935 0
-951 935 0
-953 -951 936 0
-949 935 0
-953 -949 936 0
-949 -951 936 0
-953 -949 -951 0
-137 952 954 0
-136 952 954 0
-136 -137 954 0
-954 951 0
-135 950 957 0
-956 950 957 0
-956 -135 957 0
-957 949 0
-955 949 0
-957 -955 0
-134 956 958 0
-133 956 958 0
-133 -134 958 0
-958 955 0
-964 899 965 0
-961 899 965 0
-961 -964 965 0
-965 897 0
-962 897 0
-965 -962 898 0
-963 898 0
-965 -963 0
-959 897 0
-965 -959 898 0
-960 898 0
-965 -960 0
-959 -962 898 0
-965 -959 -962 0
-959 -963 0
-965 -959 -963 0
-960 -962 0
-965 -960 -962 0
-960 -963 0
-965 -960 -963 0
-971 964 972 0
-968 964 972 0
-968 -971 972 0
-972 962 0
-969 962 0
-972 -969 963 0
-970 963 0
-972 -970 0
-966 962 0
-972 -966 963 0
-967 963 0
-972 -967 0
-966 -969 963 0
-972 -966 -969 0
-966 -970 0
-972 -966 -970 0
-967 -969 0
-972 -967 -969 0
-967 -970 0
-972 -967 -970 0
-976 971 977 0
-974 971 977 0
-974 -976 977 0
-977 969 0
-975 969 0
-977 -975 970 0
-973 969 0
-977 -973 970 0
-973 -975 970 0
-977 -973 -975 0
-132 976 978 0
-131 976 978 0
-131 -132 978 0
-978 975 0
-130 974 979 0
-129 974 979 0
-129 -130 979 0
-979 973 0
-983 968 984 0
-981 968 984 0
-981 -983 984 0
-984 966 0
-982 966 0
-984 -982 967 0
-980 966 0
-984 -980 967 0
-980 -982 967 0
-984 -980 -982 0
-128 983 985 0
-127 983 985 0
-127 -128 985 0
-985 982 0
-126 981 988 0
-987 981 988 0
-987 -126 988 0
-988 980 0
-986 980 0
-988 -986 0
-125 987 989 0
-124 987 989 0
-124 -125 989 0
-989 986 0
-995 961 996 0
-992 961 996 0
-992 -995 996 0
-996 959 0
-993 959 0
-996 -993 960 0
-994 960 0
-996 -994 0
-990 959 0
-996 -990 960 0
-991 960 0
-996 -991 0
-990 -993 960 0
-996 -990 -993 0
-990 -994 0
-996 -990 -994 0
-991 -993 0
-996 -991 -993 0
-991 -994 0
-996 -991 -994 0
-1000 995 1001 0
-998 995 1001 0
-998 -1000 1001 0
-1001 993 0
-999 993 0
-1001 -999 994 0
-997 993 0
-1001 -997 994 0
-997 -999 994 0
-1001 -997 -999 0
-123 1000 1002 0
-122 1000 1002 0
-122 -123 1002 0
-1002 999 0
-121 998 1005 0
-1004 998 1005 0
-1004 -121 1005 0
-1005 997 0
-1003 997 0
-1005 -1003 0
-120 1004 1006 0
-119 1004 1006 0
-119 -120 1006 0
-1006 1003 0
-1010 992 1011 0
-1008 992 1011 0
-1008 -1010 1011 0
-1011 990 0
-1009 990 0
-1011 -1009 991 0
-1007 990 0
-1011 -1007 991 0
-1007 -1009 991 0
-1011 -1007 -1009 0
-118 1010 1012 0
-117 1010 1012 0
-117 -118 1012 0
-1012 1009 0
-116 1008 1015 0
-1014 1008 1015 0
-1014 -116 1015 0
-1015 1007 0
-1013 1007 0
-1015 -1013 0
-115 1014 1016 0
-114 1014 1016 0
-114 -115 1016 0
-1016 1013 0
-1022 892 1023 0
-1019 892 1023 0
-1019 -1022 1023 0
-1023 890 0
-1020 890 0
-1023 -1020 891 0
-1021 891 0
-1023 -1021 0
-1017 890 0
-1023 -1017 891 0
-1018 891 0
-1023 -1018 0
-1017 -1020 891 0
-1023 -1017 -1020 0
-1017 -1021 0
-1023 -1017 -1021 0
-1018 -1020 0
-1023 -1018 -1020 0
-1018 -1021 0
-1023 -1018 -1021 0
-1029 1022 1030 0
-1026 1022 1030 0
-1026 -1029 1030 0
-1030 1020 0
-1027 1020 0
-1030 -1027 1021 0
-1028 1021 0
-1030 -1028 0
-1024 1020 0
-1030 -1024 1021 0
-1025 1021 0
-1030 -1025 0
-1024 -1027 1021 0
-1030 -1024 -1027 0
-1024 -1028 0
-1030 -1024 -1028 0
-1025 -1027 0
-1030 -1025 -1027 0
-1025 -1028 0
-1030 -1025 -1028 0
-1036 1029 1037 0
-1033 1029 1037 0
-1033 -1036 1037 0
-1037 1027 0
-1034 1027 0
-1037 -1034 1028 0
-1035 1028 0
-1037 -1035 0
-1031 1027 0
-1037 -1031 1028 0
-1032 1028 0
-1037 -1032 0
-1031 -1034 1028 0
-1037 -1031 -1034 0
-1031 -1035 0
-1037 -1031 -1035 0
-1032 -1034 0
-1037 -1032 -1034 0
-1032 -1035 0
-1037 -1032 -1035 0
-1041 1036 1042 0
-1039 1036 1042 0
-1039 -1041 1042 0
-1042 1034 0
-1040 1034 0
-1042 -1040 1035 0
-1038 1034 0
-1042 -1038 1035 0
-1038 -1040 1035 0
-1042 -1038 -1040 0
-113 1041 1043 0
-112 1041 1043 0
-112 -113 1043 0
-1043 1040 0
-111 1039 1044 0
-110 1039 1044 0
-110 -111 1044 0
-1044 1038 0
-1048 1033 1049 0
-1046 1033 1049 0
-1046 -1048 1049 0
-1049 1031 0
-1047 1031 0
-1049 -1047 1032 0
-1045 1031 0
-1049 -1045 1032 0
-1045 -1047 1032 0
-1049 -1045 -1047 0
-109 1048 1050 0
-108 1048 1050 0
-108 -109 1050 0
-1050 1047 0
-107 1046 1053 0
-1052 1046 1053 0
-1052 -107 1053 0
-1053 1045 0
-1051 1045 0
-1053 -1051 0
-106 1052 1054 0
-105 1052 1054 0
-105 -106 1054 0
-1054 1051 0
-1060 1026 1061 0
-1057 1026 1061 0
-1057 -1060 1061 0
-1061 1024 0
-1058 1024 0
-1061 -1058 1025 0
-1059 1025 0
-1061 -1059 0
-1055 1024 0
-1061 -1055 1025 0
-1056 1025 0
-1061 -1056 0
-1055 -1058 1025 0
-1061 -1055 -1058 0
-1055 -1059 0
-1061 -1055 -1059 0
-1056 -1058 0
-1061 -1056 -1058 0
-1056 -1059 0
-1061 -1056 -1059 0
-1065 1060 1066 0
-1063 1060 1066 0
-1063 -1065 1066 0
-1066 1058 0
-1064 1058 0
-1066 -1064 1059 0
-1062 1058 0
-1066 -1062 1059 0
-1062 -1064 1059 0
-1066 -1062 -1064 0
-104 1065 1067 0
-103 1065 1067 0
-103 -104 1067 0
-1067 1064 0
-102 1063 1070 0
-1069 1063 1070 0
-1069 -102 1070 0
-1070 1062 0
-1068 1062 0
-1070 -1068 0
-101 1069 1071 0
-100 1069 1071 0
-100 -101 1071 0
-1071 1068 0
-1075 1057 1076 0
-1073 1057 1076 0
-1073 -1075 1076 0
-1076 1055 0
-1074 1055 0
-1076 -1074 1056 0
-1072 1055 0
-1076 -1072 1056 0
-1072 -1074 1056 0
-1076 -1072 -1074 0
-99 1075 1077 0
-98 1075 1077 0
-98 -99 1077 0
-1077 1074 0
-97 1073 1080 0
-1079 1073 1080 0
-1079 -97 1080 0
-1080 1072 0
-1078 1072 0
-1080 -1078 0
-96 1079 1081 0
-95 1079 1081 0
-95 -96 1081 0
-1081 1078 0
-1087 1019 1088 0
-1084 1019 1088 0
-1084 -1087 1088 0
-1088 1017 0
-1085 1017 0
-1088 -1085 1018 0
-1086 1018 0
-1088 -1086 0
-1082 1017 0
-1088 -1082 1018 0
-1083 1018 0
-1088 -1083 0
-1082 -1085 1018 0
-1088 -1082 -1085 0
-1082 -1086 0
-1088 -1082 -1086 0
-1083 -1085 0
-1088 -1083 -1085 0
-1083 -1086 0
-1088 -1083 -1086 0
-1094 1087 1095 0
-1091 1087 1095 0
-1091 -1094 1095 0
-1095 1085 0
-1092 1085 0
-1095 -1092 1086 0
-1093 1086 0
-1095 -1093 0
-1089 1085 0
-1095 -1089 1086 0
-1090 1086 0
-1095 -1090 0
-1089 -1092 1086 0
-1095 -1089 -1092 0
-1089 -1093 0
-1095 -1089 -1093 0
-1090 -1092 0
-1095 -1090 -1092 0
-1090 -1093 0
-1095 -1090 -1093 0
-1099 1094 1100 0
-1097 1094 1100 0
-1097 -1099 1100 0
-1100 1092 0
-1098 1092 0
-1100 -1098 1093 0
-1096 1092 0
-1100 -1096 1093 0
-1096 -1098 1093 0
-1100 -1096 -1098 0
-94 1099 1101 0
-93 1099 1101 0
-93 -94 1101 0
-1101 1098 0
-92 1097 1102 0
-91 1097 1102 0
-91 -92 1102 0
-1102 1096 0
-1106 1091 1107 0
-1104 1091 1107 0
-1104 -1106 1107 0
-1107 1089 0
-1105 1089 0
-1107 -1105 1090 0
-1103 1089 0
-1107 -1103 1090 0
-1103 -1105 1090 0
-1107 -1103 -1105 0
-90 1106 1108 0
-89 1106 1108 0
-89 -90 1108 0
-1108 1105 0
-88 1104 1111 0
-1110 1104 1111 0
-1110 -88 1111 0
-1111 1103 0
-1109 1103 0
-1111 -1109 0
-87 1110 1112 0
-86 1110 1112 0
-86 -87 1112 0
-1112 1109 0
-1118 1084 1119 0
-1115 1084 1119 0
-1115 -1118 1119 0
-1119 1082 0
-1116 1082 0
-1119 -1116 1083 0
-1117 1083 0
-1119 -1117 0
-1113 1082 0
-1119 -1113 1083 0
-1114 1083 0
-1119 -1114 0
-1113 -1116 1083 0
-1119 -1113 -1116 0
-1113 -1117 0
-1119 -1113 -1117 0
-1114 -1116 0
-1119 -1114 -1116 0
-1114 -1117 0
-1119 -1114 -1117 0
-1123 1118 1124 0
-1121 1118 1124 0
-1121 -1123 1124 0
-1124 1116 0
-1122 1116 0
-1124 -1122 1117 0
-1120 1116 0
-1124 -1120 1117 0
-1120 -1122 1117 0
-1124 -1120 -1122 0
-85 1123 1125 0
-84 1123 1125 0
-84 -85 1125 0
-1125 1122 0
-83 1121 1128 0
-1127 1121 1128 0
-1127 -83 1128 0
-1128 1120 0
-1126 1120 0
-1128 -1126 0
-82 1127 1129 0
-81 1127 1129 0
-81 -82 1129 0
-1129 1126 0
-1133 1115 1134 0
-1131 1115 1134 0
-1131 -1133 1134 0
-1134 1113 0
-1132 1113 0
-1134 -1132 1114 0
-1130 1113 0
-1134 -1130 1114 0
-1130 -1132 1114 0
-1134 -1130 -1132 0
-80 1133 1135 0
-79 1133 1135 0
-79 -80 1135 0
-1135 1132 0
-78 1131 1138 0
-1137 1131 1138 0
-1137 -78 1138 0
-1138 1130 0
-1136 1130 0
-1138 -1136 0
-77 1137 1139 0
-76 1137 1139 0
-76 -77 1139 0
-1139 1136 0
-1145 885 1146 0
-1142 885 1146 0
-1142 -1145 1146 0
-1146 883 0
-1143 883 0
-1146 -1143 884 0
-1144 884 0
-1146 -1144 0
-1140 883 0
-1146 -1140 884 0
-1141 884 0
-1146 -1141 0
-1140 -1143 884 0
-1146 -1140 -1143 0
-1140 -1144 0
-1146 -1140 -1144 0
-1141 -1143 0
-1146 -1141 -1143 0
-1141 -1144 0
-1146 -1141 -1144 0
-1152 1145 1153 0
-1149 1145 1153 0
-1149 -1152 1153 0
-1153 1143 0
-1150 1143 0
-1153 -1150 1144 0
-1151 1144 0
-1153 -1151 0
-1147 1143 0
-1153 -1147 1144 0
-1148 1144 0
-1153 -1148 0
-1147 -1150 1144 0
-1153 -1147 -1150 0
-1147 -1151 0
-1153 -1147 -1151 0
-1148 -1150 0
-1153 -1148 -1150 0
-1148 -1151 0
-1153 -1148 -1151 0
-1159 1152 1160 0
-1156 1152 1160 0
-1156 -1159 1160 0
-1160 1150 0
-1157 1150 0
-1160 -1157 1151 0
-1158 1151 0
-1160 -1158 0
-1154 1150 0
-1160 -1154 1151 0
-1155 1151 0
-1160 -1155 0
-1154 -1157 1151 0
-1160 -1154 -1157 0
-1154 -1158 0
-1160 -1154 -1158 0
-1155 -1157 0
-1160 -1155 -1157 0
-1155 -1158 0
-1160 -1155 -1158 0
-1166 1159 1167 0
-1163 1159 1167 0
-1163 -1166 1167 0
-1167 1157 0
-1164 1157 0
-1167 -1164 1158 0
-1165 1158 0
-1167 -1165 0
-1161 1157 0
-1167 -1161 1158 0
-1162 1158 0
-1167 -1162 0
-1161 -1164 1158 0
-1167 -1161 -1164 0
-1161 -1165 0
-1167 -1161 -1165 0
-1162 -1164 0
-1167 -1162 -1164 0
-1162 -1165 0
-1167 -1162 -1165 0
-1171 1166 1172 0
-1169 1166 1172 0
-1169 -1171 1172 0
-1172 1164 0
-1170 1164 0
-1172 -1170 1165 0
-1168 1164 0
-1172 -1168 1165 0
-1168 -1170 1165 0
-1172 -1168 -1170 0
-75 1171 1173 0
-74 1171 1173 0
-74 -75 1173 0
-1173 1170 0
-73 1169 1174 0
-72 1169 1174 0
-72 -73 1174 0
-1174 1168 0
-1178 1163 1179 0
-1176 1163 1179 0
-1176 -1178 1179 0
-1179 1161 0
-1177 1161 0
-1179 -1177 1162 0
-1175 1161 0
-1179 -1175 1162 0
-1175 -1177 1162 0
-1179 -1175 -1177 0
-71 1178 1180 0
-70 1178 1180 0
-70 -71 1180 0
-1180 1177 0
-69 1176 1183 0
-1182 1176 1183 0
-1182 -69 1183 0
-1183 1175 0
-1181 1175 0
-1183 -1181 0
-68 1182 1184 0
-67 1182 1184 0
-67 -68 1184 0
-1184 1181 0
-1190 1156 1191 0
-1187 1156 1191 0
-1187 -1190 1191 0
-1191 1154 0
-1188 1154 0
-1191 -1188 1155 0
-1189 1155 0
-1191 -1189 0
-1185 1154 0
-1191 -1185 1155 0
-1186 1155 0
-1191 -1186 0
-1185 -1188 1155 0
-1191 -1185 -1188 0
-1185 -1189 0
-1191 -1185 -1189 0
-1186 -1188 0
-1191 -1186 -1188 0
-1186 -1189 0
-1191 -1186 -1189 0
-1195 1190 1196 0
-1193 1190 1196 0
-1193 -1195 1196 0
-1196 1188 0
-1194 1188 0
-1196 -1194 1189 0
-1192 1188 0
-1196 -1192 1189 0
-1192 -1194 1189 0
-1196 -1192 -1194 0
-66 1195 1197 0
-65 1195 1197 0
-65 -66 1197 0
-1197 1194 0
-64 1193 1198 0
-63 1193 1198 0
-63 -64 1198 0
-1198 1192 0
-1202 1187 1203 0
-1200 1187 1203 0
-1200 -1202 1203 0
-1203 1185 0
-1201 1185 0
-1203 -1201 1186 0
-1199 1185 0
-1203 -1199 1186 0
-1199 -1201 1186 0
-1203 -1199 -1201 0
-62 1202 1204 0
-61 1202 1204 0
-61 -62 1204 0
-1204 1201 0
-60 1200 1207 0
-1206 1200 1207 0
-1206 -60 1207 0
-1207 1199 0
-1205 1199 0
-1207 -1205 0
-59 1206 1208 0
-58 1206 1208 0
-58 -59 1208 0
-1208 1205 0
-1214 1149 1215 0
-1211 1149 1215 0
-1211 -1214 1215 0
-1215 1147 0
-1212 1147 0
-1215 -1212 1148 0
-1213 1148 0
-1215 -1213 0
-1209 1147 0
-1215 -1209 1148 0
-1210 1148 0
-1215 -1210 0
-1209 -1212 1148 0
-1215 -1209 -1212 0
-1209 -1213 0
-1215 -1209 -1213 0
-1210 -1212 0
-1215 -1210 -1212 0
-1210 -1213 0
-1215 -1210 -1213 0
-1221 1214 1222 0
-1218 1214 1222 0
-1218 -1221 1222 0
-1222 1212 0
-1219 1212 0
-1222 -1219 1213 0
-1220 1213 0
-1222 -1220 0
-1216 1212 0
-1222 -1216 1213 0
-1217 1213 0
-1222 -1217 0
-1216 -1219 1213 0
-1222 -1216 -1219 0
-1216 -1220 0
-1222 -1216 -1220 0
-1217 -1219 0
-1222 -1217 -1219 0
-1217 -1220 0
-1222 -1217 -1220 0
-1226 1221 1227 0
-1224 1221 1227 0
-1224 -1226 1227 0
-1227 1219 0
-1225 1219 0
-1227 -1225 1220 0
-1223 1219 0
-1227 -1223 1220 0
-1223 -1225 1220 0
-1227 -1223 -1225 0
-57 1226 1228 0
-56 1226 1228 0
-56 -57 1228 0
-1228 1225 0
-55 1224 1229 0
-54 1224 1229 0
-54 -55 1229 0
-1229 1223 0
-1233 1218 1234 0
-1231 1218 1234 0
-1231 -1233 1234 0
-1234 1216 0
-1232 1216 0
-1234 -1232 1217 0
-1230 1216 0
-1234 -1230 1217 0
-1230 -1232 1217 0
-1234 -1230 -1232 0
-53 1233 1235 0
-52 1233 1235 0
-52 -53 1235 0
-1235 1232 0
-51 1231 1238 0
-1237 1231 1238 0
-1237 -51 1238 0
-1238 1230 0
-1236 1230 0
-1238 -1236 0
-50 1237 1239 0
-49 1237 1239 0
-49 -50 1239 0
-1239 1236 0
-1245 1211 1246 0
-1242 1211 1246 0
-1242 -1245 1246 0
-1246 1209 0
-1243 1209 0
-1246 -1243 1210 0
-1244 1210 0
-1246 -1244 0
-1240 1209 0
-1246 -1240 1210 0
-1241 1210 0
-1246 -1241 0
-1240 -1243 1210 0
-1246 -1240 -1243 0
-1240 -1244 0
-1246 -1240 -1244 0
-1241 -1243 0
-1246 -1241 -1243 0
-1241 -1244 0
-1246 -1241 -1244 0
-1250 1245 1251 0
-1248 1245 1251 0
-1248 -1250 1251 0
-1251 1243 0
-1249 1243 0
-1251 -1249 1244 0
-1247 1243 0
-1251 -1247 1244 0
-1247 -1249 1244 0
-1251 -1247 -1249 0
-48 1250 1252 0
-47 1250 1252 0
-47 -48 1252 0
-1252 1249 0
-46 1248 1255 0
-1254 1248 1255 0
-1254 -46 1255 0
-1255 1247 0
-1253 1247 0
-1255 -1253 0
-45 1254 1256 0
-44 1254 1256 0
-44 -45 1256 0
-1256 1253 0
-1260 1242 1261 0
-1258 1242 1261 0
-1258 -1260 1261 0
-1261 1240 0
-1259 1240 0
-1261 -1259 1241 0
-1257 1240 0
-1261 -1257 1241 0
-1257 -1259 1241 0
-1261 -1257 -1259 0
-43 1260 1262 0
-42 1260 1262 0
-42 -43 1262 0
-1262 1259 0
-41 1258 1265 0
-1264 1258 1265 0
-1264 -41 1265 0
-1265 1257 0
-1263 1257 0
-1265 -1263 0
-40 1264 1266 0
-39 1264 1266 0
-39 -40 1266 0
-1266 1263 0
-1272 1142 1273 0
-1269 1142 1273 0
-1269 -1272 1273 0
-1273 1140 0
-1270 1140 0
-1273 -1270 1141 0
-1271 1141 0
-1273 -1271 0
-1267 1140 0
-1273 -1267 1141 0
-1268 1141 0
-1273 -1268 0
-1267 -1270 1141 0
-1273 -1267 -1270 0
-1267 -1271 0
-1273 -1267 -1271 0
-1268 -1270 0
-1273 -1268 -1270 0
-1268 -1271 0
-1273 -1268 -1271 0
-1279 1272 1280 0
-1276 1272 1280 0
-1276 -1279 1280 0
-1280 1270 0
-1277 1270 0
-1280 -1277 1271 0
-1278 1271 0
-1280 -1278 0
-1274 1270 0
-1280 -1274 1271 0
-1275 1271 0
-1280 -1275 0
-1274 -1277 1271 0
-1280 -1274 -1277 0
-1274 -1278 0
-1280 -1274 -1278 0
-1275 -1277 0
-1280 -1275 -1277 0
-1275 -1278 0
-1280 -1275 -1278 0
-1286 1279 1287 0
-1283 1279 1287 0
-1283 -1286 1287 0
-1287 1277 0
-1284 1277 0
-1287 -1284 1278 0
-1285 1278 0
-1287 -1285 0
-1281 1277 0
-1287 -1281 1278 0
-1282 1278 0
-1287 -1282 0
-1281 -1284 1278 0
-1287 -1281 -1284 0
-1281 -1285 0
-1287 -1281 -1285 0
-1282 -1284 0
-1287 -1282 -1284 0
-1282 -1285 0
-1287 -1282 -1285 0
-1291 1286 1292 0
-1289 1286 1292 0
-1289 -1291 1292 0
-1292 1284 0
-1290 1284 0
-1292 -1290 1285 0
-1288 1284 0
-1292 -1288 1285 0
-1288 -1290 1285 0
-1292 -1288 -1290 0
-38 1291 1293 0
-37 1291 1293 0
-37 -38 1293 0
-1293 1290 0
-36 1289 1294 0
-35 1289 1294 0
-35 -36 1294 0
-1294 1288 0
-1298 1283 1299 0
-1296 1283 1299 0
-1296 -1298 1299 0
-1299 1281 0
-1297 1281 0
-1299 -1297 1282 0
-1295 1281 0
-1299 -1295 1282 0
-1295 -1297 1282 0
-1299 -1295 -1297 0
-34 1298 1300 0
-33 1298 1300 0
-33 -34 1300 0
-1300 1297 0
-32 1296 1303 0
-1302 1296 1303 0
-1302 -32 1303 0
-1303 1295 0
-1301 1295 0
-1303 -1301 0
-31 1302 1304 0
-30 1302 1304 0
-30 -31 1304 0
-1304 1301 0
-1310 1276 1311 0
-1307 1276 1311 0
-1307 -1310 1311 0
-1311 1274 0
-1308 1274 0
-1311 -1308 1275 0
-1309 1275 0
-1311 -1309 0
-1305 1274 0
-1311 -1305 1275 0
-1306 1275 0
-1311 -1306 0
-1305 -1308 1275 0
-1311 -1305 -1308 0
-1305 -1309 0
-1311 -1305 -1309 0
-1306 -1308 0
-1311 -1306 -1308 0
-1306 -1309 0
-1311 -1306 -1309 0
-1315 1310 1316 0
-1313 1310 1316 0
-1313 -1315 1316 0
-1316 1308 0
-1314 1308 0
-1316 -1314 1309 0
-1312 1308 0
-1316 -1312 1309 0
-1312 -1314 1309 0
-1316 -1312 -1314 0
-29 1315 1317 0
-28 1315 1317 0
-28 -29 1317 0
-1317 1314 0
-27 1313 1320 0
-1319 1313 1320 0
-1319 -27 1320 0
-1320 1312 0
-1318 1312 0
-1320 -1318 0
-26 1319 1321 0
-25 1319 1321 0
-25 -26 1321 0
-1321 1318 0
-1325 1307 1326 0
-1323 1307 1326 0
-1323 -1325 1326 0
-1326 1305 0
-1324 1305 0
-1326 -1324 1306 0
-1322 1305 0
-1326 -1322 1306 0
-1322 -1324 1306 0
-1326 -1322 -1324 0
-24 1325 1327 0
-23 1325 1327 0
-23 -24 1327 0
-1327 1324 0
-22 1323 1330 0
-1329 1323 1330 0
-1329 -22 1330 0
-1330 1322 0
-1328 1322 0
-1330 -1328 0
-21 1329 1331 0
-20 1329 1331 0
-20 -21 1331 0
-1331 1328 0
-1337 1269 1338 0
-1334 1269 1338 0
-1334 -1337 1338 0
-1338 1267 0
-1335 1267 0
-1338 -1335 1268 0
-1336 1268 0
-1338 -1336 0
-1332 1267 0
-1338 -1332 1268 0
-1333 1268 0
-1338 -1333 0
-1332 -1335 1268 0
-1338 -1332 -1335 0
-1332 -1336 0
-1338 -1332 -1336 0
-1333 -1335 0
-1338 -1333 -1335 0
-1333 -1336 0
-1338 -1333 -1336 0
-1344 1337 1345 0
-1341 1337 1345 0
-1341 -1344 1345 0
-1345 1335 0
-1342 1335 0
-1345 -1342 1336 0
-1343 1336 0
-1345 -1343 0
-1339 1335 0
-1345 -1339 1336 0
-1340 1336 0
-1345 -1340 0
-1339 -1342 1336 0
-1345 -1339 -1342 0
-1339 -1343 0
-1345 -1339 -1343 0
-1340 -1342 0
-1345 -1340 -1342 0
-1340 -1343 0
-1345 -1340 -1343 0
-1349 1344 1350 0
-1347 1344 1350 0
-1347 -1349 1350 0
-1350 1342 0
-1348 1342 0
-1350 -1348 1343 0
-1346 1342 0
-1350 -1346 1343 0
-1346 -1348 1343 0
-1350 -1346 -1348 0
-19 1349 1351 0
-18 1349 1351 0
-18 -19 1351 0
-1351 1348 0
-17 1347 1352 0
-16 1347 1352 0
-16 -17 1352 0
-1352 1346 0
-1356 1341 1357 0
-1354 1341 1357 0
-1354 -1356 1357 0
-1357 1339 0
-1355 1339 0
-1357 -1355 1340 0
-1353 1339 0
-1357 -1353 1340 0
-1353 -1355 1340 0
-1357 -1353 -1355 0
-15 1356 1358 0
-14 1356 1358 0
-14 -15 1358 0
-1358 1355 0
-13 1354 1361 0
-1360 1354 1361 0
-1360 -13 1361 0
-1361 1353 0
-1359 1353 0
-1361 -1359 0
-12 1360 1362 0
-11 1360 1362 0
-11 -12 1362 0
-1362 1359 0
-1368 1334 1369 0
-1365 1334 1369 0
-1365 -1368 1369 0
-1369 1332 0
-1366 1332 0
-1369 -1366 1333 0
-1367 1333 0
-1369 -1367 0
-1363 1332 0
-1369 -1363 1333 0
-1364 1333 0
-1369 -1364 0
-1363 -1366 1333 0
-1369 -1363 -1366 0
-1363 -1367 0
-1369 -1363 -1367 0
-1364 -1366 0
-1369 -1364 -1366 0
-1364 -1367 0
-1369 -1364 -1367 0
-1373 1368 1374 0
-1371 1368 1374 0
-1371 -1373 1374 0
-1374 1366 0
-1372 1366 0
-1374 -1372 1367 0
-1370 1366 0
-1374 -1370 1367 0
-1370 -1372 1367 0
-1374 -1370 -1372 0
-10 1373 1375 0
-9 1373 1375 0
-9 -10 1375 0
-1375 1372 0
-8 1371 1378 0
-1377 1371 1378 0
-1377 -8 1378 0
-1378 1370 0
-1376 1370 0
-1378 -1376 0
-7 1377 1379 0
-6 1377 1379 0
-6 -7 1379 0
-1379 1376 0
-1383 1365 1384 0
-1381 1365 1384 0
-1381 -1383 1384 0
-1384 1363 0
-1382 1363 0
-1384 -1382 1364 0
-1380 1363 0
-1384 -1380 1364 0
-1380 -1382 1364 0
-1384 -1380 -1382 0
-5 1383 1385 0
-4 1383 1385 0
-4 -5 1385 0
-1385 1382 0
-3 1381 1388 0
-1387 1381 1388 0
-1387 -3 1388 0
-1388 1380 0
-1386 1380 0
-1388 -1386 0
-2 1387 1389 0
-1 1387 1389 0
-1 -2 1389 0
-1389 1386 0
