p cnf 1707 5377
1 94 -193 0
-1 -94 -193 0
1 -94 193 0
-1 94 193 0
193 95 -194 0
-193 -95 -194 0
193 -95 194 0
-193 95 194 0
194 96 -195 0
-194 -96 -195 0
194 -96 195 0
-194 96 195 0
195 97 -196 0
-195 -97 -196 0
195 -97 196 0
-195 97 196 0
196 173 -197 0
-196 -173 -197 0
196 -173 197 0
-196 173 197 0
197 181 -198 0
-197 -181 -198 0
197 -181 198 0
-197 181 198 0
198 185 -199 0
-198 -185 -199 0
198 -185 199 0
-198 185 199 0
-199 0
1 2 -200 0
-1 -2 -200 0
1 -2 200 0
-1 2 200 0
200 95 -201 0
-200 -95 -201 0
200 -95 201 0
-200 95 201 0
201 96 -202 0
-201 -96 -202 0
201 -96 202 0
-201 96 202 0
202 98 -203 0
-202 -98 -203 0
202 -98 203 0
-202 98 203 0
203 174 -204 0
-203 -174 -204 0
203 -174 204 0
-203 174 204 0
204 182 -205 0
-204 -182 -205 0
204 -182 205 0
-204 182 205 0
205 186 -206 0
-205 -186 -206 0
205 -186 206 0
-205 186 206 0
-206 0
1 2 -207 0
-1 -2 -207 0
1 -2 207 0
-1 2 207 0
207 3 -208 0
-207 -3 -208 0
207 -3 208 0
-207 3 208 0
208 96 -209 0
-208 -96 -209 0
208 -96 209 0
-208 96 209 0
209 99 -210 0
-209 -99 -210 0
209 -99 210 0
-209 99 210 0
210 175 -211 0
-210 -175 -211 0
210 -175 211 0
-210 175 211 0
211 183 -212 0
-211 -183 -212 0
211 -183 212 0
-211 183 212 0
212 187 -213 0
-212 -187 -213 0
212 -187 213 0
-212 187 213 0
-213 0
1 2 -214 0
-1 -2 -214 0
1 -2 214 0
-1 2 214 0
214 3 -215 0
-214 -3 -215 0
214 -3 215 0
-214 3 215 0
215 4 -216 0
-215 -4 -216 0
215 -4 216 0
-215 4 216 0
216 100 -217 0
-216 -100 -217 0
216 -100 217 0
-216 100 217 0
217 176 -218 0
-217 -176 -218 0
217 -176 218 0
-217 176 218 0
218 184 -219 0
-218 -184 -219 0
218 -184 219 0
-218 184 219 0
219 188 -220 0
-219 -188 -220 0
219 -188 220 0
-219 188 220 0
-220 0
2 3 -221 0
-2 -3 -221 0
2 -3 221 0
-2 3 221 0
221 4 -222 0
-221 -4 -222 0
221 -4 222 0
-221 4 222 0
222 5 -223 0
-222 -5 -223 0
222 -5 223 0
-222 5 223 0
223 101 -224 0
-223 -101 -224 0
223 -101 224 0
-223 101 224 0
224 177 -225 0
-224 -177 -225 0
224 -177 225 0
-224 177 225 0
225 185 -226 0
-225 -185 -226 0
225 -185 226 0
-225 185 226 0
226 189 -227 0
-226 -189 -227 0
226 -189 227 0
-226 189 227 0
-227 0
3 4 -228 0
-3 -4 -228 0
3 -4 228 0
-3 4 228 0
228 5 -229 0
-228 -5 -229 0
228 -5 229 0
-228 5 229 0
229 6 -230 0
-229 -6 -230 0
229 -6 230 0
-229 6 230 0
230 102 -231 0
-230 -102 -231 0
230 -102 231 0
-230 102 231 0
231 178 -232 0
-231 -178 -232 0
231 -178 232 0
-231 178 232 0
232 186 -233 0
-232 -186 -233 0
232 -186 233 0
-232 186 233 0
233 190 -234 0
-233 -190 -234 0
233 -190 234 0
-233 190 234 0
-234 0
4 5 -235 0
-4 -5 -235 0
4 -5 235 0
-4 5 235 0
235 6 -236 0
-235 -6 -236 0
235 -6 236 0
-235 6 236 0
236 7 -237 0
-236 -7 -237 0
236 -7 237 0
-236 7 237 0
237 103 -238 0
-237 -103 -238 0
237 -103 238 0
-237 103 238 0
238 179 -239 0
-238 -179 -239 0
238 -179 239 0
-238 179 239 0
239 187 -240 0
-239 -187 -240 0
239 -187 240 0
-239 187 240 0
240 191 -241 0
-240 -191 -241 0
240 -191 241 0
-240 191 241 0
-241 0
5 6 -242 0
-5 -6 -242 0
5 -6 242 0
-5 6 242 0
242 7 -243 0
-242 -7 -243 0
242 -7 243 0
-242 7 243 0
243 8 -244 0
-243 -8 -244 0
243 -8 244 0
-243 8 244 0
244 104 -245 0
-244 -104 -245 0
244 -104 245 0
-244 104 245 0
245 180 -246 0
-245 -180 -246 0
245 -180 246 0
-245 180 246 0
246 188 -247 0
-246 -188 -247 0
246 -188 247 0
-246 188 247 0
247 192 -248 0
-247 -192 -248 0
247 -192 248 0
-247 192 248 0
-248 0
6 7 -249 0
-6 -7 -249 0
6 -7 249 0
-6 7 249 0
249 8 -250 0
-249 -8 -250 0
249 -8 250 0
-249 8 250 0
250 9 -251 0
-250 -9 -251 0
250 -9 251 0
-250 9 251 0
251 97 -252 0
-251 -97 -252 0
251 -97 252 0
-251 97 252 0
252 105 -253 0
-252 -105 -253 0
252 -105 253 0
-252 105 253 0
253 181 -254 0
-253 -181 -254 0
253 -181 254 0
-253 181 254 0
254 189 -255 0
-254 -189 -255 0
254 -189 255 0
-254 189 255 0
-255 0
7 8 -256 0
-7 -8 -256 0
7 -8 256 0
-7 8 256 0
256 9 -257 0
-256 -9 -257 0
256 -9 257 0
-256 9 257 0
257 10 -258 0
-257 -10 -258 0
257 -10 258 0
-257 10 258 0
258 98 -259 0
-258 -98 -259 0
258 -98 259 0
-258 98 259 0
259 106 -260 0
-259 -106 -260 0
259 -106 260 0
-259 106 260 0
260 182 -261 0
-260 -182 -261 0
260 -182 261 0
-260 182 261 0
261 190 -262 0
-261 -190 -262 0
261 -190 262 0
-261 190 262 0
-262 0
8 9 -263 0
-8 -9 -263 0
8 -9 263 0
-8 9 263 0
263 10 -264 0
-263 -10 -264 0
263 -10 264 0
-263 10 264 0
264 11 -265 0
-264 -11 -265 0
264 -11 265 0
-264 11 265 0
265 99 -266 0
-265 -99 -266 0
265 -99 266 0
-265 99 266 0
266 107 -267 0
-266 -107 -267 0
266 -107 267 0
-266 107 267 0
267 183 -268 0
-267 -183 -268 0
267 -183 268 0
-267 183 268 0
268 191 -269 0
-268 -191 -269 0
268 -191 269 0
-268 191 269 0
-269 0
9 10 -270 0
-9 -10 -270 0
9 -10 270 0
-9 10 270 0
270 11 -271 0
-270 -11 -271 0
270 -11 271 0
-270 11 271 0
271 12 -272 0
-271 -12 -272 0
271 -12 272 0
-271 12 272 0
272 100 -273 0
-272 -100 -273 0
272 -100 273 0
-272 100 273 0
273 108 -274 0
-273 -108 -274 0
273 -108 274 0
-273 108 274 0
274 184 -275 0
-274 -184 -275 0
274 -184 275 0
-274 184 275 0
275 192 -276 0
-275 -192 -276 0
275 -192 276 0
-275 192 276 0
-276 0
10 11 -277 0
-10 -11 -277 0
10 -11 277 0
-10 11 277 0
277 12 -278 0
-277 -12 -278 0
277 -12 278 0
-277 12 278 0
278 13 -279 0
-278 -13 -279 0
278 -13 279 0
-278 13 279 0
279 97 -280 0
-279 -97 -280 0
279 -97 280 0
-279 97 280 0
280 101 -281 0
-280 -101 -281 0
280 -101 281 0
-280 101 281 0
281 109 -282 0
-281 -109 -282 0
281 -109 282 0
-281 109 282 0
282 185 -283 0
-282 -185 -283 0
282 -185 283 0
-282 185 283 0
-283 0
11 12 -284 0
-11 -12 -284 0
11 -12 284 0
-11 12 284 0
284 13 -285 0
-284 -13 -285 0
284 -13 285 0
-284 13 285 0
285 14 -286 0
-285 -14 -286 0
285 -14 286 0
-285 14 286 0
286 98 -287 0
-286 -98 -287 0
286 -98 287 0
-286 98 287 0
287 102 -288 0
-287 -102 -288 0
287 -102 288 0
-287 102 288 0
288 110 -289 0
-288 -110 -289 0
288 -110 289 0
-288 110 289 0
289 186 -290 0
-289 -186 -290 0
289 -186 290 0
-289 186 290 0
-290 0
12 13 -291 0
-12 -13 -291 0
12 -13 291 0
-12 13 291 0
291 14 -292 0
-291 -14 -292 0
291 -14 292 0
-291 14 292 0
292 15 -293 0
-292 -15 -293 0
292 -15 293 0
-292 15 293 0
293 99 -294 0
-293 -99 -294 0
293 -99 294 0
-293 99 294 0
294 103 -295 0
-294 -103 -295 0
294 -103 295 0
-294 103 295 0
295 111 -296 0
-295 -111 -296 0
295 -111 296 0
-295 111 296 0
296 187 -297 0
-296 -187 -297 0
296 -187 297 0
-296 187 297 0
-297 0
13 14 -298 0
-13 -14 -298 0
13 -14 298 0
-13 14 298 0
298 15 -299 0
-298 -15 -299 0
298 -15 299 0
-298 15 299 0
299 16 -300 0
-299 -16 -300 0
299 -16 300 0
-299 16 300 0
300 100 -301 0
-300 -100 -301 0
300 -100 301 0
-300 100 301 0
301 104 -302 0
-301 -104 -302 0
301 -104 302 0
-301 104 302 0
302 112 -303 0
-302 -112 -303 0
302 -112 303 0
-302 112 303 0
303 188 -304 0
-303 -188 -304 0
303 -188 304 0
-303 188 304 0
-304 0
14 15 -305 0
-14 -15 -305 0
14 -15 305 0
-14 15 305 0
305 16 -306 0
-305 -16 -306 0
305 -16 306 0
-305 16 306 0
306 17 -307 0
-306 -17 -307 0
306 -17 307 0
-306 17 307 0
307 101 -308 0
-307 -101 -308 0
307 -101 308 0
-307 101 308 0
308 105 -309 0
-308 -105 -309 0
308 -105 309 0
-308 105 309 0
309 113 -310 0
-309 -113 -310 0
309 -113 310 0
-309 113 310 0
310 189 -311 0
-310 -189 -311 0
310 -189 311 0
-310 189 311 0
-311 0
15 16 -312 0
-15 -16 -312 0
15 -16 312 0
-15 16 312 0
312 17 -313 0
-312 -17 -313 0
312 -17 313 0
-312 17 313 0
313 18 -314 0
-313 -18 -314 0
313 -18 314 0
-313 18 314 0
314 102 -315 0
-314 -102 -315 0
314 -102 315 0
-314 102 315 0
315 106 -316 0
-315 -106 -316 0
315 -106 316 0
-315 106 316 0
316 114 -317 0
-316 -114 -317 0
316 -114 317 0
-316 114 317 0
317 190 -318 0
-317 -190 -318 0
317 -190 318 0
-317 190 318 0
-318 0
16 17 -319 0
-16 -17 -319 0
16 -17 319 0
-16 17 319 0
319 18 -320 0
-319 -18 -320 0
319 -18 320 0
-319 18 320 0
320 19 -321 0
-320 -19 -321 0
320 -19 321 0
-320 19 321 0
321 103 -322 0
-321 -103 -322 0
321 -103 322 0
-321 103 322 0
322 107 -323 0
-322 -107 -323 0
322 -107 323 0
-322 107 323 0
323 115 -324 0
-323 -115 -324 0
323 -115 324 0
-323 115 324 0
324 191 -325 0
-324 -191 -325 0
324 -191 325 0
-324 191 325 0
-325 0
17 18 -326 0
-17 -18 -326 0
17 -18 326 0
-17 18 326 0
326 19 -327 0
-326 -19 -327 0
326 -19 327 0
-326 19 327 0
327 20 -328 0
-327 -20 -328 0
327 -20 328 0
-327 20 328 0
328 104 -329 0
-328 -104 -329 0
328 -104 329 0
-328 104 329 0
329 108 -330 0
-329 -108 -330 0
329 -108 330 0
-329 108 330 0
330 116 -331 0
-330 -116 -331 0
330 -116 331 0
-330 116 331 0
331 192 -332 0
-331 -192 -332 0
331 -192 332 0
-331 192 332 0
-332 0
18 19 -333 0
-18 -19 -333 0
18 -19 333 0
-18 19 333 0
333 20 -334 0
-333 -20 -334 0
333 -20 334 0
-333 20 334 0
334 21 -335 0
-334 -21 -335 0
334 -21 335 0
-334 21 335 0
335 97 -336 0
-335 -97 -336 0
335 -97 336 0
-335 97 336 0
336 105 -337 0
-336 -105 -337 0
336 -105 337 0
-336 105 337 0
337 109 -338 0
-337 -109 -338 0
337 -109 338 0
-337 109 338 0
338 117 -339 0
-338 -117 -339 0
338 -117 339 0
-338 117 339 0
-339 0
19 20 -340 0
-19 -20 -340 0
19 -20 340 0
-19 20 340 0
340 21 -341 0
-340 -21 -341 0
340 -21 341 0
-340 21 341 0
341 22 -342 0
-341 -22 -342 0
341 -22 342 0
-341 22 342 0
342 98 -343 0
-342 -98 -343 0
342 -98 343 0
-342 98 343 0
343 106 -344 0
-343 -106 -344 0
343 -106 344 0
-343 106 344 0
344 110 -345 0
-344 -110 -345 0
344 -110 345 0
-344 110 345 0
345 118 -346 0
-345 -118 -346 0
345 -118 346 0
-345 118 346 0
-346 0
20 21 -347 0
-20 -21 -347 0
20 -21 347 0
-20 21 347 0
347 22 -348 0
-347 -22 -348 0
347 -22 348 0
-347 22 348 0
348 23 -349 0
-348 -23 -349 0
348 -23 349 0
-348 23 349 0
349 99 -350 0
-349 -99 -350 0
349 -99 350 0
-349 99 350 0
350 107 -351 0
-350 -107 -351 0
350 -107 351 0
-350 107 351 0
351 111 -352 0
-351 -111 -352 0
351 -111 352 0
-351 111 352 0
352 119 -353 0
-352 -119 -353 0
352 -119 353 0
-352 119 353 0
-353 0
21 22 -354 0
-21 -22 -354 0
21 -22 354 0
-21 22 354 0
354 23 -355 0
-354 -23 -355 0
354 -23 355 0
-354 23 355 0
355 24 -356 0
-355 -24 -356 0
355 -24 356 0
-355 24 356 0
356 100 -357 0
-356 -100 -357 0
356 -100 357 0
-356 100 357 0
357 108 -358 0
-357 -108 -358 0
357 -108 358 0
-357 108 358 0
358 112 -359 0
-358 -112 -359 0
358 -112 359 0
-358 112 359 0
359 120 -360 0
-359 -120 -360 0
359 -120 360 0
-359 120 360 0
-360 0
22 23 -361 0
-22 -23 -361 0
22 -23 361 0
-22 23 361 0
361 24 -362 0
-361 -24 -362 0
361 -24 362 0
-361 24 362 0
362 25 -363 0
-362 -25 -363 0
362 -25 363 0
-362 25 363 0
363 101 -364 0
-363 -101 -364 0
363 -101 364 0
-363 101 364 0
364 109 -365 0
-364 -109 -365 0
364 -109 365 0
-364 109 365 0
365 113 -366 0
-365 -113 -366 0
365 -113 366 0
-365 113 366 0
366 121 -367 0
-366 -121 -367 0
366 -121 367 0
-366 121 367 0
-367 0
23 24 -368 0
-23 -24 -368 0
23 -24 368 0
-23 24 368 0
368 25 -369 0
-368 -25 -369 0
368 -25 369 0
-368 25 369 0
369 26 -370 0
-369 -26 -370 0
369 -26 370 0
-369 26 370 0
370 102 -371 0
-370 -102 -371 0
370 -102 371 0
-370 102 371 0
371 110 -372 0
-371 -110 -372 0
371 -110 372 0
-371 110 372 0
372 114 -373 0
-372 -114 -373 0
372 -114 373 0
-372 114 373 0
373 122 -374 0
-373 -122 -374 0
373 -122 374 0
-373 122 374 0
-374 0
24 25 -375 0
-24 -25 -375 0
24 -25 375 0
-24 25 375 0
375 26 -376 0
-375 -26 -376 0
375 -26 376 0
-375 26 376 0
376 27 -377 0
-376 -27 -377 0
376 -27 377 0
-376 27 377 0
377 103 -378 0
-377 -103 -378 0
377 -103 378 0
-377 103 378 0
378 111 -379 0
-378 -111 -379 0
378 -111 379 0
-378 111 379 0
379 115 -380 0
-379 -115 -380 0
379 -115 380 0
-379 115 380 0
380 123 -381 0
-380 -123 -381 0
380 -123 381 0
-380 123 381 0
-381 0
25 26 -382 0
-25 -26 -382 0
25 -26 382 0
-25 26 382 0
382 27 -383 0
-382 -27 -383 0
382 -27 383 0
-382 27 383 0
383 28 -384 0
-383 -28 -384 0
383 -28 384 0
-383 28 384 0
384 104 -385 0
-384 -104 -385 0
384 -104 385 0
-384 104 385 0
385 112 -386 0
-385 -112 -386 0
385 -112 386 0
-385 112 386 0
386 116 -387 0
-386 -116 -387 0
386 -116 387 0
-386 116 387 0
387 124 -388 0
-387 -124 -388 0
387 -124 388 0
-387 124 388 0
-388 0
26 27 -389 0
-26 -27 -389 0
26 -27 389 0
-26 27 389 0
389 28 -390 0
-389 -28 -390 0
389 -28 390 0
-389 28 390 0
390 29 -391 0
-390 -29 -391 0
390 -29 391 0
-390 29 391 0
391 105 -392 0
-391 -105 -392 0
391 -105 392 0
-391 105 392 0
392 113 -393 0
-392 -113 -393 0
392 -113 393 0
-392 113 393 0
393 117 -394 0
-393 -117 -394 0
393 -117 394 0
-393 117 394 0
394 125 -395 0
-394 -125 -395 0
394 -125 395 0
-394 125 395 0
-395 0
27 28 -396 0
-27 -28 -396 0
27 -28 396 0
-27 28 396 0
396 29 -397 0
-396 -29 -397 0
396 -29 397 0
-396 29 397 0
397 30 -398 0
-397 -30 -398 0
397 -30 398 0
-397 30 398 0
398 106 -399 0
-398 -106 -399 0
398 -106 399 0
-398 106 399 0
399 114 -400 0
-399 -114 -400 0
399 -114 400 0
-399 114 400 0
400 118 -401 0
-400 -118 -401 0
400 -118 401 0
-400 118 401 0
401 126 -402 0
-401 -126 -402 0
401 -126 402 0
-401 126 402 0
-402 0
28 29 -403 0
-28 -29 -403 0
28 -29 403 0
-28 29 403 0
403 30 -404 0
-403 -30 -404 0
403 -30 404 0
-403 30 404 0
404 31 -405 0
-404 -31 -405 0
404 -31 405 0
-404 31 405 0
405 107 -406 0
-405 -107 -406 0
405 -107 406 0
-405 107 406 0
406 115 -407 0
-406 -115 -407 0
406 -115 407 0
-406 115 407 0
407 119 -408 0
-407 -119 -408 0
407 -119 408 0
-407 119 408 0
408 127 -409 0
-408 -127 -409 0
408 -127 409 0
-408 127 409 0
-409 0
29 30 -410 0
-29 -30 -410 0
29 -30 410 0
-29 30 410 0
410 31 -411 0
-410 -31 -411 0
410 -31 411 0
-410 31 411 0
411 32 -412 0
-411 -32 -412 0
411 -32 412 0
-411 32 412 0
412 108 -413 0
-412 -108 -413 0
412 -108 413 0
-412 108 413 0
413 116 -414 0
-413 -116 -414 0
413 -116 414 0
-413 116 414 0
414 120 -415 0
-414 -120 -415 0
414 -120 415 0
-414 120 415 0
415 128 -416 0
-415 -128 -416 0
415 -128 416 0
-415 128 416 0
-416 0
30 31 -417 0
-30 -31 -417 0
30 -31 417 0
-30 31 417 0
417 32 -418 0
-417 -32 -418 0
417 -32 418 0
-417 32 418 0
418 33 -419 0
-418 -33 -419 0
418 -33 419 0
-418 33 419 0
419 109 -420 0
-419 -109 -420 0
419 -109 420 0
-419 109 420 0
420 117 -421 0
-420 -117 -421 0
420 -117 421 0
-420 117 421 0
421 121 -422 0
-421 -121 -422 0
421 -121 422 0
-421 121 422 0
422 129 -423 0
-422 -129 -423 0
422 -129 423 0
-422 129 423 0
-423 0
31 32 -424 0
-31 -32 -424 0
31 -32 424 0
-31 32 424 0
424 33 -425 0
-424 -33 -425 0
424 -33 425 0
-424 33 425 0
425 34 -426 0
-425 -34 -426 0
425 -34 426 0
-425 34 426 0
426 110 -427 0
-426 -110 -427 0
426 -110 427 0
-426 110 427 0
427 118 -428 0
-427 -118 -428 0
427 -118 428 0
-427 118 428 0
428 122 -429 0
-428 -122 -429 0
428 -122 429 0
-428 122 429 0
429 130 -430 0
-429 -130 -430 0
429 -130 430 0
-429 130 430 0
-430 0
32 33 -431 0
-32 -33 -431 0
32 -33 431 0
-32 33 431 0
431 34 -432 0
-431 -34 -432 0
431 -34 432 0
-431 34 432 0
432 35 -433 0
-432 -35 -433 0
432 -35 433 0
-432 35 433 0
433 111 -434 0
-433 -111 -434 0
433 -111 434 0
-433 111 434 0
434 119 -435 0
-434 -119 -435 0
434 -119 435 0
-434 119 435 0
435 123 -436 0
-435 -123 -436 0
435 -123 436 0
-435 123 436 0
436 131 -437 0
-436 -131 -437 0
436 -131 437 0
-436 131 437 0
-437 0
33 34 -438 0
-33 -34 -438 0
33 -34 438 0
-33 34 438 0
438 35 -439 0
-438 -35 -439 0
438 -35 439 0
-438 35 439 0
439 36 -440 0
-439 -36 -440 0
439 -36 440 0
-439 36 440 0
440 112 -441 0
-440 -112 -441 0
440 -112 441 0
-440 112 441 0
441 120 -442 0
-441 -120 -442 0
441 -120 442 0
-441 120 442 0
442 124 -443 0
-442 -124 -443 0
442 -124 443 0
-442 124 443 0
443 132 -444 0
-443 -132 -444 0
443 -132 444 0
-443 132 444 0
-444 0
34 35 -445 0
-34 -35 -445 0
34 -35 445 0
-34 35 445 0
445 36 -446 0
-445 -36 -446 0
445 -36 446 0
-445 36 446 0
446 37 -447 0
-446 -37 -447 0
446 -37 447 0
-446 37 447 0
447 113 -448 0
-447 -113 -448 0
447 -113 448 0
-447 113 448 0
448 121 -449 0
-448 -121 -449 0
448 -121 449 0
-448 121 449 0
449 125 -450 0
-449 -125 -450 0
449 -125 450 0
-449 125 450 0
450 133 -451 0
-450 -133 -451 0
450 -133 451 0
-450 133 451 0
-451 0
35 36 -452 0
-35 -36 -452 0
35 -36 452 0
-35 36 452 0
452 37 -453 0
-452 -37 -453 0
452 -37 453 0
-452 37 453 0
453 38 -454 0
-453 -38 -454 0
453 -38 454 0
-453 38 454 0
454 114 -455 0
-454 -114 -455 0
454 -114 455 0
-454 114 455 0
455 122 -456 0
-455 -122 -456 0
455 -122 456 0
-455 122 456 0
456 126 -457 0
-456 -126 -457 0
456 -126 457 0
-456 126 457 0
457 134 -458 0
-457 -134 -458 0
457 -134 458 0
-457 134 458 0
-458 0
36 37 -459 0
-36 -37 -459 0
36 -37 459 0
-36 37 459 0
459 38 -460 0
-459 -38 -460 0
459 -38 460 0
-459 38 460 0
460 39 -461 0
-460 -39 -461 0
460 -39 461 0
-460 39 461 0
461 115 -462 0
-461 -115 -462 0
461 -115 462 0
-461 115 462 0
462 123 -463 0
-462 -123 -463 0
462 -123 463 0
-462 123 463 0
463 127 -464 0
-463 -127 -464 0
463 -127 464 0
-463 127 464 0
464 135 -465 0
-464 -135 -465 0
464 -135 465 0
-464 135 465 0
-465 0
37 38 -466 0
-37 -38 -466 0
37 -38 466 0
-37 38 466 0
466 39 -467 0
-466 -39 -467 0
466 -39 467 0
-466 39 467 0
467 40 -468 0
-467 -40 -468 0
467 -40 468 0
-467 40 468 0
468 116 -469 0
-468 -116 -469 0
468 -116 469 0
-468 116 469 0
469 124 -470 0
-469 -124 -470 0
469 -124 470 0
-469 124 470 0
470 128 -471 0
-470 -128 -471 0
470 -128 471 0
-470 128 471 0
471 136 -472 0
-471 -136 -472 0
471 -136 472 0
-471 136 472 0
-472 0
38 39 -473 0
-38 -39 -473 0
38 -39 473 0
-38 39 473 0
473 40 -474 0
-473 -40 -474 0
473 -40 474 0
-473 40 474 0
474 41 -475 0
-474 -41 -475 0
474 -41 475 0
-474 41 475 0
475 117 -476 0
-475 -117 -476 0
475 -117 476 0
-475 117 476 0
476 125 -477 0
-476 -125 -477 0
476 -125 477 0
-476 125 477 0
477 129 -478 0
-477 -129 -478 0
477 -129 478 0
-477 129 478 0
478 137 -479 0
-478 -137 -479 0
478 -137 479 0
-478 137 479 0
-479 0
39 40 -480 0
-39 -40 -480 0
39 -40 480 0
-39 40 480 0
480 41 -481 0
-480 -41 -481 0
480 -41 481 0
-480 41 481 0
481 42 -482 0
-481 -42 -482 0
481 -42 482 0
-481 42 482 0
482 118 -483 0
-482 -118 -483 0
482 -118 483 0
-482 118 483 0
483 126 -484 0
-483 -126 -484 0
483 -126 484 0
-483 126 484 0
484 130 -485 0
-484 -130 -485 0
484 -130 485 0
-484 130 485 0
485 138 -486 0
-485 -138 -486 0
485 -138 486 0
-485 138 486 0
-486 0
40 41 -487 0
-40 -41 -487 0
40 -41 487 0
-40 41 487 0
487 42 -488 0
-487 -42 -488 0
487 -42 488 0
-487 42 488 0
488 43 -489 0
-488 -43 -489 0
488 -43 489 0
-488 43 489 0
489 119 -490 0
-489 -119 -490 0
489 -119 490 0
-489 119 490 0
490 127 -491 0
-490 -127 -491 0
490 -127 491 0
-490 127 491 0
491 131 -492 0
-491 -131 -492 0
491 -131 492 0
-491 131 492 0
492 139 -493 0
-492 -139 -493 0
492 -139 493 0
-492 139 493 0
-493 0
41 42 -494 0
-41 -42 -494 0
41 -42 494 0
-41 42 494 0
494 43 -495 0
-494 -43 -495 0
494 -43 495 0
-494 43 495 0
495 44 -496 0
-495 -44 -496 0
495 -44 496 0
-495 44 496 0
496 120 -497 0
-496 -120 -497 0
496 -120 497 0
-496 120 497 0
497 128 -498 0
-497 -128 -498 0
497 -128 498 0
-497 128 498 0
498 132 -499 0
-498 -132 -499 0
498 -132 499 0
-498 132 499 0
499 140 -500 0
-499 -140 -500 0
499 -140 500 0
-499 140 500 0
-500 0
42 43 -501 0
-42 -43 -501 0
42 -43 501 0
-42 43 501 0
501 44 -502 0
-501 -44 -502 0
501 -44 502 0
-501 44 502 0
502 45 -503 0
-502 -45 -503 0
502 -45 503 0
-502 45 503 0
503 121 -504 0
-503 -121 -504 0
503 -121 504 0
-503 121 504 0
504 129 -505 0
-504 -129 -505 0
504 -129 505 0
-504 129 505 0
505 133 -506 0
-505 -133 -506 0
505 -133 506 0
-505 133 506 0
506 141 -507 0
-506 -141 -507 0
506 -141 507 0
-506 141 507 0
-507 0
43 44 -508 0
-43 -44 -508 0
43 -44 508 0
-43 44 508 0
508 45 -509 0
-508 -45 -509 0
508 -45 509 0
-508 45 509 0
509 46 -510 0
-509 -46 -510 0
509 -46 510 0
-509 46 510 0
510 122 -511 0
-510 -122 -511 0
510 -122 511 0
-510 122 511 0
511 130 -512 0
-511 -130 -512 0
511 -130 512 0
-511 130 512 0
512 134 -513 0
-512 -134 -513 0
512 -134 513 0
-512 134 513 0
513 142 -514 0
-513 -142 -514 0
513 -142 514 0
-513 142 514 0
-514 0
44 45 -515 0
-44 -45 -515 0
44 -45 515 0
-44 45 515 0
515 46 -516 0
-515 -46 -516 0
515 -46 516 0
-515 46 516 0
516 47 -517 0
-516 -47 -517 0
516 -47 517 0
-516 47 517 0
517 123 -518 0
-517 -123 -518 0
517 -123 518 0
-517 123 518 0
518 131 -519 0
-518 -131 -519 0
518 -131 519 0
-518 131 519 0
519 135 -520 0
-519 -135 -520 0
519 -135 520 0
-519 135 520 0
520 143 -521 0
-520 -143 -521 0
520 -143 521 0
-520 143 521 0
-521 0
45 46 -522 0
-45 -46 -522 0
45 -46 522 0
-45 46 522 0
522 47 -523 0
-522 -47 -523 0
522 -47 523 0
-522 47 523 0
523 48 -524 0
-523 -48 -524 0
523 -48 524 0
-523 48 524 0
524 124 -525 0
-524 -124 -525 0
524 -124 525 0
-524 124 525 0
525 132 -526 0
-525 -132 -526 0
525 -132 526 0
-525 132 526 0
526 136 -527 0
-526 -136 -527 0
526 -136 527 0
-526 136 527 0
527 144 -528 0
-527 -144 -528 0
527 -144 528 0
-527 144 528 0
-528 0
46 47 -529 0
-46 -47 -529 0
46 -47 529 0
-46 47 529 0
529 48 -530 0
-529 -48 -530 0
529 -48 530 0
-529 48 530 0
530 49 -531 0
-530 -49 -531 0
530 -49 531 0
-530 49 531 0
531 125 -532 0
-531 -125 -532 0
531 -125 532 0
-531 125 532 0
532 133 -533 0
-532 -133 -533 0
532 -133 533 0
-532 133 533 0
533 137 -534 0
-533 -137 -534 0
533 -137 534 0
-533 137 534 0
534 145 -535 0
-534 -145 -535 0
534 -145 535 0
-534 145 535 0
-535 0
47 48 -536 0
-47 -48 -536 0
47 -48 536 0
-47 48 536 0
536 49 -537 0
-536 -49 -537 0
536 -49 537 0
-536 49 537 0
537 50 -538 0
-537 -50 -538 0
537 -50 538 0
-537 50 538 0
538 126 -539 0
-538 -126 -539 0
538 -126 539 0
-538 126 539 0
539 134 -540 0
-539 -134 -540 0
539 -134 540 0
-539 134 540 0
540 138 -541 0
-540 -138 -541 0
540 -138 541 0
-540 138 541 0
541 146 -542 0
-541 -146 -542 0
541 -146 542 0
-541 146 542 0
-542 0
48 49 -543 0
-48 -49 -543 0
48 -49 543 0
-48 49 543 0
543 50 -544 0
-543 -50 -544 0
543 -50 544 0
-543 50 544 0
544 51 -545 0
-544 -51 -545 0
544 -51 545 0
-544 51 545 0
545 127 -546 0
-545 -127 -546 0
545 -127 546 0
-545 127 546 0
546 135 -547 0
-546 -135 -547 0
546 -135 547 0
-546 135 547 0
547 139 -548 0
-547 -139 -548 0
547 -139 548 0
-547 139 548 0
548 147 -549 0
-548 -147 -549 0
548 -147 549 0
-548 147 549 0
-549 0
49 50 -550 0
-49 -50 -550 0
49 -50 550 0
-49 50 550 0
550 51 -551 0
-550 -51 -551 0
550 -51 551 0
-550 51 551 0
551 52 -552 0
-551 -52 -552 0
551 -52 552 0
-551 52 552 0
552 128 -553 0
-552 -128 -553 0
552 -128 553 0
-552 128 553 0
553 136 -554 0
-553 -136 -554 0
553 -136 554 0
-553 136 554 0
554 140 -555 0
-554 -140 -555 0
554 -140 555 0
-554 140 555 0
555 148 -556 0
-555 -148 -556 0
555 -148 556 0
-555 148 556 0
-556 0
50 51 -557 0
-50 -51 -557 0
50 -51 557 0
-50 51 557 0
557 52 -558 0
-557 -52 -558 0
557 -52 558 0
-557 52 558 0
558 53 -559 0
-558 -53 -559 0
558 -53 559 0
-558 53 559 0
559 129 -560 0
-559 -129 -560 0
559 -129 560 0
-559 129 560 0
560 137 -561 0
-560 -137 -561 0
560 -137 561 0
-560 137 561 0
561 141 -562 0
-561 -141 -562 0
561 -141 562 0
-561 141 562 0
562 149 -563 0
-562 -149 -563 0
562 -149 563 0
-562 149 563 0
-563 0
51 52 -564 0
-51 -52 -564 0
51 -52 564 0
-51 52 564 0
564 53 -565 0
-564 -53 -565 0
564 -53 565 0
-564 53 565 0
565 54 -566 0
-565 -54 -566 0
565 -54 566 0
-565 54 566 0
566 130 -567 0
-566 -130 -567 0
566 -130 567 0
-566 130 567 0
567 138 -568 0
-567 -138 -568 0
567 -138 568 0
-567 138 568 0
568 142 -569 0
-568 -142 -569 0
568 -142 569 0
-568 142 569 0
569 150 -570 0
-569 -150 -570 0
569 -150 570 0
-569 150 570 0
-570 0
52 53 -571 0
-52 -53 -571 0
52 -53 571 0
-52 53 571 0
571 54 -572 0
-571 -54 -572 0
571 -54 572 0
-571 54 572 0
572 55 -573 0
-572 -55 -573 0
572 -55 573 0
-572 55 573 0
573 131 -574 0
-573 -131 -574 0
573 -131 574 0
-573 131 574 0
574 139 -575 0
-574 -139 -575 0
574 -139 575 0
-574 139 575 0
575 143 -576 0
-575 -143 -576 0
575 -143 576 0
-575 143 576 0
576 151 -577 0
-576 -151 -577 0
576 -151 577 0
-576 151 577 0
-577 0
53 54 -578 0
-53 -54 -578 0
53 -54 578 0
-53 54 578 0
578 55 -579 0
-578 -55 -579 0
578 -55 579 0
-578 55 579 0
579 56 -580 0
-579 -56 -580 0
579 -56 580 0
-579 56 580 0
580 132 -581 0
-580 -132 -581 0
580 -132 581 0
-580 132 581 0
581 140 -582 0
-581 -140 -582 0
581 -140 582 0
-581 140 582 0
582 144 -583 0
-582 -144 -583 0
582 -144 583 0
-582 144 583 0
583 152 -584 0
-583 -152 -584 0
583 -152 584 0
-583 152 584 0
-584 0
54 55 -585 0
-54 -55 -585 0
54 -55 585 0
-54 55 585 0
585 56 -586 0
-585 -56 -586 0
585 -56 586 0
-585 56 586 0
586 57 -587 0
-586 -57 -587 0
586 -57 587 0
-586 57 587 0
587 133 -588 0
-587 -133 -588 0
587 -133 588 0
-587 133 588 0
588 141 -589 0
-588 -141 -589 0
588 -141 589 0
-588 141 589 0
589 145 -590 0
-589 -145 -590 0
589 -145 590 0
-589 145 590 0
590 153 -591 0
-590 -153 -591 0
590 -153 591 0
-590 153 591 0
-591 0
55 56 -592 0
-55 -56 -592 0
55 -56 592 0
-55 56 592 0
592 57 -593 0
-592 -57 -593 0
592 -57 593 0
-592 57 593 0
593 58 -594 0
-593 -58 -594 0
593 -58 594 0
-593 58 594 0
594 134 -595 0
-594 -134 -595 0
594 -134 595 0
-594 134 595 0
595 142 -596 0
-595 -142 -596 0
595 -142 596 0
-595 142 596 0
596 146 -597 0
-596 -146 -597 0
596 -146 597 0
-596 146 597 0
597 154 -598 0
-597 -154 -598 0
597 -154 598 0
-597 154 598 0
-598 0
56 57 -599 0
-56 -57 -599 0
56 -57 599 0
-56 57 599 0
599 58 -600 0
-599 -58 -600 0
599 -58 600 0
-599 58 600 0
600 59 -601 0
-600 -59 -601 0
600 -59 601 0
-600 59 601 0
601 135 -602 0
-601 -135 -602 0
601 -135 602 0
-601 135 602 0
602 143 -603 0
-602 -143 -603 0
602 -143 603 0
-602 143 603 0
603 147 -604 0
-603 -147 -604 0
603 -147 604 0
-603 147 604 0
604 155 -605 0
-604 -155 -605 0
604 -155 605 0
-604 155 605 0
-605 0
57 58 -606 0
-57 -58 -606 0
57 -58 606 0
-57 58 606 0
606 59 -607 0
-606 -59 -607 0
606 -59 607 0
-606 59 607 0
607 60 -608 0
-607 -60 -608 0
607 -60 608 0
-607 60 608 0
608 136 -609 0
-608 -136 -609 0
608 -136 609 0
-608 136 609 0
609 144 -610 0
-609 -144 -610 0
609 -144 610 0
-609 144 610 0
610 148 -611 0
-610 -148 -611 0
610 -148 611 0
-610 148 611 0
611 156 -612 0
-611 -156 -612 0
611 -156 612 0
-611 156 612 0
-612 0
58 59 -613 0
-58 -59 -613 0
58 -59 613 0
-58 59 613 0
613 60 -614 0
-613 -60 -614 0
613 -60 614 0
-613 60 614 0
614 61 -615 0
-614 -61 -615 0
614 -61 615 0
-614 61 615 0
615 137 -616 0
-615 -137 -616 0
615 -137 616 0
-615 137 616 0
616 145 -617 0
-616 -145 -617 0
616 -145 617 0
-616 145 617 0
617 149 -618 0
-617 -149 -618 0
617 -149 618 0
-617 149 618 0
618 157 -619 0
-618 -157 -619 0
618 -157 619 0
-618 157 619 0
-619 0
59 60 -620 0
-59 -60 -620 0
59 -60 620 0
-59 60 620 0
620 61 -621 0
-620 -61 -621 0
620 -61 621 0
-620 61 621 0
621 62 -622 0
-621 -62 -622 0
621 -62 622 0
-621 62 622 0
622 138 -623 0
-622 -138 -623 0
622 -138 623 0
-622 138 623 0
623 146 -624 0
-623 -146 -624 0
623 -146 624 0
-623 146 624 0
624 150 -625 0
-624 -150 -625 0
624 -150 625 0
-624 150 625 0
625 158 -626 0
-625 -158 -626 0
625 -158 626 0
-625 158 626 0
-626 0
60 61 -627 0
-60 -61 -627 0
60 -61 627 0
-60 61 627 0
627 62 -628 0
-627 -62 -628 0
627 -62 628 0
-627 62 628 0
628 63 -629 0
-628 -63 -629 0
628 -63 629 0
-628 63 629 0
629 139 -630 0
-629 -139 -630 0
629 -139 630 0
-629 139 630 0
630 147 -631 0
-630 -147 -631 0
630 -147 631 0
-630 147 631 0
631 151 -632 0
-631 -151 -632 0
631 -151 632 0
-631 151 632 0
632 159 -633 0
-632 -159 -633 0
632 -159 633 0
-632 159 633 0
-633 0
61 62 -634 0
-61 -62 -634 0
61 -62 634 0
-61 62 634 0
634 63 -635 0
-634 -63 -635 0
634 -63 635 0
-634 63 635 0
635 64 -636 0
-635 -64 -636 0
635 -64 636 0
-635 64 636 0
636 140 -637 0
-636 -140 -637 0
636 -140 637 0
-636 140 637 0
637 148 -638 0
-637 -148 -638 0
637 -148 638 0
-637 148 638 0
638 152 -639 0
-638 -152 -639 0
638 -152 639 0
-638 152 639 0
639 160 -640 0
-639 -160 -640 0
639 -160 640 0
-639 160 640 0
-640 0
62 63 -641 0
-62 -63 -641 0
62 -63 641 0
-62 63 641 0
641 64 -642 0
-641 -64 -642 0
641 -64 642 0
-641 64 642 0
642 65 -643 0
-642 -65 -643 0
642 -65 643 0
-642 65 643 0
643 141 -644 0
-643 -141 -644 0
643 -141 644 0
-643 141 644 0
644 149 -645 0
-644 -149 -645 0
644 -149 645 0
-644 149 645 0
645 153 -646 0
-645 -153 -646 0
645 -153 646 0
-645 153 646 0
646 161 -647 0
-646 -161 -647 0
646 -161 647 0
-646 161 647 0
-647 0
63 64 -648 0
-63 -64 -648 0
63 -64 648 0
-63 64 648 0
648 65 -649 0
-648 -65 -649 0
648 -65 649 0
-648 65 649 0
649 66 -650 0
-649 -66 -650 0
649 -66 650 0
-649 66 650 0
650 142 -651 0
-650 -142 -651 0
650 -142 651 0
-650 142 651 0
651 150 -652 0
-651 -150 -652 0
651 -150 652 0
-651 150 652 0
652 154 -653 0
-652 -154 -653 0
652 -154 653 0
-652 154 653 0
653 162 -654 0
-653 -162 -654 0
653 -162 654 0
-653 162 654 0
-654 0
64 65 -655 0
-64 -65 -655 0
64 -65 655 0
-64 65 655 0
655 66 -656 0
-655 -66 -656 0
655 -66 656 0
-655 66 656 0
656 67 -657 0
-656 -67 -657 0
656 -67 657 0
-656 67 657 0
657 143 -658 0
-657 -143 -658 0
657 -143 658 0
-657 143 658 0
658 151 -659 0
-658 -151 -659 0
658 -151 659 0
-658 151 659 0
659 155 -660 0
-659 -155 -660 0
659 -155 660 0
-659 155 660 0
660 163 -661 0
-660 -163 -661 0
660 -163 661 0
-660 163 661 0
-661 0
65 66 -662 0
-65 -66 -662 0
65 -66 662 0
-65 66 662 0
662 67 -663 0
-662 -67 -663 0
662 -67 663 0
-662 67 663 0
663 68 -664 0
-663 -68 -664 0
663 -68 664 0
-663 68 664 0
664 144 -665 0
-664 -144 -665 0
664 -144 665 0
-664 144 665 0
665 152 -666 0
-665 -152 -666 0
665 -152 666 0
-665 152 666 0
666 156 -667 0
-666 -156 -667 0
666 -156 667 0
-666 156 667 0
667 164 -668 0
-667 -164 -668 0
667 -164 668 0
-667 164 668 0
-668 0
66 67 -669 0
-66 -67 -669 0
66 -67 669 0
-66 67 669 0
669 68 -670 0
-669 -68 -670 0
669 -68 670 0
-669 68 670 0
670 69 -671 0
-670 -69 -671 0
670 -69 671 0
-670 69 671 0
671 145 -672 0
-671 -145 -672 0
671 -145 672 0
-671 145 672 0
672 153 -673 0
-672 -153 -673 0
672 -153 673 0
-672 153 673 0
673 157 -674 0
-673 -157 -674 0
673 -157 674 0
-673 157 674 0
674 165 -675 0
-674 -165 -675 0
674 -165 675 0
-674 165 675 0
-675 0
67 68 -676 0
-67 -68 -676 0
67 -68 676 0
-67 68 676 0
676 69 -677 0
-676 -69 -677 0
676 -69 677 0
-676 69 677 0
677 70 -678 0
-677 -70 -678 0
677 -70 678 0
-677 70 678 0
678 146 -679 0
-678 -146 -679 0
678 -146 679 0
-678 146 679 0
679 154 -680 0
-679 -154 -680 0
679 -154 680 0
-679 154 680 0
680 158 -681 0
-680 -158 -681 0
680 -158 681 0
-680 158 681 0
681 166 -682 0
-681 -166 -682 0
681 -166 682 0
-681 166 682 0
-682 0
68 69 -683 0
-68 -69 -683 0
68 -69 683 0
-68 69 683 0
683 70 -684 0
-683 -70 -684 0
683 -70 684 0
-683 70 684 0
684 71 -685 0
-684 -71 -685 0
684 -71 685 0
-684 71 685 0
685 147 -686 0
-685 -147 -686 0
685 -147 686 0
-685 147 686 0
686 155 -687 0
-686 -155 -687 0
686 -155 687 0
-686 155 687 0
687 159 -688 0
-687 -159 -688 0
687 -159 688 0
-687 159 688 0
688 167 -689 0
-688 -167 -689 0
688 -167 689 0
-688 167 689 0
-689 0
69 70 -690 0
-69 -70 -690 0
69 -70 690 0
-69 70 690 0
690 71 -691 0
-690 -71 -691 0
690 -71 691 0
-690 71 691 0
691 72 -692 0
-691 -72 -692 0
691 -72 692 0
-691 72 692 0
692 148 -693 0
-692 -148 -693 0
692 -148 693 0
-692 148 693 0
693 156 -694 0
-693 -156 -694 0
693 -156 694 0
-693 156 694 0
694 160 -695 0
-694 -160 -695 0
694 -160 695 0
-694 160 695 0
695 168 -696 0
-695 -168 -696 0
695 -168 696 0
-695 168 696 0
-696 0
70 71 -697 0
-70 -71 -697 0
70 -71 697 0
-70 71 697 0
697 72 -698 0
-697 -72 -698 0
697 -72 698 0
-697 72 698 0
698 73 -699 0
-698 -73 -699 0
698 -73 699 0
-698 73 699 0
699 149 -700 0
-699 -149 -700 0
699 -149 700 0
-699 149 700 0
700 157 -701 0
-700 -157 -701 0
700 -157 701 0
-700 157 701 0
701 161 -702 0
-701 -161 -702 0
701 -161 702 0
-701 161 702 0
702 169 -703 0
-702 -169 -703 0
702 -169 703 0
-702 169 703 0
-703 0
71 72 -704 0
-71 -72 -704 0
71 -72 704 0
-71 72 704 0
704 73 -705 0
-704 -73 -705 0
704 -73 705 0
-704 73 705 0
705 74 -706 0
-705 -74 -706 0
705 -74 706 0
-705 74 706 0
706 150 -707 0
-706 -150 -707 0
706 -150 707 0
-706 150 707 0
707 158 -708 0
-707 -158 -708 0
707 -158 708 0
-707 158 708 0
708 162 -709 0
-708 -162 -709 0
708 -162 709 0
-708 162 709 0
709 170 -710 0
-709 -170 -710 0
709 -170 710 0
-709 170 710 0
-710 0
72 73 -711 0
-72 -73 -711 0
72 -73 711 0
-72 73 711 0
711 74 -712 0
-711 -74 -712 0
711 -74 712 0
-711 74 712 0
712 75 -713 0
-712 -75 -713 0
712 -75 713 0
-712 75 713 0
713 151 -714 0
-713 -151 -714 0
713 -151 714 0
-713 151 714 0
714 159 -715 0
-714 -159 -715 0
714 -159 715 0
-714 159 715 0
715 163 -716 0
-715 -163 -716 0
715 -163 716 0
-715 163 716 0
716 171 -717 0
-716 -171 -717 0
716 -171 717 0
-716 171 717 0
-717 0
73 74 -718 0
-73 -74 -718 0
73 -74 718 0
-73 74 718 0
718 75 -719 0
-718 -75 -719 0
718 -75 719 0
-718 75 719 0
719 76 -720 0
-719 -76 -720 0
719 -76 720 0
-719 76 720 0
720 152 -721 0
-720 -152 -721 0
720 -152 721 0
-720 152 721 0
721 160 -722 0
-721 -160 -722 0
721 -160 722 0
-721 160 722 0
722 164 -723 0
-722 -164 -723 0
722 -164 723 0
-722 164 723 0
723 172 -724 0
-723 -172 -724 0
723 -172 724 0
-723 172 724 0
-724 0
74 75 -725 0
-74 -75 -725 0
74 -75 725 0
-74 75 725 0
725 76 -726 0
-725 -76 -726 0
725 -76 726 0
-725 76 726 0
726 77 -727 0
-726 -77 -727 0
726 -77 727 0
-726 77 727 0
727 153 -728 0
-727 -153 -728 0
727 -153 728 0
-727 153 728 0
728 161 -729 0
-728 -161 -729 0
728 -161 729 0
-728 161 729 0
729 165 -730 0
-729 -165 -730 0
729 -165 730 0
-729 165 730 0
730 173 -731 0
-730 -173 -731 0
730 -173 731 0
-730 173 731 0
-731 0
75 76 -732 0
-75 -76 -732 0
75 -76 732 0
-75 76 732 0
732 77 -733 0
-732 -77 -733 0
732 -77 733 0
-732 77 733 0
733 78 -734 0
-733 -78 -734 0
733 -78 734 0
-733 78 734 0
734 154 -735 0
-734 -154 -735 0
734 -154 735 0
-734 154 735 0
735 162 -736 0
-735 -162 -736 0
735 -162 736 0
-735 162 736 0
736 166 -737 0
-736 -166 -737 0
736 -166 737 0
-736 166 737 0
737 174 -738 0
-737 -174 -738 0
737 -174 738 0
-737 174 738 0
-738 0
76 77 -739 0
-76 -77 -739 0
76 -77 739 0
-76 77 739 0
739 78 -740 0
-739 -78 -740 0
739 -78 740 0
-739 78 740 0
740 79 -741 0
-740 -79 -741 0
740 -79 741 0
-740 79 741 0
741 155 -742 0
-741 -155 -742 0
741 -155 742 0
-741 155 742 0
742 163 -743 0
-742 -163 -743 0
742 -163 743 0
-742 163 743 0
743 167 -744 0
-743 -167 -744 0
743 -167 744 0
-743 167 744 0
744 175 -745 0
-744 -175 -745 0
744 -175 745 0
-744 175 745 0
-745 0
77 78 -746 0
-77 -78 -746 0
77 -78 746 0
-77 78 746 0
746 79 -747 0
-746 -79 -747 0
746 -79 747 0
-746 79 747 0
747 80 -748 0
-747 -80 -748 0
747 -80 748 0
-747 80 748 0
748 156 -749 0
-748 -156 -749 0
748 -156 749 0
-748 156 749 0
749 164 -750 0
-749 -164 -750 0
749 -164 750 0
-749 164 750 0
750 168 -751 0
-750 -168 -751 0
750 -168 751 0
-750 168 751 0
751 176 -752 0
-751 -176 -752 0
751 -176 752 0
-751 176 752 0
-752 0
78 79 -753 0
-78 -79 -753 0
78 -79 753 0
-78 79 753 0
753 80 -754 0
-753 -80 -754 0
753 -80 754 0
-753 80 754 0
754 81 -755 0
-754 -81 -755 0
754 -81 755 0
-754 81 755 0
755 157 -756 0
-755 -157 -756 0
755 -157 756 0
-755 157 756 0
756 165 -757 0
-756 -165 -757 0
756 -165 757 0
-756 165 757 0
757 169 -758 0
-757 -169 -758 0
757 -169 758 0
-757 169 758 0
758 177 -759 0
-758 -177 -759 0
758 -177 759 0
-758 177 759 0
-759 0
79 80 -760 0
-79 -80 -760 0
79 -80 760 0
-79 80 760 0
760 81 -761 0
-760 -81 -761 0
760 -81 761 0
-760 81 761 0
761 82 -762 0
-761 -82 -762 0
761 -82 762 0
-761 82 762 0
762 158 -763 0
-762 -158 -763 0
762 -158 763 0
-762 158 763 0
763 166 -764 0
-763 -166 -764 0
763 -166 764 0
-763 166 764 0
764 170 -765 0
-764 -170 -765 0
764 -170 765 0
-764 170 765 0
765 178 -766 0
-765 -178 -766 0
765 -178 766 0
-765 178 766 0
-766 0
80 81 -767 0
-80 -81 -767 0
80 -81 767 0
-80 81 767 0
767 82 -768 0
-767 -82 -768 0
767 -82 768 0
-767 82 768 0
768 83 -769 0
-768 -83 -769 0
768 -83 769 0
-768 83 769 0
769 159 -770 0
-769 -159 -770 0
769 -159 770 0
-769 159 770 0
770 167 -771 0
-770 -167 -771 0
770 -167 771 0
-770 167 771 0
771 171 -772 0
-771 -171 -772 0
771 -171 772 0
-771 171 772 0
772 179 -773 0
-772 -179 -773 0
772 -179 773 0
-772 179 773 0
-773 0
81 82 -774 0
-81 -82 -774 0
81 -82 774 0
-81 82 774 0
774 83 -775 0
-774 -83 -775 0
774 -83 775 0
-774 83 775 0
775 84 -776 0
-775 -84 -776 0
775 -84 776 0
-775 84 776 0
776 160 -777 0
-776 -160 -777 0
776 -160 777 0
-776 160 777 0
777 168 -778 0
-777 -168 -778 0
777 -168 778 0
-777 168 778 0
778 172 -779 0
-778 -172 -779 0
778 -172 779 0
-778 172 779 0
779 180 -780 0
-779 -180 -780 0
779 -180 780 0
-779 180 780 0
-780 0
82 83 -781 0
-82 -83 -781 0
82 -83 781 0
-82 83 781 0
781 84 -782 0
-781 -84 -782 0
781 -84 782 0
-781 84 782 0
782 85 -783 0
-782 -85 -783 0
782 -85 783 0
-782 85 783 0
783 161 -784 0
-783 -161 -784 0
783 -161 784 0
-783 161 784 0
784 169 -785 0
-784 -169 -785 0
784 -169 785 0
-784 169 785 0
785 173 -786 0
-785 -173 -786 0
785 -173 786 0
-785 173 786 0
786 181 -787 0
-786 -181 -787 0
786 -181 787 0
-786 181 787 0
-787 0
83 84 -788 0
-83 -84 -788 0
83 -84 788 0
-83 84 788 0
788 85 -789 0
-788 -85 -789 0
788 -85 789 0
-788 85 789 0
789 86 -790 0
-789 -86 -790 0
789 -86 790 0
-789 86 790 0
790 162 -791 0
-790 -162 -791 0
790 -162 791 0
-790 162 791 0
791 170 -792 0
-791 -170 -792 0
791 -170 792 0
-791 170 792 0
792 174 -793 0
-792 -174 -793 0
792 -174 793 0
-792 174 793 0
793 182 -794 0
-793 -182 -794 0
793 -182 794 0
-793 182 794 0
-794 0
84 85 -795 0
-84 -85 -795 0
84 -85 795 0
-84 85 795 0
795 86 -796 0
-795 -86 -796 0
795 -86 796 0
-795 86 796 0
796 87 -797 0
-796 -87 -797 0
796 -87 797 0
-796 87 797 0
797 163 -798 0
-797 -163 -798 0
797 -163 798 0
-797 163 798 0
798 171 -799 0
-798 -171 -799 0
798 -171 799 0
-798 171 799 0
799 175 -800 0
-799 -175 -800 0
799 -175 800 0
-799 175 800 0
800 183 -801 0
-800 -183 -801 0
800 -183 801 0
-800 183 801 0
-801 0
85 86 -802 0
-85 -86 -802 0
85 -86 802 0
-85 86 802 0
802 87 -803 0
-802 -87 -803 0
802 -87 803 0
-802 87 803 0
803 88 -804 0
-803 -88 -804 0
803 -88 804 0
-803 88 804 0
804 164 -805 0
-804 -164 -805 0
804 -164 805 0
-804 164 805 0
805 172 -806 0
-805 -172 -806 0
805 -172 806 0
-805 172 806 0
806 176 -807 0
-806 -176 -807 0
806 -176 807 0
-806 176 807 0
807 184 -808 0
-807 -184 -808 0
807 -184 808 0
-807 184 808 0
-808 0
86 87 -809 0
-86 -87 -809 0
86 -87 809 0
-86 87 809 0
809 88 -810 0
-809 -88 -810 0
809 -88 810 0
-809 88 810 0
810 89 -811 0
-810 -89 -811 0
810 -89 811 0
-810 89 811 0
811 165 -812 0
-811 -165 -812 0
811 -165 812 0
-811 165 812 0
812 173 -813 0
-812 -173 -813 0
812 -173 813 0
-812 173 813 0
813 177 -814 0
-813 -177 -814 0
813 -177 814 0
-813 177 814 0
814 185 -815 0
-814 -185 -815 0
814 -185 815 0
-814 185 815 0
-815 0
87 88 -816 0
-87 -88 -816 0
87 -88 816 0
-87 88 816 0
816 89 -817 0
-816 -89 -817 0
816 -89 817 0
-816 89 817 0
817 90 -818 0
-817 -90 -818 0
817 -90 818 0
-817 90 818 0
818 166 -819 0
-818 -166 -819 0
818 -166 819 0
-818 166 819 0
819 174 -820 0
-819 -174 -820 0
819 -174 820 0
-819 174 820 0
820 178 -821 0
-820 -178 -821 0
820 -178 821 0
-820 178 821 0
821 186 -822 0
-821 -186 -822 0
821 -186 822 0
-821 186 822 0
-822 0
88 89 -823 0
-88 -89 -823 0
88 -89 823 0
-88 89 823 0
823 90 -824 0
-823 -90 -824 0
823 -90 824 0
-823 90 824 0
824 91 -825 0
-824 -91 -825 0
824 -91 825 0
-824 91 825 0
825 167 -826 0
-825 -167 -826 0
825 -167 826 0
-825 167 826 0
826 175 -827 0
-826 -175 -827 0
826 -175 827 0
-826 175 827 0
827 179 -828 0
-827 -179 -828 0
827 -179 828 0
-827 179 828 0
828 187 -829 0
-828 -187 -829 0
828 -187 829 0
-828 187 829 0
-829 0
89 90 -830 0
-89 -90 -830 0
89 -90 830 0
-89 90 830 0
830 91 -831 0
-830 -91 -831 0
830 -91 831 0
-830 91 831 0
831 92 -832 0
-831 -92 -832 0
831 -92 832 0
-831 92 832 0
832 168 -833 0
-832 -168 -833 0
832 -168 833 0
-832 168 833 0
833 176 -834 0
-833 -176 -834 0
833 -176 834 0
-833 176 834 0
834 180 -835 0
-834 -180 -835 0
834 -180 835 0
-834 180 835 0
835 188 -836 0
-835 -188 -836 0
835 -188 836 0
-835 188 836 0
-836 0
90 91 -837 0
-90 -91 -837 0
90 -91 837 0
-90 91 837 0
837 92 -838 0
-837 -92 -838 0
837 -92 838 0
-837 92 838 0
838 93 -839 0
-838 -93 -839 0
838 -93 839 0
-838 93 839 0
839 169 -840 0
-839 -169 -840 0
839 -169 840 0
-839 169 840 0
840 177 -841 0
-840 -177 -841 0
840 -177 841 0
-840 177 841 0
841 181 -842 0
-841 -181 -842 0
841 -181 842 0
-841 181 842 0
842 189 -843 0
-842 -189 -843 0
842 -189 843 0
-842 189 843 0
-843 0
91 92 -844 0
-91 -92 -844 0
91 -92 844 0
-91 92 844 0
844 93 -845 0
-844 -93 -845 0
844 -93 845 0
-844 93 845 0
845 94 -846 0
-845 -94 -846 0
845 -94 846 0
-845 94 846 0
846 170 -847 0
-846 -170 -847 0
846 -170 847 0
-846 170 847 0
847 178 -848 0
-847 -178 -848 0
847 -178 848 0
-847 178 848 0
848 182 -849 0
-848 -182 -849 0
848 -182 849 0
-848 182 849 0
849 190 -850 0
-849 -190 -850 0
849 -190 850 0
-849 190 850 0
-850 0
92 93 -851 0
-92 -93 -851 0
92 -93 851 0
-92 93 851 0
851 94 -852 0
-851 -94 -852 0
851 -94 852 0
-851 94 852 0
852 95 -853 0
-852 -95 -853 0
852 -95 853 0
-852 95 853 0
853 171 -854 0
-853 -171 -854 0
853 -171 854 0
-853 171 854 0
854 179 -855 0
-854 -179 -855 0
854 -179 855 0
-854 179 855 0
855 183 -856 0
-855 -183 -856 0
855 -183 856 0
-855 183 856 0
856 191 -857 0
-856 -191 -857 0
856 -191 857 0
-856 191 857 0
-857 0
93 94 -858 0
-93 -94 -858 0
93 -94 858 0
-93 94 858 0
858 95 -859 0
-858 -95 -859 0
858 -95 859 0
-858 95 859 0
859 96 -860 0
-859 -96 -860 0
859 -96 860 0
-859 96 860 0
860 172 -861 0
-860 -172 -861 0
860 -172 861 0
-860 172 861 0
861 180 -862 0
-861 -180 -862 0
861 -180 862 0
-861 180 862 0
862 184 -863 0
-862 -184 -863 0
862 -184 863 0
-862 184 863 0
863 192 -864 0
-863 -192 -864 0
863 -192 864 0
-863 192 864 0
-864 0
1 100 -865 0
-1 -100 -865 0
1 -100 865 0
-1 100 865 0
865 101 -866 0
-865 -101 -866 0
865 -101 866 0
-865 101 866 0
866 104 -867 0
-866 -104 -867 0
866 -104 867 0
-866 104 867 0
867 105 -868 0
-867 -105 -868 0
867 -105 868 0
-867 105 868 0
868 108 -869 0
-868 -108 -869 0
868 -108 869 0
-868 108 869 0
869 109 -870 0
-869 -109 -870 0
869 -109 870 0
-869 109 870 0
870 112 -871 0
-870 -112 -871 0
870 -112 871 0
-870 112 871 0
871 113 -872 0
-871 -113 -872 0
871 -113 872 0
-871 113 872 0
872 116 -873 0
-872 -116 -873 0
872 -116 873 0
-872 116 873 0
873 117 -874 0
-873 -117 -874 0
873 -117 874 0
-873 117 874 0
874 120 -875 0
-874 -120 -875 0
874 -120 875 0
-874 120 875 0
875 121 -876 0
-875 -121 -876 0
875 -121 876 0
-875 121 876 0
876 124 -877 0
-876 -124 -877 0
876 -124 877 0
-876 124 877 0
877 125 -878 0
-877 -125 -878 0
877 -125 878 0
-877 125 878 0
878 128 -879 0
-878 -128 -879 0
878 -128 879 0
-878 128 879 0
879 129 -880 0
-879 -129 -880 0
879 -129 880 0
-879 129 880 0
880 132 -881 0
-880 -132 -881 0
880 -132 881 0
-880 132 881 0
881 133 -882 0
-881 -133 -882 0
881 -133 882 0
-881 133 882 0
882 136 -883 0
-882 -136 -883 0
882 -136 883 0
-882 136 883 0
883 137 -884 0
-883 -137 -884 0
883 -137 884 0
-883 137 884 0
884 140 -885 0
-884 -140 -885 0
884 -140 885 0
-884 140 885 0
885 141 -886 0
-885 -141 -886 0
885 -141 886 0
-885 141 886 0
886 144 -887 0
-886 -144 -887 0
886 -144 887 0
-886 144 887 0
887 145 -888 0
-887 -145 -888 0
887 -145 888 0
-887 145 888 0
888 148 -889 0
-888 -148 -889 0
888 -148 889 0
-888 148 889 0
889 149 -890 0
-889 -149 -890 0
889 -149 890 0
-889 149 890 0
890 152 -891 0
-890 -152 -891 0
890 -152 891 0
-890 152 891 0
891 153 -892 0
-891 -153 -892 0
891 -153 892 0
-891 153 892 0
892 156 -893 0
-892 -156 -893 0
892 -156 893 0
-892 156 893 0
893 157 -894 0
-893 -157 -894 0
893 -157 894 0
-893 157 894 0
894 160 -895 0
-894 -160 -895 0
894 -160 895 0
-894 160 895 0
895 161 -896 0
-895 -161 -896 0
895 -161 896 0
-895 161 896 0
896 164 -897 0
-896 -164 -897 0
896 -164 897 0
-896 164 897 0
897 165 -898 0
-897 -165 -898 0
897 -165 898 0
-897 165 898 0
898 168 -899 0
-898 -168 -899 0
898 -168 899 0
-898 168 899 0
899 169 -900 0
-899 -169 -900 0
899 -169 900 0
-899 169 900 0
900 172 -901 0
-900 -172 -901 0
900 -172 901 0
-900 172 901 0
901 173 -902 0
-901 -173 -902 0
901 -173 902 0
-901 173 902 0
902 184 -903 0
-902 -184 -903 0
902 -184 903 0
-902 184 903 0
903 185 -904 0
-903 -185 -904 0
903 -185 904 0
-903 185 904 0
2 101 -905 0
-2 -101 -905 0
2 -101 905 0
-2 101 905 0
905 102 -906 0
-905 -102 -906 0
905 -102 906 0
-905 102 906 0
906 105 -907 0
-906 -105 -907 0
906 -105 907 0
-906 105 907 0
907 106 -908 0
-907 -106 -908 0
907 -106 908 0
-907 106 908 0
908 109 -909 0
-908 -109 -909 0
908 -109 909 0
-908 109 909 0
909 110 -910 0
-909 -110 -910 0
909 -110 910 0
-909 110 910 0
910 113 -911 0
-910 -113 -911 0
910 -113 911 0
-910 113 911 0
911 114 -912 0
-911 -114 -912 0
911 -114 912 0
-911 114 912 0
912 117 -913 0
-912 -117 -913 0
912 -117 913 0
-912 117 913 0
913 118 -914 0
-913 -118 -914 0
913 -118 914 0
-913 118 914 0
914 121 -915 0
-914 -121 -915 0
914 -121 915 0
-914 121 915 0
915 122 -916 0
-915 -122 -916 0
915 -122 916 0
-915 122 916 0
916 125 -917 0
-916 -125 -917 0
916 -125 917 0
-916 125 917 0
917 126 -918 0
-917 -126 -918 0
917 -126 918 0
-917 126 918 0
918 129 -919 0
-918 -129 -919 0
918 -129 919 0
-918 129 919 0
919 130 -920 0
-919 -130 -920 0
919 -130 920 0
-919 130 920 0
920 133 -921 0
-920 -133 -921 0
920 -133 921 0
-920 133 921 0
921 134 -922 0
-921 -134 -922 0
921 -134 922 0
-921 134 922 0
922 137 -923 0
-922 -137 -923 0
922 -137 923 0
-922 137 923 0
923 138 -924 0
-923 -138 -924 0
923 -138 924 0
-923 138 924 0
924 141 -925 0
-924 -141 -925 0
924 -141 925 0
-924 141 925 0
925 142 -926 0
-925 -142 -926 0
925 -142 926 0
-925 142 926 0
926 145 -927 0
-926 -145 -927 0
926 -145 927 0
-926 145 927 0
927 146 -928 0
-927 -146 -928 0
927 -146 928 0
-927 146 928 0
928 149 -929 0
-928 -149 -929 0
928 -149 929 0
-928 149 929 0
929 150 -930 0
-929 -150 -930 0
929 -150 930 0
-929 150 930 0
930 153 -931 0
-930 -153 -931 0
930 -153 931 0
-930 153 931 0
931 154 -932 0
-931 -154 -932 0
931 -154 932 0
-931 154 932 0
932 157 -933 0
-932 -157 -933 0
932 -157 933 0
-932 157 933 0
933 158 -934 0
-933 -158 -934 0
933 -158 934 0
-933 158 934 0
934 161 -935 0
-934 -161 -935 0
934 -161 935 0
-934 161 935 0
935 162 -936 0
-935 -162 -936 0
935 -162 936 0
-935 162 936 0
936 165 -937 0
-936 -165 -937 0
936 -165 937 0
-936 165 937 0
937 166 -938 0
-937 -166 -938 0
937 -166 938 0
-937 166 938 0
938 169 -939 0
-938 -169 -939 0
938 -169 939 0
-938 169 939 0
939 170 -940 0
-939 -170 -940 0
939 -170 940 0
-939 170 940 0
940 173 -941 0
-940 -173 -941 0
940 -173 941 0
-940 173 941 0
941 174 -942 0
-941 -174 -942 0
941 -174 942 0
-941 174 942 0
942 185 -943 0
-942 -185 -943 0
942 -185 943 0
-942 185 943 0
943 186 -944 0
-943 -186 -944 0
943 -186 944 0
-943 186 944 0
3 102 -945 0
-3 -102 -945 0
3 -102 945 0
-3 102 945 0
945 103 -946 0
-945 -103 -946 0
945 -103 946 0
-945 103 946 0
946 106 -947 0
-946 -106 -947 0
946 -106 947 0
-946 106 947 0
947 107 -948 0
-947 -107 -948 0
947 -107 948 0
-947 107 948 0
948 110 -949 0
-948 -110 -949 0
948 -110 949 0
-948 110 949 0
949 111 -950 0
-949 -111 -950 0
949 -111 950 0
-949 111 950 0
950 114 -951 0
-950 -114 -951 0
950 -114 951 0
-950 114 951 0
951 115 -952 0
-951 -115 -952 0
951 -115 952 0
-951 115 952 0
952 118 -953 0
-952 -118 -953 0
952 -118 953 0
-952 118 953 0
953 119 -954 0
-953 -119 -954 0
953 -119 954 0
-953 119 954 0
954 122 -955 0
-954 -122 -955 0
954 -122 955 0
-954 122 955 0
955 123 -956 0
-955 -123 -956 0
955 -123 956 0
-955 123 956 0
956 126 -957 0
-956 -126 -957 0
956 -126 957 0
-956 126 957 0
957 127 -958 0
-957 -127 -958 0
957 -127 958 0
-957 127 958 0
958 130 -959 0
-958 -130 -959 0
958 -130 959 0
-958 130 959 0
959 131 -960 0
-959 -131 -960 0
959 -131 960 0
-959 131 960 0
960 134 -961 0
-960 -134 -961 0
960 -134 961 0
-960 134 961 0
961 135 -962 0
-961 -135 -962 0
961 -135 962 0
-961 135 962 0
962 138 -963 0
-962 -138 -963 0
962 -138 963 0
-962 138 963 0
963 139 -964 0
-963 -139 -964 0
963 -139 964 0
-963 139 964 0
964 142 -965 0
-964 -142 -965 0
964 -142 965 0
-964 142 965 0
965 143 -966 0
-965 -143 -966 0
965 -143 966 0
-965 143 966 0
966 146 -967 0
-966 -146 -967 0
966 -146 967 0
-966 146 967 0
967 147 -968 0
-967 -147 -968 0
967 -147 968 0
-967 147 968 0
968 150 -969 0
-968 -150 -969 0
968 -150 969 0
-968 150 969 0
969 151 -970 0
-969 -151 -970 0
969 -151 970 0
-969 151 970 0
970 154 -971 0
-970 -154 -971 0
970 -154 971 0
-970 154 971 0
971 155 -972 0
-971 -155 -972 0
971 -155 972 0
-971 155 972 0
972 158 -973 0
-972 -158 -973 0
972 -158 973 0
-972 158 973 0
973 159 -974 0
-973 -159 -974 0
973 -159 974 0
-973 159 974 0
974 162 -975 0
-974 -162 -975 0
974 -162 975 0
-974 162 975 0
975 163 -976 0
-975 -163 -976 0
975 -163 976 0
-975 163 976 0
976 166 -977 0
-976 -166 -977 0
976 -166 977 0
-976 166 977 0
977 167 -978 0
-977 -167 -978 0
977 -167 978 0
-977 167 978 0
978 170 -979 0
-978 -170 -979 0
978 -170 979 0
-978 170 979 0
979 171 -980 0
-979 -171 -980 0
979 -171 980 0
-979 171 980 0
980 174 -981 0
-980 -174 -981 0
980 -174 981 0
-980 174 981 0
981 175 -982 0
-981 -175 -982 0
981 -175 982 0
-981 175 982 0
982 186 -983 0
-982 -186 -983 0
982 -186 983 0
-982 186 983 0
983 187 -984 0
-983 -187 -984 0
983 -187 984 0
-983 187 984 0
9 100 -985 0
-9 -100 -985 0
9 -100 985 0
-9 100 985 0
985 101 -986 0
-985 -101 -986 0
985 -101 986 0
-985 101 986 0
986 104 -987 0
-986 -104 -987 0
986 -104 987 0
-986 104 987 0
987 105 -988 0
-987 -105 -988 0
987 -105 988 0
-987 105 988 0
988 184 -989 0
-988 -184 -989 0
988 -184 989 0
-988 184 989 0
989 185 -990 0
-989 -185 -990 0
989 -185 990 0
-989 185 990 0
990 188 -991 0
-990 -188 -991 0
990 -188 991 0
-990 188 991 0
991 189 -992 0
-991 -189 -992 0
991 -189 992 0
-991 189 992 0
10 101 -993 0
-10 -101 -993 0
10 -101 993 0
-10 101 993 0
993 102 -994 0
-993 -102 -994 0
993 -102 994 0
-993 102 994 0
994 105 -995 0
-994 -105 -995 0
994 -105 995 0
-994 105 995 0
995 106 -996 0
-995 -106 -996 0
995 -106 996 0
-995 106 996 0
996 185 -997 0
-996 -185 -997 0
996 -185 997 0
-996 185 997 0
997 186 -998 0
-997 -186 -998 0
997 -186 998 0
-997 186 998 0
998 189 -999 0
-998 -189 -999 0
998 -189 999 0
-998 189 999 0
999 190 -1000 0
-999 -190 -1000 0
999 -190 1000 0
-999 190 1000 0
11 102 -1001 0
-11 -102 -1001 0
11 -102 1001 0
-11 102 1001 0
1001 103 -1002 0
-1001 -103 -1002 0
1001 -103 1002 0
-1001 103 1002 0
1002 106 -1003 0
-1002 -106 -1003 0
1002 -106 1003 0
-1002 106 1003 0
1003 107 -1004 0
-1003 -107 -1004 0
1003 -107 1004 0
-1003 107 1004 0
1004 186 -1005 0
-1004 -186 -1005 0
1004 -186 1005 0
-1004 186 1005 0
1005 187 -1006 0
-1005 -187 -1006 0
1005 -187 1006 0
-1005 187 1006 0
1006 190 -1007 0
-1006 -190 -1007 0
1006 -190 1007 0
-1006 190 1007 0
1007 191 -1008 0
-1007 -191 -1008 0
1007 -191 1008 0
-1007 191 1008 0
904 944 984 992 1000 1008 0
1 0
-1020 1012 1021 0
-1016 1012 1021 0
-1016 -1020 1021 0
-1021 1009 0
-1017 1009 0
-1021 -1017 1010 0
-1018 1010 0
-1021 -1018 1011 0
-1019 1011 0
-1021 -1019 0
-1013 1009 0
-1021 -1013 1010 0
-1014 1010 0
-1021 -1014 1011 0
-1015 1011 0
-1021 -1015 0
-1013 -1017 1010 0
-1021 -1013 -1017 1011 0
-1013 -1018 1011 0
-1021 -1013 -1018 0
-1013 -1019 0
-1021 -1013 -1019 0
-1014 -1017 1011 0
-1021 -1014 -1017 0
-1014 -1018 0
-1021 -1014 -1018 0
-1014 -1019 0
-1021 -1014 -1019 0
-1015 -1017 0
-1021 -1015 -1017 0
-1015 -1018 0
-1021 -1015 -1018 0
-1015 -1019 0
-1021 -1015 -1019 0
-1029 1020 1030 0
-1025 1020 1030 0
-1025 -1029 1030 0
-1030 1017 0
-1026 1017 0
-1030 -1026 1018 0
-1027 1018 0
-1030 -1027 1019 0
-1028 1019 0
-1030 -1028 0
-1022 1017 0
-1030 -1022 1018 0
-1023 1018 0
-1030 -1023 1019 0
-1024 1019 0
-1030 -1024 0
-1022 -1026 1018 0
-1030 -1022 -1026 1019 0
-1022 -1027 1019 0
-1030 -1022 -1027 0
-1022 -1028 0
-1030 -1022 -1028 0
-1023 -1026 1019 0
-1030 -1023 -1026 0
-1023 -1027 0
-1030 -1023 -1027 0
-1023 -1028 0
-1030 -1023 -1028 0
-1024 -1026 0
-1030 -1024 -1026 0
-1024 -1027 0
-1030 -1024 -1027 0
-1024 -1028 0
-1030 -1024 -1028 0
-1038 1029 1039 0
-1034 1029 1039 0
-1034 -1038 1039 0
-1039 1026 0
-1035 1026 0
-1039 -1035 1027 0
-1036 1027 0
-1039 -1036 1028 0
-1037 1028 0
-1039 -1037 0
-1031 1026 0
-1039 -1031 1027 0
-1032 1027 0
-1039 -1032 1028 0
-1033 1028 0
-1039 -1033 0
-1031 -1035 1027 0
-1039 -1031 -1035 1028 0
-1031 -1036 1028 0
-1039 -1031 -1036 0
-1031 -1037 0
-1039 -1031 -1037 0
-1032 -1035 1028 0
-1039 -1032 -1035 0
-1032 -1036 0
-1039 -1032 -1036 0
-1032 -1037 0
-1039 -1032 -1037 0
-1033 -1035 0
-1039 -1033 -1035 0
-1033 -1036 0
-1039 -1033 -1036 0
-1033 -1037 0
-1039 -1033 -1037 0
-1047 1038 1048 0
-1043 1038 1048 0
-1043 -1047 1048 0
-1048 1035 0
-1044 1035 0
-1048 -1044 1036 0
-1045 1036 0
-1048 -1045 1037 0
-1046 1037 0
-1048 -1046 0
-1040 1035 0
-1048 -1040 1036 0
-1041 1036 0
-1048 -1041 1037 0
-1042 1037 0
-1048 -1042 0
-1040 -1044 1036 0
-1048 -1040 -1044 1037 0
-1040 -1045 1037 0
-1048 -1040 -1045 0
-1040 -1046 0
-1048 -1040 -1046 0
-1041 -1044 1037 0
-1048 -1041 -1044 0
-1041 -1045 0
-1048 -1041 -1045 0
-1041 -1046 0
-1048 -1041 -1046 0
-1042 -1044 0
-1048 -1042 -1044 0
-1042 -1045 0
-1048 -1042 -1045 0
-1042 -1046 0
-1048 -1042 -1046 0
-1056 1047 1057 0
-1052 1047 1057 0
-1052 -1056 1057 0
-1057 1044 0
-1053 1044 0
-1057 -1053 1045 0
-1054 1045 0
-1057 -1054 1046 0
-1055 1046 0
-1057 -1055 0
-1049 1044 0
-1057 -1049 1045 0
-1050 1045 0
-1057 -1050 1046 0
-1051 1046 0
-1057 -1051 0
-1049 -1053 1045 0
-1057 -1049 -1053 1046 0
-1049 -1054 1046 0
-1057 -1049 -1054 0
-1049 -1055 0
-1057 -1049 -1055 0
-1050 -1053 1046 0
-1057 -1050 -1053 0
-1050 -1054 0
-1057 -1050 -1054 0
-1050 -1055 0
-1057 -1050 -1055 0
-1051 -1053 0
-1057 -1051 -1053 0
-1051 -1054 0
-1057 -1051 -1054 0
-1051 -1055 0
-1057 -1051 -1055 0
-1061 1056 1062 0
-1059 1056 1062 0
-1059 -1061 1062 0
-1062 1053 0
-1060 1053 0
-1062 -1060 1054 0
-1058 1053 0
-1062 -1058 1054 0
-1058 -1060 1054 0
-1062 -1058 -1060 1055 0
-192 1061 1065 0
-1064 1061 1065 0
-1064 -192 1065 0
-1065 1060 0
-1063 1060 0
-1065 -1063 0
-191 1064 1066 0
-190 1064 1066 0
-190 -191 1066 0
-1066 1063 0
-189 1059 1069 0
-1068 1059 1069 0
-1068 -189 1069 0
-1069 1058 0
-1067 1058 0
-1069 -1067 0
-188 1068 1070 0
-187 1068 1070 0
-187 -188 1070 0
-1070 1067 0
-1074 1052 1075 0
-1072 1052 1075 0
-1072 -1074 1075 0
-1075 1049 0
-1073 1049 0
-1075 -1073 1050 0
-1071 1049 0
-1075 -1071 1050 0
-1071 -1073 1050 0
-1075 -1071 -1073 1051 0
-186 1074 1078 0
-1077 1074 1078 0
-1077 -186 1078 0
-1078 1073 0
-1076 1073 0
-1078 -1076 0
-185 1077 1079 0
-184 1077 1079 0
-184 -185 1079 0
-1079 1076 0
-183 1072 1082 0
-1081 1072 1082 0
-1081 -183 1082 0
-1082 1071 0
-1080 1071 0
-1082 -1080 0
-182 1081 1083 0
-181 1081 1083 0
-181 -182 1083 0
-1083 1080 0
-1091 1043 1092 0
-1087 1043 1092 0
-1087 -1091 1092 0
-1092 1040 0
-1088 1040 0
-1092 -1088 1041 0
-1089 1041 0
-1092 -1089 1042 0
-1090 1042 0
-1092 -1090 0
-1084 1040 0
-1092 -1084 1041 0
-1085 1041 0
-1092 -1085 1042 0
-1086 1042 0
-1092 -1086 0
-1084 -1088 1041 0
-1092 -1084 -1088 1042 0
-1084 -1089 1042 0
-1092 -1084 -1089 0
-1084 -1090 0
-1092 -1084 -1090 0
-1085 -1088 1042 0
-1092 -1085 -1088 0
-1085 -1089 0
-1092 -1085 -1089 0
-1085 -1090 0
-1092 -1085 -1090 0
-1086 -1088 0
-1092 -1086 -1088 0
-1086 -1089 0
-1092 -1086 -1089 0
-1086 -1090 0
-1092 -1086 -1090 0
-1096 1091 1097 0
-1094 1091 1097 0
-1094 -1096 1097 0
-1097 1088 0
-1095 1088 0
-1097 -1095 1089 0
-1093 1088 0
-1097 -1093 1089 0
-1093 -1095 1089 0
-1097 -1093 -1095 1090 0
-180 1096 1100 0
-1099 1096 1100 0
-1099 -180 1100 0
-1100 1095 0
-1098 1095 0
-1100 -1098 0
-179 1099 1101 0
-178 1099 1101 0
-178 -179 1101 0
-1101 1098 0
-177 1094 1104 0
-1103 1094 1104 0
-1103 -177 1104 0
-1104 1093 0
-1102 1093 0
-1104 -1102 0
-176 1103 1105 0
-175 1103 1105 0
-175 -176 1105 0
-1105 1102 0
-1109 1087 1110 0
-1107 1087 1110 0
-1107 -1109 1110 0
-1110 1084 0
-1108 1084 0
-1110 -1108 1085 0
-1106 1084 0
-1110 -1106 1085 0
-1106 -1108 1085 0
-1110 -1106 -1108 1086 0
-174 1109 1113 0
-1112 1109 1113 0
-1112 -174 1113 0
-1113 1108 0
-1111 1108 0
-1113 -1111 0
-173 1112 1114 0
-172 1112 1114 0
-172 -173 1114 0
-1114 1111 0
-171 1107 1117 0
-1116 1107 1117 0
-1116 -171 1117 0
-1117 1106 0
-1115 1106 0
-1117 -1115 0
-170 1116 1118 0
-169 1116 1118 0
-169 -170 1118 0
-1118 1115 0
-1126 1034 1127 0
-1122 1034 1127 0
-1122 -1126 1127 0
-1127 1031 0
-1123 1031 0
-1127 -1123 1032 0
-1124 1032 0
-1127 -1124 1033 0
-1125 1033 0
-1127 -1125 0
-1119 1031 0
-1127 -1119 1032 0
-1120 1032 0
-1127 -1120 1033 0
-1121 1033 0
-1127 -1121 0
-1119 -1123 1032 0
-1127 -1119 -1123 1033 0
-1119 -1124 1033 0
-1127 -1119 -1124 0
-1119 -1125 0
-1127 -1119 -1125 0
-1120 -1123 1033 0
-1127 -1120 -1123 0
-1120 -1124 0
-1127 -1120 -1124 0
-1120 -1125 0
-1127 -1120 -1125 0
-1121 -1123 0
-1127 -1121 -1123 0
-1121 -1124 0
-1127 -1121 -1124 0
-1121 -1125 0
-1127 -1121 -1125 0
-1135 1126 1136 0
-1131 1126 1136 0
-1131 -1135 1136 0
-1136 1123 0
-1132 1123 0
-1136 -1132 1124 0
-1133 1124 0
-1136 -1133 1125 0
-1134 1125 0
-1136 -1134 0
-1128 1123 0
-1136 -1128 1124 0
-1129 1124 0
-1136 -1129 1125 0
-1130 1125 0
-1136 -1130 0
-1128 -1132 1124 0
-1136 -1128 -1132 1125 0
-1128 -1133 1125 0
-1136 -1128 -1133 0
-1128 -1134 0
-1136 -1128 -1134 0
-1129 -1132 1125 0
-1136 -1129 -1132 0
-1129 -1133 0
-1136 -1129 -1133 0
-1129 -1134 0
-1136 -1129 -1134 0
-1130 -1132 0
-1136 -1130 -1132 0
-1130 -1133 0
-1136 -1130 -1133 0
-1130 -1134 0
-1136 -1130 -1134 0
-1140 1135 1141 0
-1138 1135 1141 0
-1138 -1140 1141 0
-1141 1132 0
-1139 1132 0
-1141 -1139 1133 0
-1137 1132 0
-1141 -1137 1133 0
-1137 -1139 1133 0
-1141 -1137 -1139 1134 0
-168 1140 1144 0
-1143 1140 1144 0
-1143 -168 1144 0
-1144 1139 0
-1142 1139 0
-1144 -1142 0
-167 1143 1145 0
-166 1143 1145 0
-166 -167 1145 0
-1145 1142 0
-165 1138 1148 0
-1147 1138 1148 0
-1147 -165 1148 0
-1148 1137 0
-1146 1137 0
-1148 -1146 0
-164 1147 1149 0
-163 1147 1149 0
-163 -164 1149 0
-1149 1146 0
-1153 1131 1154 0
-1151 1131 1154 0
-1151 -1153 1154 0
-1154 1128 0
-1152 1128 0
-1154 -1152 1129 0
-1150 1128 0
-1154 -1150 1129 0
-1150 -1152 1129 0
-1154 -1150 -1152 1130 0
-162 1153 1157 0
-1156 1153 1157 0
-1156 -162 1157 0
-1157 1152 0
-1155 1152 0
-1157 -1155 0
-161 1156 1158 0
-160 1156 1158 0
-160 -161 1158 0
-1158 1155 0
-159 1151 1161 0
-1160 1151 1161 0
-1160 -159 1161 0
-1161 1150 0
-1159 1150 0
-1161 -1159 0
-158 1160 1162 0
-157 1160 1162 0
-157 -158 1162 0
-1162 1159 0
-1170 1122 1171 0
-1166 1122 1171 0
-1166 -1170 1171 0
-1171 1119 0
-1167 1119 0
-1171 -1167 1120 0
-1168 1120 0
-1171 -1168 1121 0
-1169 1121 0
-1171 -1169 0
-1163 1119 0
-1171 -1163 1120 0
-1164 1120 0
-1171 -1164 1121 0
-1165 1121 0
-1171 -1165 0
-1163 -1167 1120 0
-1171 -1163 -1167 1121 0
-1163 -1168 1121 0
-1171 -1163 -1168 0
-1163 -1169 0
-1171 -1163 -1169 0
-1164 -1167 1121 0
-1171 -1164 -1167 0
-1164 -1168 0
-1171 -1164 -1168 0
-1164 -1169 0
-1171 -1164 -1169 0
-1165 -1167 0
-1171 -1165 -1167 0
-1165 -1168 0
-1171 -1165 -1168 0
-1165 -1169 0
-1171 -1165 -1169 0
-1175 1170 1176 0
-1173 1170 1176 0
-1173 -1175 1176 0
-1176 1167 0
-1174 1167 0
-1176 -1174 1168 0
-1172 1167 0
-1176 -1172 1168 0
-1172 -1174 1168 0
-1176 -1172 -1174 1169 0
-156 1175 1179 0
-1178 1175 1179 0
-1178 -156 1179 0
-1179 1174 0
-1177 1174 0
-1179 -1177 0
-155 1178 1180 0
-154 1178 1180 0
-154 -155 1180 0
-1180 1177 0
-153 1173 1183 0
-1182 1173 1183 0
-1182 -153 1183 0
-1183 1172 0
-1181 1172 0
-1183 -1181 0
-152 1182 1184 0
-151 1182 1184 0
-151 -152 1184 0
-1184 1181 0
-1188 1166 1189 0
-1186 1166 1189 0
-1186 -1188 1189 0
-1189 1163 0
-1187 1163 0
-1189 -1187 1164 0
-1185 1163 0
-1189 -1185 1164 0
-1185 -1187 1164 0
-1189 -1185 -1187 1165 0
-150 1188 1192 0
-1191 1188 1192 0
-1191 -150 1192 0
-1192 1187 0
-1190 1187 0
-1192 -1190 0
-149 1191 1193 0
-148 1191 1193 0
-148 -149 1193 0
-1193 1190 0
-147 1186 1196 0
-1195 1186 1196 0
-1195 -147 1196 0
-1196 1185 0
-1194 1185 0
-1196 -1194 0
-146 1195 1197 0
-145 1195 1197 0
-145 -146 1197 0
-1197 1194 0
-1205 1025 1206 0
-1201 1025 1206 0
-1201 -1205 1206 0
-1206 1022 0
-1202 1022 0
-1206 -1202 1023 0
-1203 1023 0
-1206 -1203 1024 0
-1204 1024 0
-1206 -1204 0
-1198 1022 0
-1206 -1198 1023 0
-1199 1023 0
-1206 -1199 1024 0
-1200 1024 0
-1206 -1200 0
-1198 -1202 1023 0
-1206 -1198 -1202 1024 0
-1198 -1203 1024 0
-1206 -1198 -1203 0
-1198 -1204 0
-1206 -1198 -1204 0
-1199 -1202 1024 0
-1206 -1199 -1202 0
-1199 -1203 0
-1206 -1199 -1203 0
-1199 -1204 0
-1206 -1199 -1204 0
-1200 -1202 0
-1206 -1200 -1202 0
-1200 -1203 0
-1206 -1200 -1203 0
-1200 -1204 0
-1206 -1200 -1204 0
-1214 1205 1215 0
-1210 1205 1215 0
-1210 -1214 1215 0
-1215 1202 0
-1211 1202 0
-1215 -1211 1203 0
-1212 1203 0
-1215 -1212 1204 0
-1213 1204 0
-1215 -1213 0
-1207 1202 0
-1215 -1207 1203 0
-1208 1203 0
-1215 -1208 1204 0
-1209 1204 0
-1215 -1209 0
-1207 -1211 1203 0
-1215 -1207 -1211 1204 0
-1207 -1212 1204 0
-1215 -1207 -1212 0
-1207 -1213 0
-1215 -1207 -1213 0
-1208 -1211 1204 0
-1215 -1208 -1211 0
-1208 -1212 0
-1215 -1208 -1212 0
-1208 -1213 0
-1215 -1208 -1213 0
-1209 -1211 0
-1215 -1209 -1211 0
-1209 -1212 0
-1215 -1209 -1212 0
-1209 -1213 0
-1215 -1209 -1213 0
-1223 1214 1224 0
-1219 1214 1224 0
-1219 -1223 1224 0
-1224 1211 0
-1220 1211 0
-1224 -1220 1212 0
-1221 1212 0
-1224 -1221 1213 0
-1222 1213 0
-1224 -1222 0
-1216 1211 0
-1224 -1216 1212 0
-1217 1212 0
-1224 -1217 1213 0
-1218 1213 0
-1224 -1218 0
-1216 -1220 1212 0
-1224 -1216 -1220 1213 0
-1216 -1221 1213 0
-1224 -1216 -1221 0
-1216 -1222 0
-1224 -1216 -1222 0
-1217 -1220 1213 0
-1224 -1217 -1220 0
-1217 -1221 0
-1224 -1217 -1221 0
-1217 -1222 0
-1224 -1217 -1222 0
-1218 -1220 0
-1224 -1218 -1220 0
-1218 -1221 0
-1224 -1218 -1221 0
-1218 -1222 0
-1224 -1218 -1222 0
-1228 1223 1229 0
-1226 1223 1229 0
-1226 -1228 1229 0
-1229 1220 0
-1227 1220 0
-1229 -1227 1221 0
-1225 1220 0
-1229 -1225 1221 0
-1225 -1227 1221 0
-1229 -1225 -1227 1222 0
-144 1228 1232 0
-1231 1228 1232 0
-1231 -144 1232 0
-1232 1227 0
-1230 1227 0
-1232 -1230 0
-143 1231 1233 0
-142 1231 1233 0
-142 -143 1233 0
-1233 1230 0
-141 1226 1236 0
-1235 1226 1236 0
-1235 -141 1236 0
-1236 1225 0
-1234 1225 0
-1236 -1234 0
-140 1235 1237 0
-139 1235 1237 0
-139 -140 1237 0
-1237 1234 0
-1241 1219 1242 0
-1239 1219 1242 0
-1239 -1241 1242 0
-1242 1216 0
-1240 1216 0
-1242 -1240 1217 0
-1238 1216 0
-1242 -1238 1217 0
-1238 -1240 1217 0
-1242 -1238 -1240 1218 0
-138 1241 1245 0
-1244 1241 1245 0
-1244 -138 1245 0
-1245 1240 0
-1243 1240 0
-1245 -1243 0
-137 1244 1246 0
-136 1244 1246 0
-136 -137 1246 0
-1246 1243 0
-135 1239 1249 0
-1248 1239 1249 0
-1248 -135 1249 0
-1249 1238 0
-1247 1238 0
-1249 -1247 0
-134 1248 1250 0
-133 1248 1250 0
-133 -134 1250 0
-1250 1247 0
-1258 1210 1259 0
-1254 1210 1259 0
-1254 -1258 1259 0
-1259 1207 0
-1255 1207 0
-1259 -1255 1208 0
-1256 1208 0
-1259 -1256 1209 0
-1257 1209 0
-1259 -1257 0
-1251 1207 0
-1259 -1251 1208 0
-1252 1208 0
-1259 -1252 1209 0
-1253 1209 0
-1259 -1253 0
-1251 -1255 1208 0
-1259 -1251 -1255 1209 0
-1251 -1256 1209 0
-1259 -1251 -1256 0
-1251 -1257 0
-1259 -1251 -1257 0
-1252 -1255 1209 0
-1259 -1252 -1255 0
-1252 -1256 0
-1259 -1252 -1256 0
-1252 -1257 0
-1259 -1252 -1257 0
-1253 -1255 0
-1259 -1253 -1255 0
-1253 -1256 0
-1259 -1253 -1256 0
-1253 -1257 0
-1259 -1253 -1257 0
-1263 1258 1264 0
-1261 1258 1264 0
-1261 -1263 1264 0
-1264 1255 0
-1262 1255 0
-1264 -1262 1256 0
-1260 1255 0
-1264 -1260 1256 0
-1260 -1262 1256 0
-1264 -1260 -1262 1257 0
-132 1263 1267 0
-1266 1263 1267 0
-1266 -132 1267 0
-1267 1262 0
-1265 1262 0
-1267 -1265 0
-131 1266 1268 0
-130 1266 1268 0
-130 -131 1268 0
-1268 1265 0
-129 1261 1271 0
-1270 1261 1271 0
-1270 -129 1271 0
-1271 1260 0
-1269 1260 0
-1271 -1269 0
-128 1270 1272 0
-127 1270 1272 0
-127 -128 1272 0
-1272 1269 0
-1276 1254 1277 0
-1274 1254 1277 0
-1274 -1276 1277 0
-1277 1251 0
-1275 1251 0
-1277 -1275 1252 0
-1273 1251 0
-1277 -1273 1252 0
-1273 -1275 1252 0
-1277 -1273 -1275 1253 0
-126 1276 1280 0
-1279 1276 1280 0
-1279 -126 1280 0
-1280 1275 0
-1278 1275 0
-1280 -1278 0
-125 1279 1281 0
-124 1279 1281 0
-124 -125 1281 0
-1281 1278 0
-123 1274 1284 0
-1283 1274 1284 0
-1283 -123 1284 0
-1284 1273 0
-1282 1273 0
-1284 -1282 0
-122 1283 1285 0
-121 1283 1285 0
-121 -122 1285 0
-1285 1282 0
-1293 1201 1294 0
-1289 1201 1294 0
-1289 -1293 1294 0
-1294 1198 0
-1290 1198 0
-1294 -1290 1199 0
-1291 1199 0
-1294 -1291 1200 0
-1292 1200 0
-1294 -1292 0
-1286 1198 0
-1294 -1286 1199 0
-1287 1199 0
-1294 -1287 1200 0
-1288 1200 0
-1294 -1288 0
-1286 -1290 1199 0
-1294 -1286 -1290 1200 0
-1286 -1291 1200 0
-1294 -1286 -1291 0
-1286 -1292 0
-1294 -1286 -1292 0
-1287 -1290 1200 0
-1294 -1287 -1290 0
-1287 -1291 0
-1294 -1287 -1291 0
-1287 -1292 0
-1294 -1287 -1292 0
-1288 -1290 0
-1294 -1288 -1290 0
-1288 -1291 0
-1294 -1288 -1291 0
-1288 -1292 0
-1294 -1288 -1292 0
-1302 1293 1303 0
-1298 1293 1303 0
-1298 -1302 1303 0
-1303 1290 0
-1299 1290 0
-1303 -1299 1291 0
-1300 1291 0
-1303 -1300 1292 0
-1301 1292 0
-1303 -1301 0
-1295 1290 0
-1303 -1295 1291 0
-1296 1291 0
-1303 -1296 1292 0
-1297 1292 0
-1303 -1297 0
-1295 -1299 1291 0
-1303 -1295 -1299 1292 0
-1295 -1300 1292 0
-1303 -1295 -1300 0
-1295 -1301 0
-1303 -1295 -1301 0
-1296 -1299 1292 0
-1303 -1296 -1299 0
-1296 -1300 0
-1303 -1296 -1300 0
-1296 -1301 0
-1303 -1296 -1301 0
-1297 -1299 0
-1303 -1297 -1299 0
-1297 -1300 0
-1303 -1297 -1300 0
-1297 -1301 0
-1303 -1297 -1301 0
-1307 1302 1308 0
-1305 1302 1308 0
-1305 -1307 1308 0
-1308 1299 0
-1306 1299 0
-1308 -1306 1300 0
-1304 1299 0
-1308 -1304 1300 0
-1304 -1306 1300 0
-1308 -1304 -1306 1301 0
-120 1307 1311 0
-1310 1307 1311 0
-1310 -120 1311 0
-1311 1306 0
-1309 1306 0
-1311 -1309 0
-119 1310 1312 0
-118 1310 1312 0
-118 -119 1312 0
-1312 1309 0
-117 1305 1315 0
-1314 1305 1315 0
-1314 -117 1315 0
-1315 1304 0
-1313 1304 0
-1315 -1313 0
-116 1314 1316 0
-115 1314 1316 0
-115 -116 1316 0
-1316 1313 0
-1320 1298 1321 0
-1318 1298 1321 0
-1318 -1320 1321 0
-1321 1295 0
-1319 1295 0
-1321 -1319 1296 0
-1317 1295 0
-1321 -1317 1296 0
-1317 -1319 1296 0
-1321 -1317 -1319 1297 0
-114 1320 1324 0
-1323 1320 1324 0
-1323 -114 1324 0
-1324 1319 0
-1322 1319 0
-1324 -1322 0
-113 1323 1325 0
-112 1323 1325 0
-112 -113 1325 0
-1325 1322 0
-111 1318 1328 0
-1327 1318 1328 0
-1327 -111 1328 0
-1328 1317 0
-1326 1317 0
-1328 -1326 0
-110 1327 1329 0
-109 1327 1329 0
-109 -110 1329 0
-1329 1326 0
-1337 1289 1338 0
-1333 1289 1338 0
-1333 -1337 1338 0
-1338 1286 0
-1334 1286 0
-1338 -1334 1287 0
-1335 1287 0
-1338 -1335 1288 0
-1336 1288 0
-1338 -1336 0
-1330 1286 0
-1338 -1330 1287 0
-1331 1287 0
-1338 -1331 1288 0
-1332 1288 0
-1338 -1332 0
-1330 -1334 1287 0
-1338 -1330 -1334 1288 0
-1330 -1335 1288 0
-1338 -1330 -1335 0
-1330 -1336 0
-1338 -1330 -1336 0
-1331 -1334 1288 0
-1338 -1331 -1334 0
-1331 -1335 0
-1338 -1331 -1335 0
-1331 -1336 0
-1338 -1331 -1336 0
-1332 -1334 0
-1338 -1332 -1334 0
-1332 -1335 0
-1338 -1332 -1335 0
-1332 -1336 0
-1338 -1332 -1336 0
-1342 1337 1343 0
-1340 1337 1343 0
-1340 -1342 1343 0
-1343 1334 0
-1341 1334 0
-1343 -1341 1335 0
-1339 1334 0
-1343 -1339 1335 0
-1339 -1341 1335 0
-1343 -1339 -1341 1336 0
-108 1342 1346 0
-1345 1342 1346 0
-1345 -108 1346 0
-1346 1341 0
-1344 1341 0
-1346 -1344 0
-107 1345 1347 0
-106 1345 1347 0
-106 -107 1347 0
-1347 1344 0
-105 1340 1350 0
-1349 1340 1350 0
-1349 -105 1350 0
-1350 1339 0
-1348 1339 0
-1350 -1348 0
-104 1349 1351 0
-103 1349 1351 0
-103 -104 1351 0
-1351 1348 0
-1355 1333 1356 0
-1353 1333 1356 0
-1353 -1355 1356 0
-1356 1330 0
-1354 1330 0
-1356 -1354 1331 0
-1352 1330 0
-1356 -1352 1331 0
-1352 -1354 1331 0
-1356 -1352 -1354 1332 0
-102 1355 1359 0
-1358 1355 1359 0
-1358 -102 1359 0
-1359 1354 0
-1357 1354 0
-1359 -1357 0
-101 1358 1360 0
-100 1358 1360 0
-100 -101 1360 0
-1360 1357 0
-99 1353 1363 0
-1362 1353 1363 0
-1362 -99 1363 0
-1363 1352 0
-1361 1352 0
-1363 -1361 0
-98 1362 1364 0
-97 1362 1364 0
-97 -98 1364 0
-1364 1361 0
-1372 1016 1373 0
-1368 1016 1373 0
-1368 -1372 1373 0
-1373 1013 0
-1369 1013 0
-1373 -1369 1014 0
-1370 1014 0
-1373 -1370 1015 0
-1371 1015 0
-1373 -1371 0
-1365 1013 0
-1373 -1365 1014 0
-1366 1014 0
-1373 -1366 1015 0
-1367 1015 0
-1373 -1367 0
-1365 -1369 1014 0
-1373 -1365 -1369 1015 0
-1365 -1370 1015 0
-1373 -1365 -1370 0
-1365 -1371 0
-1373 -1365 -1371 0
-1366 -1369 1015 0
-1373 -1366 -1369 0
-1366 -1370 0
-1373 -1366 -1370 0
-1366 -1371 0
-1373 -1366 -1371 0
-1367 -1369 0
-1373 -1367 -1369 0
-1367 -1370 0
-1373 -1367 -1370 0
-1367 -1371 0
-1373 -1367 -1371 0
-1381 1372 1382 0
-1377 1372 1382 0
-1377 -1381 1382 0
-1382 1369 0
-1378 1369 0
-1382 -1378 1370 0
-1379 1370 0
-1382 -1379 1371 0
-1380 1371 0
-1382 -1380 0
-1374 1369 0
-1382 -1374 1370 0
-1375 1370 0
-1382 -1375 1371 0
-1376 1371 0
-1382 -1376 0
-1374 -1378 1370 0
-1382 -1374 -1378 1371 0
-1374 -1379 1371 0
-1382 -1374 -1379 0
-1374 -1380 0
-1382 -1374 -1380 0
-1375 -1378 1371 0
-1382 -1375 -1378 0
-1375 -1379 0
-1382 -1375 -1379 0
-1375 -1380 0
-1382 -1375 -1380 0
-1376 -1378 0
-1382 -1376 -1378 0
-1376 -1379 0
-1382 -1376 -1379 0
-1376 -1380 0
-1382 -1376 -1380 0
-1390 1381 1391 0
-1386 1381 1391 0
-1386 -1390 1391 0
-1391 1378 0
-1387 1378 0
-1391 -1387 1379 0
-1388 1379 0
-1391 -1388 1380 0
-1389 1380 0
-1391 -1389 0
-1383 1378 0
-1391 -1383 1379 0
-1384 1379 0
-1391 -1384 1380 0
-1385 1380 0
-1391 -1385 0
-1383 -1387 1379 0
-1391 -1383 -1387 1380 0
-1383 -1388 1380 0
-1391 -1383 -1388 0
-1383 -1389 0
-1391 -1383 -1389 0
-1384 -1387 1380 0
-1391 -1384 -1387 0
-1384 -1388 0
-1391 -1384 -1388 0
-1384 -1389 0
-1391 -1384 -1389 0
-1385 -1387 0
-1391 -1385 -1387 0
-1385 -1388 0
-1391 -1385 -1388 0
-1385 -1389 0
-1391 -1385 -1389 0
-1399 1390 1400 0
-1395 1390 1400 0
-1395 -1399 1400 0
-1400 1387 0
-1396 1387 0
-1400 -1396 1388 0
-1397 1388 0
-1400 -1397 1389 0
-1398 1389 0
-1400 -1398 0
-1392 1387 0
-1400 -1392 1388 0
-1393 1388 0
-1400 -1393 1389 0
-1394 1389 0
-1400 -1394 0
-1392 -1396 1388 0
-1400 -1392 -1396 1389 0
-1392 -1397 1389 0
-1400 -1392 -1397 0
-1392 -1398 0
-1400 -1392 -1398 0
-1393 -1396 1389 0
-1400 -1393 -1396 0
-1393 -1397 0
-1400 -1393 -1397 0
-1393 -1398 0
-1400 -1393 -1398 0
-1394 -1396 0
-1400 -1394 -1396 0
-1394 -1397 0
-1400 -1394 -1397 0
-1394 -1398 0
-1400 -1394 -1398 0
-1404 1399 1405 0
-1402 1399 1405 0
-1402 -1404 1405 0
-1405 1396 0
-1403 1396 0
-1405 -1403 1397 0
-1401 1396 0
-1405 -1401 1397 0
-1401 -1403 1397 0
-1405 -1401 -1403 1398 0
-96 1404 1408 0
-1407 1404 1408 0
-1407 -96 1408 0
-1408 1403 0
-1406 1403 0
-1408 -1406 0
-95 1407 1409 0
-94 1407 1409 0
-94 -95 1409 0
-1409 1406 0
-93 1402 1412 0
-1411 1402 1412 0
-1411 -93 1412 0
-1412 1401 0
-1410 1401 0
-1412 -1410 0
-92 1411 1413 0
-91 1411 1413 0
-91 -92 1413 0
-1413 1410 0
-1417 1395 1418 0
-1415 1395 1418 0
-1415 -1417 1418 0
-1418 1392 0
-1416 1392 0
-1418 -1416 1393 0
-1414 1392 0
-1418 -1414 1393 0
-1414 -1416 1393 0
-1418 -1414 -1416 1394 0
-90 1417 1421 0
-1420 1417 1421 0
-1420 -90 1421 0
-1421 1416 0
-1419 1416 0
-1421 -1419 0
-89 1420 1422 0
-88 1420 1422 0
-88 -89 1422 0
-1422 1419 0
-87 1415 1425 0
-1424 1415 1425 0
-1424 -87 1425 0
-1425 1414 0
-1423 1414 0
-1425 -1423 0
-86 1424 1426 0
-85 1424 1426 0
-85 -86 1426 0
-1426 1423 0
-1434 1386 1435 0
-1430 1386 1435 0
-1430 -1434 1435 0
-1435 1383 0
-1431 1383 0
-1435 -1431 1384 0
-1432 1384 0
-1435 -1432 1385 0
-1433 1385 0
-1435 -1433 0
-1427 1383 0
-1435 -1427 1384 0
-1428 1384 0
-1435 -1428 1385 0
-1429 1385 0
-1435 -1429 0
-1427 -1431 1384 0
-1435 -1427 -1431 1385 0
-1427 -1432 1385 0
-1435 -1427 -1432 0
-1427 -1433 0
-1435 -1427 -1433 0
-1428 -1431 1385 0
-1435 -1428 -1431 0
-1428 -1432 0
-1435 -1428 -1432 0
-1428 -1433 0
-1435 -1428 -1433 0
-1429 -1431 0
-1435 -1429 -1431 0
-1429 -1432 0
-1435 -1429 -1432 0
-1429 -1433 0
-1435 -1429 -1433 0
-1439 1434 1440 0
-1437 1434 1440 0
-1437 -1439 1440 0
-1440 1431 0
-1438 1431 0
-1440 -1438 1432 0
-1436 1431 0
-1440 -1436 1432 0
-1436 -1438 1432 0
-1440 -1436 -1438 1433 0
-84 1439 1443 0
-1442 1439 1443 0
-1442 -84 1443 0
-1443 1438 0
-1441 1438 0
-1443 -1441 0
-83 1442 1444 0
-82 1442 1444 0
-82 -83 1444 0
-1444 1441 0
-81 1437 1447 0
-1446 1437 1447 0
-1446 -81 1447 0
-1447 1436 0
-1445 1436 0
-1447 -1445 0
-80 1446 1448 0
-79 1446 1448 0
-79 -80 1448 0
-1448 1445 0
-1452 1430 1453 0
-1450 1430 1453 0
-1450 -1452 1453 0
-1453 1427 0
-1451 1427 0
-1453 -1451 1428 0
-1449 1427 0
-1453 -1449 1428 0
-1449 -1451 1428 0
-1453 -1449 -1451 1429 0
-78 1452 1456 0
-1455 1452 1456 0
-1455 -78 1456 0
-1456 1451 0
-1454 1451 0
-1456 -1454 0
-77 1455 1457 0
-76 1455 1457 0
-76 -77 1457 0
-1457 1454 0
-75 1450 1460 0
-1459 1450 1460 0
-1459 -75 1460 0
-1460 1449 0
-1458 1449 0
-1460 -1458 0
-74 1459 1461 0
-73 1459 1461 0
-73 -74 1461 0
-1461 1458 0
-1469 1377 1470 0
-1465 1377 1470 0
-1465 -1469 1470 0
-1470 1374 0
-1466 1374 0
-1470 -1466 1375 0
-1467 1375 0
-1470 -1467 1376 0
-1468 1376 0
-1470 -1468 0
-1462 1374 0
-1470 -1462 1375 0
-1463 1375 0
-1470 -1463 1376 0
-1464 1376 0
-1470 -1464 0
-1462 -1466 1375 0
-1470 -1462 -1466 1376 0
-1462 -1467 1376 0
-1470 -1462 -1467 0
-1462 -1468 0
-1470 -1462 -1468 0
-1463 -1466 1376 0
-1470 -1463 -1466 0
-1463 -1467 0
-1470 -1463 -1467 0
-1463 -1468 0
-1470 -1463 -1468 0
-1464 -1466 0
-1470 -1464 -1466 0
-1464 -1467 0
-1470 -1464 -1467 0
-1464 -1468 0
-1470 -1464 -1468 0
-1478 1469 1479 0
-1474 1469 1479 0
-1474 -1478 1479 0
-1479 1466 0
-1475 1466 0
-1479 -1475 1467 0
-1476 1467 0
-1479 -1476 1468 0
-1477 1468 0
-1479 -1477 0
-1471 1466 0
-1479 -1471 1467 0
-1472 1467 0
-1479 -1472 1468 0
-1473 1468 0
-1479 -1473 0
-1471 -1475 1467 0
-1479 -1471 -1475 1468 0
-1471 -1476 1468 0
-1479 -1471 -1476 0
-1471 -1477 0
-1479 -1471 -1477 0
-1472 -1475 1468 0
-1479 -1472 -1475 0
-1472 -1476 0
-1479 -1472 -1476 0
-1472 -1477 0
-1479 -1472 -1477 0
-1473 -1475 0
-1479 -1473 -1475 0
-1473 -1476 0
-1479 -1473 -1476 0
-1473 -1477 0
-1479 -1473 -1477 0
-1483 1478 1484 0
-1481 1478 1484 0
-1481 -1483 1484 0
-1484 1475 0
-1482 1475 0
-1484 -1482 1476 0
-1480 1475 0
-1484 -1480 1476 0
-1480 -1482 1476 0
-1484 -1480 -1482 1477 0
-72 1483 1487 0
-1486 1483 1487 0
-1486 -72 1487 0
-1487 1482 0
-1485 1482 0
-1487 -1485 0
-71 1486 1488 0
-70 1486 1488 0
-70 -71 1488 0
-1488 1485 0
-69 1481 1491 0
-1490 1481 1491 0
-1490 -69 1491 0
-1491 1480 0
-1489 1480 0
-1491 -1489 0
-68 1490 1492 0
-67 1490 1492 0
-67 -68 1492 0
-1492 1489 0
-1496 1474 1497 0
-1494 1474 1497 0
-1494 -1496 1497 0
-1497 1471 0
-1495 1471 0
-1497 -1495 1472 0
-1493 1471 0
-1497 -1493 1472 0
-1493 -1495 1472 0
-1497 -1493 -1495 1473 0
-66 1496 1500 0
-1499 1496 1500 0
-1499 -66 1500 0
-1500 1495 0
-1498 1495 0
-1500 -1498 0
-65 1499 1501 0
-64 1499 1501 0
-64 -65 1501 0
-1501 1498 0
-63 1494 1504 0
-1503 1494 1504 0
-1503 -63 1504 0
-1504 1493 0
-1502 1493 0
-1504 -1502 0
-62 1503 1505 0
-61 1503 1505 0
-61 -62 1505 0
-1505 1502 0
-1513 1465 1514 0
-1509 1465 1514 0
-1509 -1513 1514 0
-1514 1462 0
-1510 1462 0
-1514 -1510 1463 0
-1511 1463 0
-1514 -1511 1464 0
-1512 1464 0
-1514 -1512 0
-1506 1462 0
-1514 -1506 1463 0
-1507 1463 0
-1514 -1507 1464 0
-1508 1464 0
-1514 -1508 0
-1506 -1510 1463 0
-1514 -1506 -1510 1464 0
-1506 -1511 1464 0
-1514 -1506 -1511 0
-1506 -1512 0
-1514 -1506 -1512 0
-1507 -1510 1464 0
-1514 -1507 -1510 0
-1507 -1511 0
-1514 -1507 -1511 0
-1507 -1512 0
-1514 -1507 -1512 0
-1508 -1510 0
-1514 -1508 -1510 0
-1508 -1511 0
-1514 -1508 -1511 0
-1508 -1512 0
-1514 -1508 -1512 0
-1518 1513 1519 0
-1516 1513 1519 0
-1516 -1518 1519 0
-1519 1510 0
-1517 1510 0
-1519 -1517 1511 0
-1515 1510 0
-1519 -1515 1511 0
-1515 -1517 1511 0
-1519 -1515 -1517 1512 0
-60 1518 1522 0
-1521 1518 1522 0
-1521 -60 1522 0
-1522 1517 0
-1520 1517 0
-1522 -1520 0
-59 1521 1523 0
-58 1521 1523 0
-58 -59 1523 0
-1523 1520 0
-57 1516 1526 0
-1525 1516 1526 0
-1525 -57 1526 0
-1526 1515 0
-1524 1515 0
-1526 -1524 0
-56 1525 1527 0
-55 1525 1527 0
-55 -56 1527 0
-1527 1524 0
-1531 1509 1532 0
-1529 1509 1532 0
-1529 -1531 1532 0
-1532 1506 0
-1530 1506 0
-1532 -1530 1507 0
-1528 1506 0
-1532 -1528 1507 0
-1528 -1530 1507 0
-1532 -1528 -1530 1508 0
-54 1531 1535 0
-1534 1531 1535 0
-1534 -54 1535 0
-1535 1530 0
-1533 1530 0
-1535 -1533 0
-53 1534 1536 0
-52 1534 1536 0
-52 -53 1536 0
-1536 1533 0
-51 1529 1539 0
-1538 1529 1539 0
-1538 -51 1539 0
-1539 1528 0
-1537 1528 0
-1539 -1537 0
-50 1538 1540 0
-49 1538 1540 0
-49 -50 1540 0
-1540 1537 0
-1548 1368 1549 0
-1544 1368 1549 0
-1544 -1548 1549 0
-1549 1365 0
-1545 1365 0
-1549 -1545 1366 0
-1546 1366 0
-1549 -1546 1367 0
-1547 1367 0
-1549 -1547 0
-1541 1365 0
-1549 -1541 1366 0
-1542 1366 0
-1549 -1542 1367 0
-1543 1367 0
-1549 -1543 0
-1541 -1545 1366 0
-1549 -1541 -1545 1367 0
-1541 -1546 1367 0
-1549 -1541 -1546 0
-1541 -1547 0
-1549 -1541 -1547 0
-1542 -1545 1367 0
-1549 -1542 -1545 0
-1542 -1546 0
-1549 -1542 -1546 0
-1542 -1547 0
-1549 -1542 -1547 0
-1543 -1545 0
-1549 -1543 -1545 0
-1543 -1546 0
-1549 -1543 -1546 0
-1543 -1547 0
-1549 -1543 -1547 0
-1557 1548 1558 0
-1553 1548 1558 0
-1553 -1557 1558 0
-1558 1545 0
-1554 1545 0
-1558 -1554 1546 0
-1555 1546 0
-1558 -1555 1547 0
-1556 1547 0
-1558 -1556 0
-1550 1545 0
-1558 -1550 1546 0
-1551 1546 0
-1558 -1551 1547 0
-1552 1547 0
-1558 -1552 0
-1550 -1554 1546 0
-1558 -1550 -1554 1547 0
-1550 -1555 1547 0
-1558 -1550 -1555 0
-1550 -1556 0
-1558 -1550 -1556 0
-1551 -1554 1547 0
-1558 -1551 -1554 0
-1551 -1555 0
-1558 -1551 -1555 0
-1551 -1556 0
-1558 -1551 -1556 0
-1552 -1554 0
-1558 -1552 -1554 0
-1552 -1555 0
-1558 -1552 -1555 0
-1552 -1556 0
-1558 -1552 -1556 0
-1566 1557 1567 0
-1562 1557 1567 0
-1562 -1566 1567 0
-1567 1554 0
-1563 1554 0
-1567 -1563 1555 0
-1564 1555 0
-1567 -1564 1556 0
-1565 1556 0
-1567 -1565 0
-1559 1554 0
-1567 -1559 1555 0
-1560 1555 0
-1567 -1560 1556 0
-1561 1556 0
-1567 -1561 0
-1559 -1563 1555 0
-1567 -1559 -1563 1556 0
-1559 -1564 1556 0
-1567 -1559 -1564 0
-1559 -1565 0
-1567 -1559 -1565 0
-1560 -1563 1556 0
-1567 -1560 -1563 0
-1560 -1564 0
-1567 -1560 -1564 0
-1560 -1565 0
-1567 -1560 -1565 0
-1561 -1563 0
-1567 -1561 -1563 0
-1561 -1564 0
-1567 -1561 -1564 0
-1561 -1565 0
-1567 -1561 -1565 0
-1571 1566 1572 0
-1569 1566 1572 0
-1569 -1571 1572 0
-1572 1563 0
-1570 1563 0
-1572 -1570 1564 0
-1568 1563 0
-1572 -1568 1564 0
-1568 -1570 1564 0
-1572 -1568 -1570 1565 0
-48 1571 1575 0
-1574 1571 1575 0
-1574 -48 1575 0
-1575 1570 0
-1573 1570 0
-1575 -1573 0
-47 1574 1576 0
-46 1574 1576 0
-46 -47 1576 0
-1576 1573 0
-45 1569 1579 0
-1578 1569 1579 0
-1578 -45 1579 0
-1579 1568 0
-1577 1568 0
-1579 -1577 0
-44 1578 1580 0
-43 1578 1580 0
-43 -44 1580 0
-1580 1577 0
-1584 1562 1585 0
-1582 1562 1585 0
-1582 -1584 1585 0
-1585 1559 0
-1583 1559 0
-1585 -1583 1560 0
-1581 1559 0
-1585 -1581 1560 0
-1581 -1583 1560 0
-1585 -1581 -1583 1561 0
-42 1584 1588 0
-1587 1584 1588 0
-1587 -42 1588 0
-1588 1583 0
-1586 1583 0
-1588 -1586 0
-41 1587 1589 0
-40 1587 1589 0
-40 -41 1589 0
-1589 1586 0
-39 1582 1592 0
-1591 1582 1592 0
-1591 -39 1592 0
-1592 1581 0
-1590 1581 0
-1592 -1590 0
-38 1591 1593 0
-37 1591 1593 0
-37 -38 1593 0
-1593 1590 0
-1601 1553 1602 0
-1597 1553 1602 0
-1597 -1601 1602 0
-1602 1550 0
-1598 1550 0
-1602 -1598 1551 0
-1599 1551 0
-1602 -1599 1552 0
-1600 1552 0
-1602 -1600 0
-1594 1550 0
-1602 -1594 1551 0
-1595 1551 0
-1602 -1595 1552 0
-1596 1552 0
-1602 -1596 0
-1594 -1598 1551 0
-1602 -1594 -1598 1552 0
-1594 -1599 1552 0
-1602 -1594 -1599 0
-1594 -1600 0
-1602 -1594 -1600 0
-1595 -1598 1552 0
-1602 -1595 -1598 0
-1595 -1599 0
-1602 -1595 -1599 0
-1595 -1600 0
-1602 -1595 -1600 0
-1596 -1598 0
-1602 -1596 -1598 0
-1596 -1599 0
-1602 -1596 -1599 0
-1596 -1600 0
-1602 -1596 -1600 0
-1606 1601 1607 0
-1604 1601 1607 0
-1604 -1606 1607 0
-1607 1598 0
-1605 1598 0
-1607 -1605 1599 0
-1603 1598 0
-1607 -1603 1599 0
-1603 -1605 1599 0
-1607 -1603 -1605 1600 0
-36 1606 1610 0
-1609 1606 1610 0
-1609 -36 1610 0
-1610 1605 0
-1608 1605 0
-1610 -1608 0
-35 1609 1611 0
-34 1609 1611 0
-34 -35 1611 0
-1611 1608 0
-33 1604 1614 0
-1613 1604 1614 0
-1613 -33 1614 0
-1614 1603 0
-1612 1603 0
-1614 -1612 0
-32 1613 1615 0
-31 1613 1615 0
-31 -32 1615 0
-1615 1612 0
-1619 1597 1620 0
-1617 1597 1620 0
-1617 -1619 1620 0
-1620 1594 0
-1618 1594 0
-1620 -1618 1595 0
-1616 1594 0
-1620 -1616 1595 0
-1616 -1618 1595 0
-1620 -1616 -1618 1596 0
-30 1619 1623 0
-1622 1619 1623 0
-1622 -30 1623 0
-1623 1618 0
-1621 1618 0
-1623 -1621 0
-29 1622 1624 0
-28 1622 1624 0
-28 -29 1624 0
-1624 1621 0
-27 1617 1627 0
-1626 1617 1627 0
-1626 -27 1627 0
-1627 1616 0
-1625 1616 0
-1627 -1625 0
-26 1626 1628 0
-25 1626 1628 0
-25 -26 1628 0
-1628 1625 0
-1636 1544 1637 0
-1632 1544 1637 0
-1632 -1636 1637 0
-1637 1541 0
-1633 1541 0
-1637 -1633 1542 0
-1634 1542 0
-1637 -1634 1543 0
-1635 1543 0
-1637 -1635 0
-1629 1541 0
-1637 -1629 1542 0
-1630 1542 0
-1637 -1630 1543 0
-1631 1543 0
-1637 -1631 0
-1629 -1633 1542 0
-1637 -1629 -1633 1543 0
-1629 -1634 1543 0
-1637 -1629 -1634 0
-1629 -1635 0
-1637 -1629 -1635 0
-1630 -1633 1543 0
-1637 -1630 -1633 0
-1630 -1634 0
-1637 -1630 -1634 0
-1630 -1635 0
-1637 -1630 -1635 0
-1631 -1633 0
-1637 -1631 -1633 0
-1631 -1634 0
-1637 -1631 -1634 0
-1631 -1635 0
-1637 -1631 -1635 0
-1645 1636 1646 0
-1641 1636 1646 0
-1641 -1645 1646 0
-1646 1633 0
-1642 1633 0
-1646 -1642 1634 0
-1643 1634 0
-1646 -1643 1635 0
-1644 1635 0
-1646 -1644 0
-1638 1633 0
-1646 -1638 1634 0
-1639 1634 0
-1646 -1639 1635 0
-1640 1635 0
-1646 -1640 0
-1638 -1642 1634 0
-1646 -1638 -1642 1635 0
-1638 -1643 1635 0
-1646 -1638 -1643 0
-1638 -1644 0
-1646 -1638 -1644 0
-1639 -1642 1635 0
-1646 -1639 -1642 0
-1639 -1643 0
-1646 -1639 -1643 0
-1639 -1644 0
-1646 -1639 -1644 0
-1640 -1642 0
-1646 -1640 -1642 0
-1640 -1643 0
-1646 -1640 -1643 0
-1640 -1644 0
-1646 -1640 -1644 0
-1650 1645 1651 0
-1648 1645 1651 0
-1648 -1650 1651 0
-1651 1642 0
-1649 1642 0
-1651 -1649 1643 0
-1647 1642 0
-1651 -1647 1643 0
-1647 -1649 1643 0
-1651 -1647 -1649 1644 0
-24 1650 1654 0
-1653 1650 1654 0
-1653 -24 1654 0
-1654 1649 0
-1652 1649 0
-1654 -1652 0
-23 1653 1655 0
-22 1653 1655 0
-22 -23 1655 0
-1655 1652 0
-21 1648 1658 0
-1657 1648 1658 0
-1657 -21 1658 0
-1658 1647 0
-1656 1647 0
-1658 -1656 0
-20 1657 1659 0
-19 1657 1659 0
-19 -20 1659 0
-1659 1656 0
-1663 1641 1664 0
-1661 1641 1664 0
-1661 -1663 1664 0
-1664 1638 0
-1662 1638 0
-1664 -1662 1639 0
-1660 1638 0
-1664 -1660 1639 0
-1660 -1662 1639 0
-1664 -1660 -1662 1640 0
-18 1663 1667 0
-1666 1663 1667 0
-1666 -18 1667 0
-1667 1662 0
-1665 1662 0
-1667 -1665 0
-17 1666 1668 0
-16 1666 1668 0
-16 -17 1668 0
-1668 1665 0
-15 1661 1671 0
-1670 1661 1671 0
-1670 -15 1671 0
-1671 1660 0
-1669 1660 0
-1671 -1669 0
-14 1670 1672 0
-13 1670 1672 0
-13 -14 1672 0
-1672 1669 0
-1680 1632 1681 0
-1676 1632 1681 0
-1676 -1680 1681 0
-1681 1629 0
-1677 1629 0
-1681 -1677 1630 0
-1678 1630 0
-1681 -1678 1631 0
-1679 1631 0
-1681 -1679 0
-1673 1629 0
-1681 -1673 1630 0
-1674 1630 0
-1681 -1674 1631 0
-1675 1631 0
-1681 -1675 0
-1673 -1677 1630 0
-1681 -1673 -1677 1631 0
-1673 -1678 1631 0
-1681 -1673 -1678 0
-1673 -1679 0
-1681 -1673 -1679 0
-1674 -1677 1631 0
-1681 -1674 -1677 0
-1674 -1678 0
-1681 -1674 -1678 0
-1674 -1679 0
-1681 -1674 -1679 0
-1675 -1677 0
-1681 -1675 -1677 0
-1675 -1678 0
-1681 -1675 -1678 0
-1675 -1679 0
-1681 -1675 -1679 0
-1685 1680 1686 0
-1683 1680 1686 0
-1683 -1685 1686 0
-1686 1677 0
-1684 1677 0
-1686 -1684 1678 0
-1682 1677 0
-1686 -1682 1678 0
-1682 -1684 1678 0
-1686 -1682 -1684 1679 0
-12 1685 1689 0
-1688 1685 1689 0
-1688 -12 1689 0
-1689 1684 0
-1687 1684 0
-1689 -1687 0
-11 1688 1690 0
-10 1688 1690 0
-10 -11 1690 0
-1690 1687 0
-9 1683 1693 0
-1692 1683 1693 0
-1692 -9 1693 0
-1693 1682 0
-1691 1682 0
-1693 -1691 0
-8 1692 1694 0
-7 1692 1694 0
-7 -8 1694 0
-1694 1691 0
-1698 1676 1699 0
-1696 1676 1699 0
-1696 -1698 1699 0
-1699 1673 0
-1697 1673 0
-1699 -1697 1674 0
-1695 1673 0
-1699 -1695 1674 0
-1695 -1697 1674 0
-1699 -1695 -1697 1675 0
-6 1698 1702 0
-1701 1698 1702 0
-1701 -6 1702 0
-1702 1697 0
-1700 1697 0
-1702 -1700 0
-5 1701 1703 0
-4 1701 1703 0
-4 -5 1703 0
-1703 1700 0
-3 1696 1706 0
-1705 1696 1706 0
-1705 -3 1706 0
-1706 1695 0
-1704 1695 0
-1706 -1704 0
-2 1705 1707 0
-1 1705 1707 0
-1 -2 1707 0
-1707 1704 0
-1011 -1012 0
