p cnf 674 2107
1 36 -77 0
-1 -36 -77 0
1 -36 77 0
-1 36 77 0
77 37 -78 0
-77 -37 -78 0
77 -37 78 0
-77 37 78 0
78 38 -79 0
-78 -38 -79 0
78 -38 79 0
-78 38 79 0
79 39 -80 0
-79 -39 -80 0
79 -39 80 0
-79 39 80 0
80 67 -81 0
-80 -67 -81 0
80 -67 81 0
-80 67 81 0
81 71 -82 0
-81 -71 -82 0
81 -71 82 0
-81 71 82 0
82 73 -83 0
-82 -73 -83 0
82 -73 83 0
-82 73 83 0
-83 0
1 2 -84 0
-1 -2 -84 0
1 -2 84 0
-1 2 84 0
84 37 -85 0
-84 -37 -85 0
84 -37 85 0
-84 37 85 0
85 38 -86 0
-85 -38 -86 0
85 -38 86 0
-85 38 86 0
86 40 -87 0
-86 -40 -87 0
86 -40 87 0
-86 40 87 0
87 68 -88 0
-87 -68 -88 0
87 -68 88 0
-87 68 88 0
88 72 -89 0
-88 -72 -89 0
88 -72 89 0
-88 72 89 0
89 74 -90 0
-89 -74 -90 0
89 -74 90 0
-89 74 90 0
-90 0
1 2 -91 0
-1 -2 -91 0
1 -2 91 0
-1 2 91 0
91 3 -92 0
-91 -3 -92 0
91 -3 92 0
-91 3 92 0
92 38 -93 0
-92 -38 -93 0
92 -38 93 0
-92 38 93 0
93 41 -94 0
-93 -41 -94 0
93 -41 94 0
-93 41 94 0
94 69 -95 0
-94 -69 -95 0
94 -69 95 0
-94 69 95 0
95 73 -96 0
-95 -73 -96 0
95 -73 96 0
-95 73 96 0
96 75 -97 0
-96 -75 -97 0
96 -75 97 0
-96 75 97 0
-97 0
1 2 -98 0
-1 -2 -98 0
1 -2 98 0
-1 2 98 0
98 3 -99 0
-98 -3 -99 0
98 -3 99 0
-98 3 99 0
99 4 -100 0
-99 -4 -100 0
99 -4 100 0
-99 4 100 0
100 42 -101 0
-100 -42 -101 0
100 -42 101 0
-100 42 101 0
101 70 -102 0
-101 -70 -102 0
101 -70 102 0
-101 70 102 0
102 74 -103 0
-102 -74 -103 0
102 -74 103 0
-102 74 103 0
103 76 -104 0
-103 -76 -104 0
103 -76 104 0
-103 76 104 0
-104 0
2 3 -105 0
-2 -3 -105 0
2 -3 105 0
-2 3 105 0
105 4 -106 0
-105 -4 -106 0
105 -4 106 0
-105 4 106 0
106 5 -107 0
-106 -5 -107 0
106 -5 107 0
-106 5 107 0
107 39 -108 0
-107 -39 -108 0
107 -39 108 0
-107 39 108 0
108 43 -109 0
-108 -43 -109 0
108 -43 109 0
-108 43 109 0
109 71 -110 0
-109 -71 -110 0
109 -71 110 0
-109 71 110 0
110 75 -111 0
-110 -75 -111 0
110 -75 111 0
-110 75 111 0
-111 0
3 4 -112 0
-3 -4 -112 0
3 -4 112 0
-3 4 112 0
112 5 -113 0
-112 -5 -113 0
112 -5 113 0
-112 5 113 0
113 6 -114 0
-113 -6 -114 0
113 -6 114 0
-113 6 114 0
114 40 -115 0
-114 -40 -115 0
114 -40 115 0
-114 40 115 0
115 44 -116 0
-115 -44 -116 0
115 -44 116 0
-115 44 116 0
116 72 -117 0
-116 -72 -117 0
116 -72 117 0
-116 72 117 0
117 76 -118 0
-117 -76 -118 0
117 -76 118 0
-117 76 118 0
-118 0
4 5 -119 0
-4 -5 -119 0
4 -5 119 0
-4 5 119 0
119 6 -120 0
-119 -6 -120 0
119 -6 120 0
-119 6 120 0
120 7 -121 0
-120 -7 -121 0
120 -7 121 0
-120 7 121 0
121 39 -122 0
-121 -39 -122 0
121 -39 122 0
-121 39 122 0
122 41 -123 0
-122 -41 -123 0
122 -41 123 0
-122 41 123 0
123 45 -124 0
-123 -45 -124 0
123 -45 124 0
-123 45 124 0
124 73 -125 0
-124 -73 -125 0
124 -73 125 0
-124 73 125 0
-125 0
5 6 -126 0
-5 -6 -126 0
5 -6 126 0
-5 6 126 0
126 7 -127 0
-126 -7 -127 0
126 -7 127 0
-126 7 127 0
127 8 -128 0
-127 -8 -128 0
127 -8 128 0
-127 8 128 0
128 40 -129 0
-128 -40 -129 0
128 -40 129 0
-128 40 129 0
129 42 -130 0
-129 -42 -130 0
129 -42 130 0
-129 42 130 0
130 46 -131 0
-130 -46 -131 0
130 -46 131 0
-130 46 131 0
131 74 -132 0
-131 -74 -132 0
131 -74 132 0
-131 74 132 0
-132 0
6 7 -133 0
-6 -7 -133 0
6 -7 133 0
-6 7 133 0
133 8 -134 0
-133 -8 -134 0
133 -8 134 0
-133 8 134 0
134 9 -135 0
-134 -9 -135 0
134 -9 135 0
-134 9 135 0
135 41 -136 0
-135 -41 -136 0
135 -41 136 0
-135 41 136 0
136 43 -137 0
-136 -43 -137 0
136 -43 137 0
-136 43 137 0
137 47 -138 0
-137 -47 -138 0
137 -47 138 0
-137 47 138 0
138 75 -139 0
-138 -75 -139 0
138 -75 139 0
-138 75 139 0
-139 0
7 8 -140 0
-7 -8 -140 0
7 -8 140 0
-7 8 140 0
140 9 -141 0
-140 -9 -141 0
140 -9 141 0
-140 9 141 0
141 10 -142 0
-141 -10 -142 0
141 -10 142 0
-141 10 142 0
142 42 -143 0
-142 -42 -143 0
142 -42 143 0
-142 42 143 0
143 44 -144 0
-143 -44 -144 0
143 -44 144 0
-143 44 144 0
144 48 -145 0
-144 -48 -145 0
144 -48 145 0
-144 48 145 0
145 76 -146 0
-145 -76 -146 0
145 -76 146 0
-145 76 146 0
-146 0
8 9 -147 0
-8 -9 -147 0
8 -9 147 0
-8 9 147 0
147 10 -148 0
-147 -10 -148 0
147 -10 148 0
-147 10 148 0
148 11 -149 0
-148 -11 -149 0
148 -11 149 0
-148 11 149 0
149 39 -150 0
-149 -39 -150 0
149 -39 150 0
-149 39 150 0
150 43 -151 0
-150 -43 -151 0
150 -43 151 0
-150 43 151 0
151 45 -152 0
-151 -45 -152 0
151 -45 152 0
-151 45 152 0
152 49 -153 0
-152 -49 -153 0
152 -49 153 0
-152 49 153 0
-153 0
9 10 -154 0
-9 -10 -154 0
9 -10 154 0
-9 10 154 0
154 11 -155 0
-154 -11 -155 0
154 -11 155 0
-154 11 155 0
155 12 -156 0
-155 -12 -156 0
155 -12 156 0
-155 12 156 0
156 40 -157 0
-156 -40 -157 0
156 -40 157 0
-156 40 157 0
157 44 -158 0
-157 -44 -158 0
157 -44 158 0
-157 44 158 0
158 46 -159 0
-158 -46 -159 0
158 -46 159 0
-158 46 159 0
159 50 -160 0
-159 -50 -160 0
159 -50 160 0
-159 50 160 0
-160 0
10 11 -161 0
-10 -11 -161 0
10 -11 161 0
-10 11 161 0
161 12 -162 0
-161 -12 -162 0
161 -12 162 0
-161 12 162 0
162 13 -163 0
-162 -13 -163 0
162 -13 163 0
-162 13 163 0
163 41 -164 0
-163 -41 -164 0
163 -41 164 0
-163 41 164 0
164 45 -165 0
-164 -45 -165 0
164 -45 165 0
-164 45 165 0
165 47 -166 0
-165 -47 -166 0
165 -47 166 0
-165 47 166 0
166 51 -167 0
-166 -51 -167 0
166 -51 167 0
-166 51 167 0
-167 0
11 12 -168 0
-11 -12 -168 0
11 -12 168 0
-11 12 168 0
168 13 -169 0
-168 -13 -169 0
168 -13 169 0
-168 13 169 0
169 14 -170 0
-169 -14 -170 0
169 -14 170 0
-169 14 170 0
170 42 -171 0
-170 -42 -171 0
170 -42 171 0
-170 42 171 0
171 46 -172 0
-171 -46 -172 0
171 -46 172 0
-171 46 172 0
172 48 -173 0
-172 -48 -173 0
172 -48 173 0
-172 48 173 0
173 52 -174 0
-173 -52 -174 0
173 -52 174 0
-173 52 174 0
-174 0
12 13 -175 0
-12 -13 -175 0
12 -13 175 0
-12 13 175 0
175 14 -176 0
-175 -14 -176 0
175 -14 176 0
-175 14 176 0
176 15 -177 0
-176 -15 -177 0
176 -15 177 0
-176 15 177 0
177 43 -178 0
-177 -43 -178 0
177 -43 178 0
-177 43 178 0
178 47 -179 0
-178 -47 -179 0
178 -47 179 0
-178 47 179 0
179 49 -180 0
-179 -49 -180 0
179 -49 180 0
-179 49 180 0
180 53 -181 0
-180 -53 -181 0
180 -53 181 0
-180 53 181 0
-181 0
13 14 -182 0
-13 -14 -182 0
13 -14 182 0
-13 14 182 0
182 15 -183 0
-182 -15 -183 0
182 -15 183 0
-182 15 183 0
183 16 -184 0
-183 -16 -184 0
183 -16 184 0
-183 16 184 0
184 44 -185 0
-184 -44 -185 0
184 -44 185 0
-184 44 185 0
185 48 -186 0
-185 -48 -186 0
185 -48 186 0
-185 48 186 0
186 50 -187 0
-186 -50 -187 0
186 -50 187 0
-186 50 187 0
187 54 -188 0
-187 -54 -188 0
187 -54 188 0
-187 54 188 0
-188 0
14 15 -189 0
-14 -15 -189 0
14 -15 189 0
-14 15 189 0
189 16 -190 0
-189 -16 -190 0
189 -16 190 0
-189 16 190 0
190 17 -191 0
-190 -17 -191 0
190 -17 191 0
-190 17 191 0
191 45 -192 0
-191 -45 -192 0
191 -45 192 0
-191 45 192 0
192 49 -193 0
-192 -49 -193 0
192 -49 193 0
-192 49 193 0
193 51 -194 0
-193 -51 -194 0
193 -51 194 0
-193 51 194 0
194 55 -195 0
-194 -55 -195 0
194 -55 195 0
-194 55 195 0
-195 0
15 16 -196 0
-15 -16 -196 0
15 -16 196 0
-15 16 196 0
196 17 -197 0
-196 -17 -197 0
196 -17 197 0
-196 17 197 0
197 18 -198 0
-197 -18 -198 0
197 -18 198 0
-197 18 198 0
198 46 -199 0
-198 -46 -199 0
198 -46 199 0
-198 46 199 0
199 50 -200 0
-199 -50 -200 0
199 -50 200 0
-199 50 200 0
200 52 -201 0
-200 -52 -201 0
200 -52 201 0
-200 52 201 0
201 56 -202 0
-201 -56 -202 0
201 -56 202 0
-201 56 202 0
-202 0
16 17 -203 0
-16 -17 -203 0
16 -17 203 0
-16 17 203 0
203 18 -204 0
-203 -18 -204 0
203 -18 204 0
-203 18 204 0
204 19 -205 0
-204 -19 -205 0
204 -19 205 0
-204 19 205 0
205 47 -206 0
-205 -47 -206 0
205 -47 206 0
-205 47 206 0
206 51 -207 0
-206 -51 -207 0
206 -51 207 0
-206 51 207 0
207 53 -208 0
-207 -53 -208 0
207 -53 208 0
-207 53 208 0
208 57 -209 0
-208 -57 -209 0
208 -57 209 0
-208 57 209 0
-209 0
17 18 -210 0
-17 -18 -210 0
17 -18 210 0
-17 18 210 0
210 19 -211 0
-210 -19 -211 0
210 -19 211 0
-210 19 211 0
211 20 -212 0
-211 -20 -212 0
211 -20 212 0
-211 20 212 0
212 48 -213 0
-212 -48 -213 0
212 -48 213 0
-212 48 213 0
213 52 -214 0
-213 -52 -214 0
213 -52 214 0
-213 52 214 0
214 54 -215 0
-214 -54 -215 0
214 -54 215 0
-214 54 215 0
215 58 -216 0
-215 -58 -216 0
215 -58 216 0
-215 58 216 0
-216 0
18 19 -217 0
-18 -19 -217 0
18 -19 217 0
-18 19 217 0
217 20 -218 0
-217 -20 -218 0
217 -20 218 0
-217 20 218 0
218 21 -219 0
-218 -21 -219 0
218 -21 219 0
-218 21 219 0
219 49 -220 0
-219 -49 -220 0
219 -49 220 0
-219 49 220 0
220 53 -221 0
-220 -53 -221 0
220 -53 221 0
-220 53 221 0
221 55 -222 0
-221 -55 -222 0
221 -55 222 0
-221 55 222 0
222 59 -223 0
-222 -59 -223 0
222 -59 223 0
-222 59 223 0
-223 0
19 20 -224 0
-19 -20 -224 0
19 -20 224 0
-19 20 224 0
224 21 -225 0
-224 -21 -225 0
224 -21 225 0
-224 21 225 0
225 22 -226 0
-225 -22 -226 0
225 -22 226 0
-225 22 226 0
226 50 -227 0
-226 -50 -227 0
226 -50 227 0
-226 50 227 0
227 54 -228 0
-227 -54 -228 0
227 -54 228 0
-227 54 228 0
228 56 -229 0
-228 -56 -229 0
228 -56 229 0
-228 56 229 0
229 60 -230 0
-229 -60 -230 0
229 -60 230 0
-229 60 230 0
-230 0
20 21 -231 0
-20 -21 -231 0
20 -21 231 0
-20 21 231 0
231 22 -232 0
-231 -22 -232 0
231 -22 232 0
-231 22 232 0
232 23 -233 0
-232 -23 -233 0
232 -23 233 0
-232 23 233 0
233 51 -234 0
-233 -51 -234 0
233 -51 234 0
-233 51 234 0
234 55 -235 0
-234 -55 -235 0
234 -55 235 0
-234 55 235 0
235 57 -236 0
-235 -57 -236 0
235 -57 236 0
-235 57 236 0
236 61 -237 0
-236 -61 -237 0
236 -61 237 0
-236 61 237 0
-237 0
21 22 -238 0
-21 -22 -238 0
21 -22 238 0
-21 22 238 0
238 23 -239 0
-238 -23 -239 0
238 -23 239 0
-238 23 239 0
239 24 -240 0
-239 -24 -240 0
239 -24 240 0
-239 24 240 0
240 52 -241 0
-240 -52 -241 0
240 -52 241 0
-240 52 241 0
241 56 -242 0
-241 -56 -242 0
241 -56 242 0
-241 56 242 0
242 58 -243 0
-242 -58 -243 0
242 -58 243 0
-242 58 243 0
243 62 -244 0
-243 -62 -244 0
243 -62 244 0
-243 62 244 0
-244 0
22 23 -245 0
-22 -23 -245 0
22 -23 245 0
-22 23 245 0
245 24 -246 0
-245 -24 -246 0
245 -24 246 0
-245 24 246 0
246 25 -247 0
-246 -25 -247 0
246 -25 247 0
-246 25 247 0
247 53 -248 0
-247 -53 -248 0
247 -53 248 0
-247 53 248 0
248 57 -249 0
-248 -57 -249 0
248 -57 249 0
-248 57 249 0
249 59 -250 0
-249 -59 -250 0
249 -59 250 0
-249 59 250 0
250 63 -251 0
-250 -63 -251 0
250 -63 251 0
-250 63 251 0
-251 0
23 24 -252 0
-23 -24 -252 0
23 -24 252 0
-23 24 252 0
252 25 -253 0
-252 -25 -253 0
252 -25 253 0
-252 25 253 0
253 26 -254 0
-253 -26 -254 0
253 -26 254 0
-253 26 254 0
254 54 -255 0
-254 -54 -255 0
254 -54 255 0
-254 54 255 0
255 58 -256 0
-255 -58 -256 0
255 -58 256 0
-255 58 256 0
256 60 -257 0
-256 -60 -257 0
256 -60 257 0
-256 60 257 0
257 64 -258 0
-257 -64 -258 0
257 -64 258 0
-257 64 258 0
-258 0
24 25 -259 0
-24 -25 -259 0
24 -25 259 0
-24 25 259 0
259 26 -260 0
-259 -26 -260 0
259 -26 260 0
-259 26 260 0
260 27 -261 0
-260 -27 -261 0
260 -27 261 0
-260 27 261 0
261 55 -262 0
-261 -55 -262 0
261 -55 262 0
-261 55 262 0
262 59 -263 0
-262 -59 -263 0
262 -59 263 0
-262 59 263 0
263 61 -264 0
-263 -61 -264 0
263 -61 264 0
-263 61 264 0
264 65 -265 0
-264 -65 -265 0
264 -65 265 0
-264 65 265 0
-265 0
25 26 -266 0
-25 -26 -266 0
25 -26 266 0
-25 26 266 0
266 27 -267 0
-266 -27 -267 0
266 -27 267 0
-266 27 267 0
267 28 -268 0
-267 -28 -268 0
267 -28 268 0
-267 28 268 0
268 56 -269 0
-268 -56 -269 0
268 -56 269 0
-268 56 269 0
269 60 -270 0
-269 -60 -270 0
269 -60 270 0
-269 60 270 0
270 62 -271 0
-270 -62 -271 0
270 -62 271 0
-270 62 271 0
271 66 -272 0
-271 -66 -272 0
271 -66 272 0
-271 66 272 0
-272 0
26 27 -273 0
-26 -27 -273 0
26 -27 273 0
-26 27 273 0
273 28 -274 0
-273 -28 -274 0
273 -28 274 0
-273 28 274 0
274 29 -275 0
-274 -29 -275 0
274 -29 275 0
-274 29 275 0
275 57 -276 0
-275 -57 -276 0
275 -57 276 0
-275 57 276 0
276 61 -277 0
-276 -61 -277 0
276 -61 277 0
-276 61 277 0
277 63 -278 0
-277 -63 -278 0
277 -63 278 0
-277 63 278 0
278 67 -279 0
-278 -67 -279 0
278 -67 279 0
-278 67 279 0
-279 0
27 28 -280 0
-27 -28 -280 0
27 -28 280 0
-27 28 280 0
280 29 -281 0
-280 -29 -281 0
280 -29 281 0
-280 29 281 0
281 30 -282 0
-281 -30 -282 0
281 -30 282 0
-281 30 282 0
282 58 -283 0
-282 -58 -283 0
282 -58 283 0
-282 58 283 0
283 62 -284 0
-283 -62 -284 0
283 -62 284 0
-283 62 284 0
284 64 -285 0
-284 -64 -285 0
284 -64 285 0
-284 64 285 0
285 68 -286 0
-285 -68 -286 0
285 -68 286 0
-285 68 286 0
-286 0
28 29 -287 0
-28 -29 -287 0
28 -29 287 0
-28 29 287 0
287 30 -288 0
-287 -30 -288 0
287 -30 288 0
-287 30 288 0
288 31 -289 0
-288 -31 -289 0
288 -31 289 0
-288 31 289 0
289 59 -290 0
-289 -59 -290 0
289 -59 290 0
-289 59 290 0
290 63 -291 0
-290 -63 -291 0
290 -63 291 0
-290 63 291 0
291 65 -292 0
-291 -65 -292 0
291 -65 292 0
-291 65 292 0
292 69 -293 0
-292 -69 -293 0
292 -69 293 0
-292 69 293 0
-293 0
29 30 -294 0
-29 -30 -294 0
29 -30 294 0
-29 30 294 0
294 31 -295 0
-294 -31 -295 0
294 -31 295 0
-294 31 295 0
295 32 -296 0
-295 -32 -296 0
295 -32 296 0
-295 32 296 0
296 60 -297 0
-296 -60 -297 0
296 -60 297 0
-296 60 297 0
297 64 -298 0
-297 -64 -298 0
297 -64 298 0
-297 64 298 0
298 66 -299 0
-298 -66 -299 0
298 -66 299 0
-298 66 299 0
299 70 -300 0
-299 -70 -300 0
299 -70 300 0
-299 70 300 0
-300 0
30 31 -301 0
-30 -31 -301 0
30 -31 301 0
-30 31 301 0
301 32 -302 0
-301 -32 -302 0
301 -32 302 0
-301 32 302 0
302 33 -303 0
-302 -33 -303 0
302 -33 303 0
-302 33 303 0
303 61 -304 0
-303 -61 -304 0
303 -61 304 0
-303 61 304 0
304 65 -305 0
-304 -65 -305 0
304 -65 305 0
-304 65 305 0
305 67 -306 0
-305 -67 -306 0
305 -67 306 0
-305 67 306 0
306 71 -307 0
-306 -71 -307 0
306 -71 307 0
-306 71 307 0
-307 0
31 32 -308 0
-31 -32 -308 0
31 -32 308 0
-31 32 308 0
308 33 -309 0
-308 -33 -309 0
308 -33 309 0
-308 33 309 0
309 34 -310 0
-309 -34 -310 0
309 -34 310 0
-309 34 310 0
310 62 -311 0
-310 -62 -311 0
310 -62 311 0
-310 62 311 0
311 66 -312 0
-311 -66 -312 0
311 -66 312 0
-311 66 312 0
312 68 -313 0
-312 -68 -313 0
312 -68 313 0
-312 68 313 0
313 72 -314 0
-313 -72 -314 0
313 -72 314 0
-313 72 314 0
-314 0
32 33 -315 0
-32 -33 -315 0
32 -33 315 0
-32 33 315 0
315 34 -316 0
-315 -34 -316 0
315 -34 316 0
-315 34 316 0
316 35 -317 0
-316 -35 -317 0
316 -35 317 0
-316 35 317 0
317 63 -318 0
-317 -63 -318 0
317 -63 318 0
-317 63 318 0
318 67 -319 0
-318 -67 -319 0
318 -67 319 0
-318 67 319 0
319 69 -320 0
-319 -69 -320 0
319 -69 320 0
-319 69 320 0
320 73 -321 0
-320 -73 -321 0
320 -73 321 0
-320 73 321 0
-321 0
33 34 -322 0
-33 -34 -322 0
33 -34 322 0
-33 34 322 0
322 35 -323 0
-322 -35 -323 0
322 -35 323 0
-322 35 323 0
323 36 -324 0
-323 -36 -324 0
323 -36 324 0
-323 36 324 0
324 64 -325 0
-324 -64 -325 0
324 -64 325 0
-324 64 325 0
325 68 -326 0
-325 -68 -326 0
325 -68 326 0
-325 68 326 0
326 70 -327 0
-326 -70 -327 0
326 -70 327 0
-326 70 327 0
327 74 -328 0
-327 -74 -328 0
327 -74 328 0
-327 74 328 0
-328 0
34 35 -329 0
-34 -35 -329 0
34 -35 329 0
-34 35 329 0
329 36 -330 0
-329 -36 -330 0
329 -36 330 0
-329 36 330 0
330 37 -331 0
-330 -37 -331 0
330 -37 331 0
-330 37 331 0
331 65 -332 0
-331 -65 -332 0
331 -65 332 0
-331 65 332 0
332 69 -333 0
-332 -69 -333 0
332 -69 333 0
-332 69 333 0
333 71 -334 0
-333 -71 -334 0
333 -71 334 0
-333 71 334 0
334 75 -335 0
-334 -75 -335 0
334 -75 335 0
-334 75 335 0
-335 0
35 36 -336 0
-35 -36 -336 0
35 -36 336 0
-35 36 336 0
336 37 -337 0
-336 -37 -337 0
336 -37 337 0
-336 37 337 0
337 38 -338 0
-337 -38 -338 0
337 -38 338 0
-337 38 338 0
338 66 -339 0
-338 -66 -339 0
338 -66 339 0
-338 66 339 0
339 70 -340 0
-339 -70 -340 0
339 -70 340 0
-339 70 340 0
340 72 -341 0
-340 -72 -341 0
340 -72 341 0
-340 72 341 0
341 76 -342 0
-341 -76 -342 0
341 -76 342 0
-341 76 342 0
-342 0
1 41 -343 0
-1 -41 -343 0
1 -41 343 0
-1 41 343 0
343 43 -344 0
-343 -43 -344 0
343 -43 344 0
-343 43 344 0
344 45 -345 0
-344 -45 -345 0
344 -45 345 0
-344 45 345 0
345 47 -346 0
-345 -47 -346 0
345 -47 346 0
-345 47 346 0
346 49 -347 0
-346 -49 -347 0
346 -49 347 0
-346 49 347 0
347 51 -348 0
-347 -51 -348 0
347 -51 348 0
-347 51 348 0
348 53 -349 0
-348 -53 -349 0
348 -53 349 0
-348 53 349 0
349 55 -350 0
-349 -55 -350 0
349 -55 350 0
-349 55 350 0
350 57 -351 0
-350 -57 -351 0
350 -57 351 0
-350 57 351 0
351 59 -352 0
-351 -59 -352 0
351 -59 352 0
-351 59 352 0
352 61 -353 0
-352 -61 -353 0
352 -61 353 0
-352 61 353 0
353 63 -354 0
-353 -63 -354 0
353 -63 354 0
-353 63 354 0
354 65 -355 0
-354 -65 -355 0
354 -65 355 0
-354 65 355 0
355 67 -356 0
-355 -67 -356 0
355 -67 356 0
-355 67 356 0
356 69 -357 0
-356 -69 -357 0
356 -69 357 0
-356 69 357 0
357 70 -358 0
-357 -70 -358 0
357 -70 358 0
-357 70 358 0
358 73 -359 0
-358 -73 -359 0
358 -73 359 0
-358 73 359 0
359 75 -360 0
-359 -75 -360 0
359 -75 360 0
-359 75 360 0
360 76 -361 0
-360 -76 -361 0
360 -76 361 0
-360 76 361 0
2 41 -362 0
-2 -41 -362 0
2 -41 362 0
-2 41 362 0
362 42 -363 0
-362 -42 -363 0
362 -42 363 0
-362 42 363 0
363 43 -364 0
-363 -43 -364 0
363 -43 364 0
-363 43 364 0
364 44 -365 0
-364 -44 -365 0
364 -44 365 0
-364 44 365 0
365 45 -366 0
-365 -45 -366 0
365 -45 366 0
-365 45 366 0
366 46 -367 0
-366 -46 -367 0
366 -46 367 0
-366 46 367 0
367 47 -368 0
-367 -47 -368 0
367 -47 368 0
-367 47 368 0
368 48 -369 0
-368 -48 -369 0
368 -48 369 0
-368 48 369 0
369 49 -370 0
-369 -49 -370 0
369 -49 370 0
-369 49 370 0
370 50 -371 0
-370 -50 -371 0
370 -50 371 0
-370 50 371 0
371 51 -372 0
-371 -51 -372 0
371 -51 372 0
-371 51 372 0
372 52 -373 0
-372 -52 -373 0
372 -52 373 0
-372 52 373 0
373 53 -374 0
-373 -53 -374 0
373 -53 374 0
-373 53 374 0
374 54 -375 0
-374 -54 -375 0
374 -54 375 0
-374 54 375 0
375 55 -376 0
-375 -55 -376 0
375 -55 376 0
-375 55 376 0
376 56 -377 0
-376 -56 -377 0
376 -56 377 0
-376 56 377 0
377 57 -378 0
-377 -57 -378 0
377 -57 378 0
-377 57 378 0
378 58 -379 0
-378 -58 -379 0
378 -58 379 0
-378 58 379 0
379 59 -380 0
-379 -59 -380 0
379 -59 380 0
-379 59 380 0
380 60 -381 0
-380 -60 -381 0
380 -60 381 0
-380 60 381 0
381 61 -382 0
-381 -61 -382 0
381 -61 382 0
-381 61 382 0
382 62 -383 0
-382 -62 -383 0
382 -62 383 0
-382 62 383 0
383 63 -384 0
-383 -63 -384 0
383 -63 384 0
-383 63 384 0
384 64 -385 0
-384 -64 -385 0
384 -64 385 0
-384 64 385 0
385 65 -386 0
-385 -65 -386 0
385 -65 386 0
-385 65 386 0
386 66 -387 0
-386 -66 -387 0
386 -66 387 0
-386 66 387 0
387 67 -388 0
-387 -67 -388 0
387 -67 388 0
-387 67 388 0
388 68 -389 0
-388 -68 -389 0
388 -68 389 0
-388 68 389 0
389 69 -390 0
-389 -69 -390 0
389 -69 390 0
-389 69 390 0
390 70 -391 0
-390 -70 -391 0
390 -70 391 0
-390 70 391 0
391 73 -392 0
-391 -73 -392 0
391 -73 392 0
-391 73 392 0
392 74 -393 0
-392 -74 -393 0
392 -74 393 0
-392 74 393 0
393 75 -394 0
-393 -75 -394 0
393 -75 394 0
-393 75 394 0
394 76 -395 0
-394 -76 -395 0
394 -76 395 0
-394 76 395 0
3 41 -396 0
-3 -41 -396 0
3 -41 396 0
-3 41 396 0
396 42 -397 0
-396 -42 -397 0
396 -42 397 0
-396 42 397 0
397 44 -398 0
-397 -44 -398 0
397 -44 398 0
-397 44 398 0
398 46 -399 0
-398 -46 -399 0
398 -46 399 0
-398 46 399 0
399 48 -400 0
-399 -48 -400 0
399 -48 400 0
-399 48 400 0
400 50 -401 0
-400 -50 -401 0
400 -50 401 0
-400 50 401 0
401 52 -402 0
-401 -52 -402 0
401 -52 402 0
-401 52 402 0
402 54 -403 0
-402 -54 -403 0
402 -54 403 0
-402 54 403 0
403 56 -404 0
-403 -56 -404 0
403 -56 404 0
-403 56 404 0
404 58 -405 0
-404 -58 -405 0
404 -58 405 0
-404 58 405 0
405 60 -406 0
-405 -60 -406 0
405 -60 406 0
-405 60 406 0
406 62 -407 0
-406 -62 -407 0
406 -62 407 0
-406 62 407 0
407 64 -408 0
-407 -64 -408 0
407 -64 408 0
-407 64 408 0
408 66 -409 0
-408 -66 -409 0
408 -66 409 0
-408 66 409 0
409 68 -410 0
-409 -68 -410 0
409 -68 410 0
-409 68 410 0
410 70 -411 0
-410 -70 -411 0
410 -70 411 0
-410 70 411 0
411 73 -412 0
-411 -73 -412 0
411 -73 412 0
-411 73 412 0
412 74 -413 0
-412 -74 -413 0
412 -74 413 0
-412 74 413 0
413 76 -414 0
-413 -76 -414 0
413 -76 414 0
-413 76 414 0
5 42 -415 0
-5 -42 -415 0
5 -42 415 0
-5 42 415 0
415 43 -416 0
-415 -43 -416 0
415 -43 416 0
-415 43 416 0
416 74 -417 0
-416 -74 -417 0
416 -74 417 0
-416 74 417 0
417 75 -418 0
-417 -75 -418 0
417 -75 418 0
-417 75 418 0
361 395 414 418 0
-1 0
-2 0
-3 0
-4 0
-5 0
-6 0
-7 0
-8 0
-9 0
-10 0
-11 0
-12 0
-13 0
-14 0
-15 0
-16 0
-17 0
-18 0
-19 0
-20 0
-21 0
-22 0
-23 0
-24 0
-25 0
-26 0
-27 0
-28 0
-29 0
-30 0
-31 0
-32 0
-33 0
-34 0
-35 0
-36 0
-37 0
-38 0
39 0
-427 421 428 0
-424 421 428 0
-424 -427 428 0
-428 419 0
-425 419 0
-428 -425 420 0
-426 420 0
-428 -426 0
-422 419 0
-428 -422 420 0
-423 420 0
-428 -423 0
-422 -425 420 0
-428 -422 -425 0
-422 -426 0
-428 -422 -426 0
-423 -425 0
-428 -423 -425 0
-423 -426 0
-428 -423 -426 0
-434 427 435 0
-431 427 435 0
-431 -434 435 0
-435 425 0
-432 425 0
-435 -432 426 0
-433 426 0
-435 -433 0
-429 425 0
-435 -429 426 0
-430 426 0
-435 -430 0
-429 -432 426 0
-435 -429 -432 0
-429 -433 0
-435 -429 -433 0
-430 -432 0
-435 -430 -432 0
-430 -433 0
-435 -430 -433 0
-441 434 442 0
-438 434 442 0
-438 -441 442 0
-442 432 0
-439 432 0
-442 -439 433 0
-440 433 0
-442 -440 0
-436 432 0
-442 -436 433 0
-437 433 0
-442 -437 0
-436 -439 433 0
-442 -436 -439 0
-436 -440 0
-442 -436 -440 0
-437 -439 0
-442 -437 -439 0
-437 -440 0
-442 -437 -440 0
-448 441 449 0
-445 441 449 0
-445 -448 449 0
-449 439 0
-446 439 0
-449 -446 440 0
-447 440 0
-449 -447 0
-443 439 0
-449 -443 440 0
-444 440 0
-449 -444 0
-443 -446 440 0
-449 -443 -446 0
-443 -447 0
-449 -443 -447 0
-444 -446 0
-449 -444 -446 0
-444 -447 0
-449 -444 -447 0
-453 448 454 0
-451 448 454 0
-451 -453 454 0
-454 446 0
-452 446 0
-454 -452 447 0
-450 446 0
-454 -450 447 0
-450 -452 447 0
-454 -450 -452 0
-76 453 455 0
-75 453 455 0
-75 -76 455 0
-455 452 0
-74 451 456 0
-73 451 456 0
-73 -74 456 0
-456 450 0
-460 445 461 0
-458 445 461 0
-458 -460 461 0
-461 443 0
-459 443 0
-461 -459 444 0
-457 443 0
-461 -457 444 0
-457 -459 444 0
-461 -457 -459 0
-72 460 462 0
-71 460 462 0
-71 -72 462 0
-462 459 0
-70 458 465 0
-464 458 465 0
-464 -70 465 0
-465 457 0
-463 457 0
-465 -463 0
-69 464 466 0
-68 464 466 0
-68 -69 466 0
-466 463 0
-472 438 473 0
-469 438 473 0
-469 -472 473 0
-473 436 0
-470 436 0
-473 -470 437 0
-471 437 0
-473 -471 0
-467 436 0
-473 -467 437 0
-468 437 0
-473 -468 0
-467 -470 437 0
-473 -467 -470 0
-467 -471 0
-473 -467 -471 0
-468 -470 0
-473 -468 -470 0
-468 -471 0
-473 -468 -471 0
-477 472 478 0
-475 472 478 0
-475 -477 478 0
-478 470 0
-476 470 0
-478 -476 471 0
-474 470 0
-478 -474 471 0
-474 -476 471 0
-478 -474 -476 0
-67 477 479 0
-66 477 479 0
-66 -67 479 0
-479 476 0
-65 475 482 0
-481 475 482 0
-481 -65 482 0
-482 474 0
-480 474 0
-482 -480 0
-64 481 483 0
-63 481 483 0
-63 -64 483 0
-483 480 0
-487 469 488 0
-485 469 488 0
-485 -487 488 0
-488 467 0
-486 467 0
-488 -486 468 0
-484 467 0
-488 -484 468 0
-484 -486 468 0
-488 -484 -486 0
-62 487 489 0
-61 487 489 0
-61 -62 489 0
-489 486 0
-60 485 492 0
-491 485 492 0
-491 -60 492 0
-492 484 0
-490 484 0
-492 -490 0
-59 491 493 0
-58 491 493 0
-58 -59 493 0
-493 490 0
-499 431 500 0
-496 431 500 0
-496 -499 500 0
-500 429 0
-497 429 0
-500 -497 430 0
-498 430 0
-500 -498 0
-494 429 0
-500 -494 430 0
-495 430 0
-500 -495 0
-494 -497 430 0
-500 -494 -497 0
-494 -498 0
-500 -494 -498 0
-495 -497 0
-500 -495 -497 0
-495 -498 0
-500 -495 -498 0
-506 499 507 0
-503 499 507 0
-503 -506 507 0
-507 497 0
-504 497 0
-507 -504 498 0
-505 498 0
-507 -505 0
-501 497 0
-507 -501 498 0
-502 498 0
-507 -502 0
-501 -504 498 0
-507 -501 -504 0
-501 -505 0
-507 -501 -505 0
-502 -504 0
-507 -502 -504 0
-502 -505 0
-507 -502 -505 0
-511 506 512 0
-509 506 512 0
-509 -511 512 0
-512 504 0
-510 504 0
-512 -510 505 0
-508 504 0
-512 -508 505 0
-508 -510 505 0
-512 -508 -510 0
-57 511 513 0
-56 511 513 0
-56 -57 513 0
-513 510 0
-55 509 514 0
-54 509 514 0
-54 -55 514 0
-514 508 0
-518 503 519 0
-516 503 519 0
-516 -518 519 0
-519 501 0
-517 501 0
-519 -517 502 0
-515 501 0
-519 -515 502 0
-515 -517 502 0
-519 -515 -517 0
-53 518 520 0
-52 518 520 0
-52 -53 520 0
-520 517 0
-51 516 523 0
-522 516 523 0
-522 -51 523 0
-523 515 0
-521 515 0
-523 -521 0
-50 522 524 0
-49 522 524 0
-49 -50 524 0
-524 521 0
-530 496 531 0
-527 496 531 0
-527 -530 531 0
-531 494 0
-528 494 0
-531 -528 495 0
-529 495 0
-531 -529 0
-525 494 0
-531 -525 495 0
-526 495 0
-531 -526 0
-525 -528 495 0
-531 -525 -528 0
-525 -529 0
-531 -525 -529 0
-526 -528 0
-531 -526 -528 0
-526 -529 0
-531 -526 -529 0
-535 530 536 0
-533 530 536 0
-533 -535 536 0
-536 528 0
-534 528 0
-536 -534 529 0
-532 528 0
-536 -532 529 0
-532 -534 529 0
-536 -532 -534 0
-48 535 537 0
-47 535 537 0
-47 -48 537 0
-537 534 0
-46 533 540 0
-539 533 540 0
-539 -46 540 0
-540 532 0
-538 532 0
-540 -538 0
-45 539 541 0
-44 539 541 0
-44 -45 541 0
-541 538 0
-545 527 546 0
-543 527 546 0
-543 -545 546 0
-546 525 0
-544 525 0
-546 -544 526 0
-542 525 0
-546 -542 526 0
-542 -544 526 0
-546 -542 -544 0
-43 545 547 0
-42 545 547 0
-42 -43 547 0
-547 544 0
-41 543 550 0
-549 543 550 0
-549 -41 550 0
-550 542 0
-548 542 0
-550 -548 0
-40 549 551 0
-39 549 551 0
-39 -40 551 0
-551 548 0
-557 424 558 0
-554 424 558 0
-554 -557 558 0
-558 422 0
-555 422 0
-558 -555 423 0
-556 423 0
-558 -556 0
-552 422 0
-558 -552 423 0
-553 423 0
-558 -553 0
-552 -555 423 0
-558 -552 -555 0
-552 -556 0
-558 -552 -556 0
-553 -555 0
-558 -553 -555 0
-553 -556 0
-558 -553 -556 0
-564 557 565 0
-561 557 565 0
-561 -564 565 0
-565 555 0
-562 555 0
-565 -562 556 0
-563 556 0
-565 -563 0
-559 555 0
-565 -559 556 0
-560 556 0
-565 -560 0
-559 -562 556 0
-565 -559 -562 0
-559 -563 0
-565 -559 -563 0
-560 -562 0
-565 -560 -562 0
-560 -563 0
-565 -560 -563 0
-571 564 572 0
-568 564 572 0
-568 -571 572 0
-572 562 0
-569 562 0
-572 -569 563 0
-570 563 0
-572 -570 0
-566 562 0
-572 -566 563 0
-567 563 0
-572 -567 0
-566 -569 563 0
-572 -566 -569 0
-566 -570 0
-572 -566 -570 0
-567 -569 0
-572 -567 -569 0
-567 -570 0
-572 -567 -570 0
-576 571 577 0
-574 571 577 0
-574 -576 577 0
-577 569 0
-575 569 0
-577 -575 570 0
-573 569 0
-577 -573 570 0
-573 -575 570 0
-577 -573 -575 0
-38 576 578 0
-37 576 578 0
-37 -38 578 0
-578 575 0
-36 574 579 0
-35 574 579 0
-35 -36 579 0
-579 573 0
-583 568 584 0
-581 568 584 0
-581 -583 584 0
-584 566 0
-582 566 0
-584 -582 567 0
-580 566 0
-584 -580 567 0
-580 -582 567 0
-584 -580 -582 0
-34 583 585 0
-33 583 585 0
-33 -34 585 0
-585 582 0
-32 581 588 0
-587 581 588 0
-587 -32 588 0
-588 580 0
-586 580 0
-588 -586 0
-31 587 589 0
-30 587 589 0
-30 -31 589 0
-589 586 0
-595 561 596 0
-592 561 596 0
-592 -595 596 0
-596 559 0
-593 559 0
-596 -593 560 0
-594 560 0
-596 -594 0
-590 559 0
-596 -590 560 0
-591 560 0
-596 -591 0
-590 -593 560 0
-596 -590 -593 0
-590 -594 0
-596 -590 -594 0
-591 -593 0
-596 -591 -593 0
-591 -594 0
-596 -591 -594 0
-600 595 601 0
-598 595 601 0
-598 -600 601 0
-601 593 0
-599 593 0
-601 -599 594 0
-597 593 0
-601 -597 594 0
-597 -599 594 0
-601 -597 -599 0
-29 600 602 0
-28 600 602 0
-28 -29 602 0
-602 599 0
-27 598 605 0
-604 598 605 0
-604 -27 605 0
-605 597 0
-603 597 0
-605 -603 0
-26 604 606 0
-25 604 606 0
-25 -26 606 0
-606 603 0
-610 592 611 0
-608 592 611 0
-608 -610 611 0
-611 590 0
-609 590 0
-611 -609 591 0
-607 590 0
-611 -607 591 0
-607 -609 591 0
-611 -607 -609 0
-24 610 612 0
-23 610 612 0
-23 -24 612 0
-612 609 0
-22 608 615 0
-614 608 615 0
-614 -22 615 0
-615 607 0
-613 607 0
-615 -613 0
-21 614 616 0
-20 614 616 0
-20 -21 616 0
-616 613 0
-622 554 623 0
-619 554 623 0
-619 -622 623 0
-623 552 0
-620 552 0
-623 -620 553 0
-621 553 0
-623 -621 0
-617 552 0
-623 -617 553 0
-618 553 0
-623 -618 0
-617 -620 553 0
-623 -617 -620 0
-617 -621 0
-623 -617 -621 0
-618 -620 0
-623 -618 -620 0
-618 -621 0
-623 -618 -621 0
-629 622 630 0
-626 622 630 0
-626 -629 630 0
-630 620 0
-627 620 0
-630 -627 621 0
-628 621 0
-630 -628 0
-624 620 0
-630 -624 621 0
-625 621 0
-630 -625 0
-624 -627 621 0
-630 -624 -627 0
-624 -628 0
-630 -624 -628 0
-625 -627 0
-630 -625 -627 0
-625 -628 0
-630 -625 -628 0
-634 629 635 0
-632 629 635 0
-632 -634 635 0
-635 627 0
-633 627 0
-635 -633 628 0
-631 627 0
-635 -631 628 0
-631 -633 628 0
-635 -631 -633 0
-19 634 636 0
-18 634 636 0
-18 -19 636 0
-636 633 0
-17 632 637 0
-16 632 637 0
-16 -17 637 0
-637 631 0
-641 626 642 0
-639 626 642 0
-639 -641 642 0
-642 624 0
-640 624 0
-642 -640 625 0
-638 624 0
-642 -638 625 0
-638 -640 625 0
-642 -638 -640 0
-15 641 643 0
-14 641 643 0
-14 -15 643 0
-643 640 0
-13 639 646 0
-645 639 646 0
-645 -13 646 0
-646 638 0
-644 638 0
-646 -644 0
-12 645 647 0
-11 645 647 0
-11 -12 647 0
-647 644 0
-653 619 654 0
-650 619 654 0
-650 -653 654 0
-654 617 0
-651 617 0
-654 -651 618 0
-652 618 0
-654 -652 0
-648 617 0
-654 -648 618 0
-649 618 0
-654 -649 0
-648 -651 618 0
-654 -648 -651 0
-648 -652 0
-654 -648 -652 0
-649 -651 0
-654 -649 -651 0
-649 -652 0
-654 -649 -652 0
-658 653 659 0
-656 653 659 0
-656 -658 659 0
-659 651 0
-657 651 0
-659 -657 652 0
-655 651 0
-659 -655 652 0
-655 -657 652 0
-659 -655 -657 0
-10 658 660 0
-9 658 660 0
-9 -10 660 0
-660 657 0
-8 656 663 0
-662 656 663 0
-662 -8 663 0
-663 655 0
-661 655 0
-663 -661 0
-7 662 664 0
-6 662 664 0
-6 -7 664 0
-664 661 0
-668 650 669 0
-666 650 669 0
-666 -668 669 0
-669 648 0
-667 648 0
-669 -667 649 0
-665 648 0
-669 -665 649 0
-665 -667 649 0
-669 -665 -667 0
-5 668 670 0
-4 668 670 0
-4 -5 670 0
-670 667 0
-3 666 673 0
-672 666 673 0
-672 -3 673 0
-673 665 0
-671 665 0
-673 -671 0
-2 672 674 0
-1 672 674 0
-1 -2 674 0
-674 671 0
-420 -421 0
