p cnf 269 806
1 15 -35 0
-1 -15 -35 0
1 -15 35 0
-1 15 35 0
35 16 -36 0
-35 -16 -36 0
35 -16 36 0
-35 16 36 0
36 17 -37 0
-36 -17 -37 0
36 -17 37 0
-36 17 37 0
37 18 -38 0
-37 -18 -38 0
37 -18 38 0
-37 18 38 0
38 30 -39 0
-38 -30 -39 0
38 -30 39 0
-38 30 39 0
39 32 -40 0
-39 -32 -40 0
39 -32 40 0
-39 32 40 0
40 33 -41 0
-40 -33 -41 0
40 -33 41 0
-40 33 41 0
-41 0
1 2 -42 0
-1 -2 -42 0
1 -2 42 0
-1 2 42 0
42 16 -43 0
-42 -16 -43 0
42 -16 43 0
-42 16 43 0
43 17 -44 0
-43 -17 -44 0
43 -17 44 0
-43 17 44 0
44 19 -45 0
-44 -19 -45 0
44 -19 45 0
-44 19 45 0
45 31 -46 0
-45 -31 -46 0
45 -31 46 0
-45 31 46 0
46 33 -47 0
-46 -33 -47 0
46 -33 47 0
-46 33 47 0
47 34 -48 0
-47 -34 -48 0
47 -34 48 0
-47 34 48 0
-48 0
1 2 -49 0
-1 -2 -49 0
1 -2 49 0
-1 2 49 0
49 3 -50 0
-49 -3 -50 0
49 -3 50 0
-49 3 50 0
50 17 -51 0
-50 -17 -51 0
50 -17 51 0
-50 17 51 0
51 18 -52 0
-51 -18 -52 0
51 -18 52 0
-51 18 52 0
52 20 -53 0
-52 -20 -53 0
52 -20 53 0
-52 20 53 0
53 32 -54 0
-53 -32 -54 0
53 -32 54 0
-53 32 54 0
54 34 -55 0
-54 -34 -55 0
54 -34 55 0
-54 34 55 0
-55 0
1 2 -56 0
-1 -2 -56 0
1 -2 56 0
-1 2 56 0
56 3 -57 0
-56 -3 -57 0
56 -3 57 0
-56 3 57 0
57 4 -58 0
-57 -4 -58 0
57 -4 58 0
-57 4 58 0
58 18 -59 0
-58 -18 -59 0
58 -18 59 0
-58 18 59 0
59 19 -60 0
-59 -19 -60 0
59 -19 60 0
-59 19 60 0
60 21 -61 0
-60 -21 -61 0
60 -21 61 0
-60 21 61 0
61 33 -62 0
-61 -33 -62 0
61 -33 62 0
-61 33 62 0
-62 0
2 3 -63 0
-2 -3 -63 0
2 -3 63 0
-2 3 63 0
63 4 -64 0
-63 -4 -64 0
63 -4 64 0
-63 4 64 0
64 5 -65 0
-64 -5 -65 0
64 -5 65 0
-64 5 65 0
65 19 -66 0
-65 -19 -66 0
65 -19 66 0
-65 19 66 0
66 20 -67 0
-66 -20 -67 0
66 -20 67 0
-66 20 67 0
67 22 -68 0
-67 -22 -68 0
67 -22 68 0
-67 22 68 0
68 34 -69 0
-68 -34 -69 0
68 -34 69 0
-68 34 69 0
-69 0
3 4 -70 0
-3 -4 -70 0
3 -4 70 0
-3 4 70 0
70 5 -71 0
-70 -5 -71 0
70 -5 71 0
-70 5 71 0
71 6 -72 0
-71 -6 -72 0
71 -6 72 0
-71 6 72 0
72 18 -73 0
-72 -18 -73 0
72 -18 73 0
-72 18 73 0
73 20 -74 0
-73 -20 -74 0
73 -20 74 0
-73 20 74 0
74 21 -75 0
-74 -21 -75 0
74 -21 75 0
-74 21 75 0
75 23 -76 0
-75 -23 -76 0
75 -23 76 0
-75 23 76 0
-76 0
4 5 -77 0
-4 -5 -77 0
4 -5 77 0
-4 5 77 0
77 6 -78 0
-77 -6 -78 0
77 -6 78 0
-77 6 78 0
78 7 -79 0
-78 -7 -79 0
78 -7 79 0
-78 7 79 0
79 19 -80 0
-79 -19 -80 0
79 -19 80 0
-79 19 80 0
80 21 -81 0
-80 -21 -81 0
80 -21 81 0
-80 21 81 0
81 22 -82 0
-81 -22 -82 0
81 -22 82 0
-81 22 82 0
82 24 -83 0
-82 -24 -83 0
82 -24 83 0
-82 24 83 0
-83 0
5 6 -84 0
-5 -6 -84 0
5 -6 84 0
-5 6 84 0
84 7 -85 0
-84 -7 -85 0
84 -7 85 0
-84 7 85 0
85 8 -86 0
-85 -8 -86 0
85 -8 86 0
-85 8 86 0
86 20 -87 0
-86 -20 -87 0
86 -20 87 0
-86 20 87 0
87 22 -88 0
-87 -22 -88 0
87 -22 88 0
-87 22 88 0
88 23 -89 0
-88 -23 -89 0
88 -23 89 0
-88 23 89 0
89 25 -90 0
-89 -25 -90 0
89 -25 90 0
-89 25 90 0
-90 0
6 7 -91 0
-6 -7 -91 0
6 -7 91 0
-6 7 91 0
91 8 -92 0
-91 -8 -92 0
91 -8 92 0
-91 8 92 0
92 9 -93 0
-92 -9 -93 0
92 -9 93 0
-92 9 93 0
93 21 -94 0
-93 -21 -94 0
93 -21 94 0
-93 21 94 0
94 23 -95 0
-94 -23 -95 0
94 -23 95 0
-94 23 95 0
95 24 -96 0
-95 -24 -96 0
95 -24 96 0
-95 24 96 0
96 26 -97 0
-96 -26 -97 0
96 -26 97 0
-96 26 97 0
-97 0
7 8 -98 0
-7 -8 -98 0
7 -8 98 0
-7 8 98 0
98 9 -99 0
-98 -9 -99 0
98 -9 99 0
-98 9 99 0
99 10 -100 0
-99 -10 -100 0
99 -10 100 0
-99 10 100 0
100 22 -101 0
-100 -22 -101 0
100 -22 101 0
-100 22 101 0
101 24 -102 0
-101 -24 -102 0
101 -24 102 0
-101 24 102 0
102 25 -103 0
-102 -25 -103 0
102 -25 103 0
-102 25 103 0
103 27 -104 0
-103 -27 -104 0
103 -27 104 0
-103 27 104 0
-104 0
8 9 -105 0
-8 -9 -105 0
8 -9 105 0
-8 9 105 0
105 10 -106 0
-105 -10 -106 0
105 -10 106 0
-105 10 106 0
106 11 -107 0
-106 -11 -107 0
106 -11 107 0
-106 11 107 0
107 23 -108 0
-107 -23 -108 0
107 -23 108 0
-107 23 108 0
108 25 -109 0
-108 -25 -109 0
108 -25 109 0
-108 25 109 0
109 26 -110 0
-109 -26 -110 0
109 -26 110 0
-109 26 110 0
110 28 -111 0
-110 -28 -111 0
110 -28 111 0
-110 28 111 0
-111 0
9 10 -112 0
-9 -10 -112 0
9 -10 112 0
-9 10 112 0
112 11 -113 0
-112 -11 -113 0
112 -11 113 0
-112 11 113 0
113 12 -114 0
-113 -12 -114 0
113 -12 114 0
-113 12 114 0
114 24 -115 0
-114 -24 -115 0
114 -24 115 0
-114 24 115 0
115 26 -116 0
-115 -26 -116 0
115 -26 116 0
-115 26 116 0
116 27 -117 0
-116 -27 -117 0
116 -27 117 0
-116 27 117 0
117 29 -118 0
-117 -29 -118 0
117 -29 118 0
-117 29 118 0
-118 0
10 11 -119 0
-10 -11 -119 0
10 -11 119 0
-10 11 119 0
119 12 -120 0
-119 -12 -120 0
119 -12 120 0
-119 12 120 0
120 13 -121 0
-120 -13 -121 0
120 -13 121 0
-120 13 121 0
121 25 -122 0
-121 -25 -122 0
121 -25 122 0
-121 25 122 0
122 27 -123 0
-122 -27 -123 0
122 -27 123 0
-122 27 123 0
123 28 -124 0
-123 -28 -124 0
123 -28 124 0
-123 28 124 0
124 30 -125 0
-124 -30 -125 0
124 -30 125 0
-124 30 125 0
-125 0
11 12 -126 0
-11 -12 -126 0
11 -12 126 0
-11 12 126 0
126 13 -127 0
-126 -13 -127 0
126 -13 127 0
-126 13 127 0
127 14 -128 0
-127 -14 -128 0
127 -14 128 0
-127 14 128 0
128 26 -129 0
-128 -26 -129 0
128 -26 129 0
-128 26 129 0
129 28 -130 0
-129 -28 -130 0
129 -28 130 0
-129 28 130 0
130 29 -131 0
-130 -29 -131 0
130 -29 131 0
-130 29 131 0
131 31 -132 0
-131 -31 -132 0
131 -31 132 0
-131 31 132 0
-132 0
12 13 -133 0
-12 -13 -133 0
12 -13 133 0
-12 13 133 0
133 14 -134 0
-133 -14 -134 0
133 -14 134 0
-133 14 134 0
134 15 -135 0
-134 -15 -135 0
134 -15 135 0
-134 15 135 0
135 27 -136 0
-135 -27 -136 0
135 -27 136 0
-135 27 136 0
136 29 -137 0
-136 -29 -137 0
136 -29 137 0
-136 29 137 0
137 30 -138 0
-137 -30 -138 0
137 -30 138 0
-137 30 138 0
138 32 -139 0
-138 -32 -139 0
138 -32 139 0
-138 32 139 0
-139 0
13 14 -140 0
-13 -14 -140 0
13 -14 140 0
-13 14 140 0
140 15 -141 0
-140 -15 -141 0
140 -15 141 0
-140 15 141 0
141 16 -142 0
-141 -16 -142 0
141 -16 142 0
-141 16 142 0
142 28 -143 0
-142 -28 -143 0
142 -28 143 0
-142 28 143 0
143 30 -144 0
-143 -30 -144 0
143 -30 144 0
-143 30 144 0
144 31 -145 0
-144 -31 -145 0
144 -31 145 0
-144 31 145 0
145 33 -146 0
-145 -33 -146 0
145 -33 146 0
-145 33 146 0
-146 0
14 15 -147 0
-14 -15 -147 0
14 -15 147 0
-14 15 147 0
147 16 -148 0
-147 -16 -148 0
147 -16 148 0
-147 16 148 0
148 17 -149 0
-148 -17 -149 0
148 -17 149 0
-148 17 149 0
149 29 -150 0
-149 -29 -150 0
149 -29 150 0
-149 29 150 0
150 31 -151 0
-150 -31 -151 0
150 -31 151 0
-150 31 151 0
151 32 -152 0
-151 -32 -152 0
151 -32 152 0
-151 32 152 0
152 34 -153 0
-152 -34 -153 0
152 -34 153 0
-152 34 153 0
-153 0
1 19 -154 0
-1 -19 -154 0
1 -19 154 0
-1 19 154 0
154 20 -155 0
-154 -20 -155 0
154 -20 155 0
-154 20 155 0
155 21 -156 0
-155 -21 -156 0
155 -21 156 0
-155 21 156 0
156 22 -157 0
-156 -22 -157 0
156 -22 157 0
-156 22 157 0
157 23 -158 0
-157 -23 -158 0
157 -23 158 0
-157 23 158 0
158 24 -159 0
-158 -24 -159 0
158 -24 159 0
-158 24 159 0
159 25 -160 0
-159 -25 -160 0
159 -25 160 0
-159 25 160 0
160 26 -161 0
-160 -26 -161 0
160 -26 161 0
-160 26 161 0
161 27 -162 0
-161 -27 -162 0
161 -27 162 0
-161 27 162 0
162 28 -163 0
-162 -28 -163 0
162 -28 163 0
-162 28 163 0
163 29 -164 0
-163 -29 -164 0
163 -29 164 0
-163 29 164 0
164 30 -165 0
-164 -30 -165 0
164 -30 165 0
-164 30 165 0
165 31 -166 0
-165 -31 -166 0
165 -31 166 0
-165 31 166 0
166 32 -167 0
-166 -32 -167 0
166 -32 167 0
-166 32 167 0
4 19 -168 0
-4 -19 -168 0
4 -19 168 0
-4 19 168 0
168 20 -169 0
-168 -20 -169 0
168 -20 169 0
-168 20 169 0
169 21 -170 0
-169 -21 -170 0
169 -21 170 0
-169 21 170 0
167 170 0
-1 0
-2 0
-3 0
-4 0
-5 0
-6 0
-7 0
-8 0
-9 0
-10 0
-11 0
-12 0
-13 0
-14 0
-15 0
-16 0
-17 0
18 0
-176 172 177 0
-174 172 177 0
-174 -176 177 0
-177 171 0
-175 171 0
-177 -175 0
-173 171 0
-177 -173 0
-173 -175 0
-177 -173 -175 0
-181 176 182 0
-179 176 182 0
-179 -181 182 0
-182 175 0
-180 175 0
-182 -180 0
-178 175 0
-182 -178 0
-178 -180 0
-182 -178 -180 0
-186 181 187 0
-184 181 187 0
-184 -186 187 0
-187 180 0
-185 180 0
-187 -185 0
-183 180 0
-187 -183 0
-183 -185 0
-187 -183 -185 0
-191 186 192 0
-189 186 192 0
-189 -191 192 0
-192 185 0
-190 185 0
-192 -190 0
-188 185 0
-192 -188 0
-188 -190 0
-192 -188 -190 0
-34 191 193 0
-33 191 193 0
-33 -34 193 0
-193 190 0
-32 189 194 0
-31 189 194 0
-31 -32 194 0
-194 188 0
-198 184 199 0
-196 184 199 0
-196 -198 199 0
-199 183 0
-197 183 0
-199 -197 0
-195 183 0
-199 -195 0
-195 -197 0
-199 -195 -197 0
-30 198 200 0
-29 198 200 0
-29 -30 200 0
-200 197 0
-28 196 201 0
-27 196 201 0
-27 -28 201 0
-201 195 0
-205 179 206 0
-203 179 206 0
-203 -205 206 0
-206 178 0
-204 178 0
-206 -204 0
-202 178 0
-206 -202 0
-202 -204 0
-206 -202 -204 0
-210 205 211 0
-208 205 211 0
-208 -210 211 0
-211 204 0
-209 204 0
-211 -209 0
-207 204 0
-211 -207 0
-207 -209 0
-211 -207 -209 0
-26 210 212 0
-25 210 212 0
-25 -26 212 0
-212 209 0
-24 208 213 0
-23 208 213 0
-23 -24 213 0
-213 207 0
-217 203 218 0
-215 203 218 0
-215 -217 218 0
-218 202 0
-216 202 0
-218 -216 0
-214 202 0
-218 -214 0
-214 -216 0
-218 -214 -216 0
-22 217 219 0
-21 217 219 0
-21 -22 219 0
-219 216 0
-20 215 222 0
-221 215 222 0
-221 -20 222 0
-222 214 0
-220 214 0
-222 -220 0
-19 221 223 0
-18 221 223 0
-18 -19 223 0
-223 220 0
-227 174 228 0
-225 174 228 0
-225 -227 228 0
-228 173 0
-226 173 0
-228 -226 0
-224 173 0
-228 -224 0
-224 -226 0
-228 -224 -226 0
-232 227 233 0
-230 227 233 0
-230 -232 233 0
-233 226 0
-231 226 0
-233 -231 0
-229 226 0
-233 -229 0
-229 -231 0
-233 -229 -231 0
-237 232 238 0
-235 232 238 0
-235 -237 238 0
-238 231 0
-236 231 0
-238 -236 0
-234 231 0
-238 -234 0
-234 -236 0
-238 -234 -236 0
-17 237 239 0
-16 237 239 0
-16 -17 239 0
-239 236 0
-15 235 240 0
-14 235 240 0
-14 -15 240 0
-240 234 0
-244 230 245 0
-242 230 245 0
-242 -244 245 0
-245 229 0
-243 229 0
-245 -243 0
-241 229 0
-245 -241 0
-241 -243 0
-245 -241 -243 0
-13 244 246 0
-12 244 246 0
-12 -13 246 0
-246 243 0
-11 242 247 0
-10 242 247 0
-10 -11 247 0
-247 241 0
-251 225 252 0
-249 225 252 0
-249 -251 252 0
-252 224 0
-250 224 0
-252 -250 0
-248 224 0
-252 -248 0
-248 -250 0
-252 -248 -250 0
-256 251 257 0
-254 251 257 0
-254 -256 257 0
-257 250 0
-255 250 0
-257 -255 0
-253 250 0
-257 -253 0
-253 -255 0
-257 -253 -255 0
-9 256 258 0
-8 256 258 0
-8 -9 258 0
-258 255 0
-7 254 259 0
-6 254 259 0
-6 -7 259 0
-259 253 0
-263 249 264 0
-261 249 264 0
-261 -263 264 0
-264 248 0
-262 248 0
-264 -262 0
-260 248 0
-264 -260 0
-260 -262 0
-264 -260 -262 0
-5 263 265 0
-4 263 265 0
-4 -5 265 0
-265 262 0
-3 261 268 0
-267 261 268 0
-267 -3 268 0
-268 260 0
-266 260 0
-268 -266 0
-2 267 269 0
-1 267 269 0
-1 -2 269 0
-269 266 0
