p cnf 742 2265
1 40 -85 0
-1 -40 -85 0
1 -40 85 0
-1 40 85 0
85 41 -86 0
-85 -41 -86 0
85 -41 86 0
-85 41 86 0
86 42 -87 0
-86 -42 -87 0
86 -42 87 0
-86 42 87 0
87 43 -88 0
-87 -43 -88 0
87 -43 88 0
-87 43 88 0
88 75 -89 0
-88 -75 -89 0
88 -75 89 0
-88 75 89 0
89 79 -90 0
-89 -79 -90 0
89 -79 90 0
-89 79 90 0
90 81 -91 0
-90 -81 -91 0
90 -81 91 0
-90 81 91 0
-91 0
1 2 -92 0
-1 -2 -92 0
1 -2 92 0
-1 2 92 0
92 41 -93 0
-92 -41 -93 0
92 -41 93 0
-92 41 93 0
93 42 -94 0
-93 -42 -94 0
93 -42 94 0
-93 42 94 0
94 44 -95 0
-94 -44 -95 0
94 -44 95 0
-94 44 95 0
95 76 -96 0
-95 -76 -96 0
95 -76 96 0
-95 76 96 0
96 80 -97 0
-96 -80 -97 0
96 -80 97 0
-96 80 97 0
97 82 -98 0
-97 -82 -98 0
97 -82 98 0
-97 82 98 0
-98 0
1 2 -99 0
-1 -2 -99 0
1 -2 99 0
-1 2 99 0
99 3 -100 0
-99 -3 -100 0
99 -3 100 0
-99 3 100 0
100 42 -101 0
-100 -42 -101 0
100 -42 101 0
-100 42 101 0
101 45 -102 0
-101 -45 -102 0
101 -45 102 0
-101 45 102 0
102 77 -103 0
-102 -77 -103 0
102 -77 103 0
-102 77 103 0
103 81 -104 0
-103 -81 -104 0
103 -81 104 0
-103 81 104 0
104 83 -105 0
-104 -83 -105 0
104 -83 105 0
-104 83 105 0
-105 0
1 2 -106 0
-1 -2 -106 0
1 -2 106 0
-1 2 106 0
106 3 -107 0
-106 -3 -107 0
106 -3 107 0
-106 3 107 0
107 4 -108 0
-107 -4 -108 0
107 -4 108 0
-107 4 108 0
108 46 -109 0
-108 -46 -109 0
108 -46 109 0
-108 46 109 0
109 78 -110 0
-109 -78 -110 0
109 -78 110 0
-109 78 110 0
110 82 -111 0
-110 -82 -111 0
110 -82 111 0
-110 82 111 0
111 84 -112 0
-111 -84 -112 0
111 -84 112 0
-111 84 112 0
-112 0
2 3 -113 0
-2 -3 -113 0
2 -3 113 0
-2 3 113 0
113 4 -114 0
-113 -4 -114 0
113 -4 114 0
-113 4 114 0
114 5 -115 0
-114 -5 -115 0
114 -5 115 0
-114 5 115 0
115 43 -116 0
-115 -43 -116 0
115 -43 116 0
-115 43 116 0
116 47 -117 0
-116 -47 -117 0
116 -47 117 0
-116 47 117 0
117 79 -118 0
-117 -79 -118 0
117 -79 118 0
-117 79 118 0
118 83 -119 0
-118 -83 -119 0
118 -83 119 0
-118 83 119 0
-119 0
3 4 -120 0
-3 -4 -120 0
3 -4 120 0
-3 4 120 0
120 5 -121 0
-120 -5 -121 0
120 -5 121 0
-120 5 121 0
121 6 -122 0
-121 -6 -122 0
121 -6 122 0
-121 6 122 0
122 44 -123 0
-122 -44 -123 0
122 -44 123 0
-122 44 123 0
123 48 -124 0
-123 -48 -124 0
123 -48 124 0
-123 48 124 0
124 80 -125 0
-124 -80 -125 0
124 -80 125 0
-124 80 125 0
125 84 -126 0
-125 -84 -126 0
125 -84 126 0
-125 84 126 0
-126 0
4 5 -127 0
-4 -5 -127 0
4 -5 127 0
-4 5 127 0
127 6 -128 0
-127 -6 -128 0
127 -6 128 0
-127 6 128 0
128 7 -129 0
-128 -7 -129 0
128 -7 129 0
-128 7 129 0
129 43 -130 0
-129 -43 -130 0
129 -43 130 0
-129 43 130 0
130 45 -131 0
-130 -45 -131 0
130 -45 131 0
-130 45 131 0
131 49 -132 0
-131 -49 -132 0
131 -49 132 0
-131 49 132 0
132 81 -133 0
-132 -81 -133 0
132 -81 133 0
-132 81 133 0
-133 0
5 6 -134 0
-5 -6 -134 0
5 -6 134 0
-5 6 134 0
134 7 -135 0
-134 -7 -135 0
134 -7 135 0
-134 7 135 0
135 8 -136 0
-135 -8 -136 0
135 -8 136 0
-135 8 136 0
136 44 -137 0
-136 -44 -137 0
136 -44 137 0
-136 44 137 0
137 46 -138 0
-137 -46 -138 0
137 -46 138 0
-137 46 138 0
138 50 -139 0
-138 -50 -139 0
138 -50 139 0
-138 50 139 0
139 82 -140 0
-139 -82 -140 0
139 -82 140 0
-139 82 140 0
-140 0
6 7 -141 0
-6 -7 -141 0
6 -7 141 0
-6 7 141 0
141 8 -142 0
-141 -8 -142 0
141 -8 142 0
-141 8 142 0
142 9 -143 0
-142 -9 -143 0
142 -9 143 0
-142 9 143 0
143 45 -144 0
-143 -45 -144 0
143 -45 144 0
-143 45 144 0
144 47 -145 0
-144 -47 -145 0
144 -47 145 0
-144 47 145 0
145 51 -146 0
-145 -51 -146 0
145 -51 146 0
-145 51 146 0
146 83 -147 0
-146 -83 -147 0
146 -83 147 0
-146 83 147 0
-147 0
7 8 -148 0
-7 -8 -148 0
7 -8 148 0
-7 8 148 0
148 9 -149 0
-148 -9 -149 0
148 -9 149 0
-148 9 149 0
149 10 -150 0
-149 -10 -150 0
149 -10 150 0
-149 10 150 0
150 46 -151 0
-150 -46 -151 0
150 -46 151 0
-150 46 151 0
151 48 -152 0
-151 -48 -152 0
151 -48 152 0
-151 48 152 0
152 52 -153 0
-152 -52 -153 0
152 -52 153 0
-152 52 153 0
153 84 -154 0
-153 -84 -154 0
153 -84 154 0
-153 84 154 0
-154 0
8 9 -155 0
-8 -9 -155 0
8 -9 155 0
-8 9 155 0
155 10 -156 0
-155 -10 -156 0
155 -10 156 0
-155 10 156 0
156 11 -157 0
-156 -11 -157 0
156 -11 157 0
-156 11 157 0
157 43 -158 0
-157 -43 -158 0
157 -43 158 0
-157 43 158 0
158 47 -159 0
-158 -47 -159 0
158 -47 159 0
-158 47 159 0
159 49 -160 0
-159 -49 -160 0
159 -49 160 0
-159 49 160 0
160 53 -161 0
-160 -53 -161 0
160 -53 161 0
-160 53 161 0
-161 0
9 10 -162 0
-9 -10 -162 0
9 -10 162 0
-9 10 162 0
162 11 -163 0
-162 -11 -163 0
162 -11 163 0
-162 11 163 0
163 12 -164 0
-163 -12 -164 0
163 -12 164 0
-163 12 164 0
164 44 -165 0
-164 -44 -165 0
164 -44 165 0
-164 44 165 0
165 48 -166 0
-165 -48 -166 0
165 -48 166 0
-165 48 166 0
166 50 -167 0
-166 -50 -167 0
166 -50 167 0
-166 50 167 0
167 54 -168 0
-167 -54 -168 0
167 -54 168 0
-167 54 168 0
-168 0
10 11 -169 0
-10 -11 -169 0
10 -11 169 0
-10 11 169 0
169 12 -170 0
-169 -12 -170 0
169 -12 170 0
-169 12 170 0
170 13 -171 0
-170 -13 -171 0
170 -13 171 0
-170 13 171 0
171 45 -172 0
-171 -45 -172 0
171 -45 172 0
-171 45 172 0
172 49 -173 0
-172 -49 -173 0
172 -49 173 0
-172 49 173 0
173 51 -174 0
-173 -51 -174 0
173 -51 174 0
-173 51 174 0
174 55 -175 0
-174 -55 -175 0
174 -55 175 0
-174 55 175 0
-175 0
11 12 -176 0
-11 -12 -176 0
11 -12 176 0
-11 12 176 0
176 13 -177 0
-176 -13 -177 0
176 -13 177 0
-176 13 177 0
177 14 -178 0
-177 -14 -178 0
177 -14 178 0
-177 14 178 0
178 46 -179 0
-178 -46 -179 0
178 -46 179 0
-178 46 179 0
179 50 -180 0
-179 -50 -180 0
179 -50 180 0
-179 50 180 0
180 52 -181 0
-180 -52 -181 0
180 -52 181 0
-180 52 181 0
181 56 -182 0
-181 -56 -182 0
181 -56 182 0
-181 56 182 0
-182 0
12 13 -183 0
-12 -13 -183 0
12 -13 183 0
-12 13 183 0
183 14 -184 0
-183 -14 -184 0
183 -14 184 0
-183 14 184 0
184 15 -185 0
-184 -15 -185 0
184 -15 185 0
-184 15 185 0
185 47 -186 0
-185 -47 -186 0
185 -47 186 0
-185 47 186 0
186 51 -187 0
-186 -51 -187 0
186 -51 187 0
-186 51 187 0
187 53 -188 0
-187 -53 -188 0
187 -53 188 0
-187 53 188 0
188 57 -189 0
-188 -57 -189 0
188 -57 189 0
-188 57 189 0
-189 0
13 14 -190 0
-13 -14 -190 0
13 -14 190 0
-13 14 190 0
190 15 -191 0
-190 -15 -191 0
190 -15 191 0
-190 15 191 0
191 16 -192 0
-191 -16 -192 0
191 -16 192 0
-191 16 192 0
192 48 -193 0
-192 -48 -193 0
192 -48 193 0
-192 48 193 0
193 52 -194 0
-193 -52 -194 0
193 -52 194 0
-193 52 194 0
194 54 -195 0
-194 -54 -195 0
194 -54 195 0
-194 54 195 0
195 58 -196 0
-195 -58 -196 0
195 -58 196 0
-195 58 196 0
-196 0
14 15 -197 0
-14 -15 -197 0
14 -15 197 0
-14 15 197 0
197 16 -198 0
-197 -16 -198 0
197 -16 198 0
-197 16 198 0
198 17 -199 0
-198 -17 -199 0
198 -17 199 0
-198 17 199 0
199 49 -200 0
-199 -49 -200 0
199 -49 200 0
-199 49 200 0
200 53 -201 0
-200 -53 -201 0
200 -53 201 0
-200 53 201 0
201 55 -202 0
-201 -55 -202 0
201 -55 202 0
-201 55 202 0
202 59 -203 0
-202 -59 -203 0
202 -59 203 0
-202 59 203 0
-203 0
15 16 -204 0
-15 -16 -204 0
15 -16 204 0
-15 16 204 0
204 17 -205 0
-204 -17 -205 0
204 -17 205 0
-204 17 205 0
205 18 -206 0
-205 -18 -206 0
205 -18 206 0
-205 18 206 0
206 50 -207 0
-206 -50 -207 0
206 -50 207 0
-206 50 207 0
207 54 -208 0
-207 -54 -208 0
207 -54 208 0
-207 54 208 0
208 56 -209 0
-208 -56 -209 0
208 -56 209 0
-208 56 209 0
209 60 -210 0
-209 -60 -210 0
209 -60 210 0
-209 60 210 0
-210 0
16 17 -211 0
-16 -17 -211 0
16 -17 211 0
-16 17 211 0
211 18 -212 0
-211 -18 -212 0
211 -18 212 0
-211 18 212 0
212 19 -213 0
-212 -19 -213 0
212 -19 213 0
-212 19 213 0
213 51 -214 0
-213 -51 -214 0
213 -51 214 0
-213 51 214 0
214 55 -215 0
-214 -55 -215 0
214 -55 215 0
-214 55 215 0
215 57 -216 0
-215 -57 -216 0
215 -57 216 0
-215 57 216 0
216 61 -217 0
-216 -61 -217 0
216 -61 217 0
-216 61 217 0
-217 0
17 18 -218 0
-17 -18 -218 0
17 -18 218 0
-17 18 218 0
218 19 -219 0
-218 -19 -219 0
218 -19 219 0
-218 19 219 0
219 20 -220 0
-219 -20 -220 0
219 -20 220 0
-219 20 220 0
220 52 -221 0
-220 -52 -221 0
220 -52 221 0
-220 52 221 0
221 56 -222 0
-221 -56 -222 0
221 -56 222 0
-221 56 222 0
222 58 -223 0
-222 -58 -223 0
222 -58 223 0
-222 58 223 0
223 62 -224 0
-223 -62 -224 0
223 -62 224 0
-223 62 224 0
-224 0
18 19 -225 0
-18 -19 -225 0
18 -19 225 0
-18 19 225 0
225 20 -226 0
-225 -20 -226 0
225 -20 226 0
-225 20 226 0
226 21 -227 0
-226 -21 -227 0
226 -21 227 0
-226 21 227 0
227 53 -228 0
-227 -53 -228 0
227 -53 228 0
-227 53 228 0
228 57 -229 0
-228 -57 -229 0
228 -57 229 0
-228 57 229 0
229 59 -230 0
-229 -59 -230 0
229 -59 230 0
-229 59 230 0
230 63 -231 0
-230 -63 -231 0
230 -63 231 0
-230 63 231 0
-231 0
19 20 -232 0
-19 -20 -232 0
19 -20 232 0
-19 20 232 0
232 21 -233 0
-232 -21 -233 0
232 -21 233 0
-232 21 233 0
233 22 -234 0
-233 -22 -234 0
233 -22 234 0
-233 22 234 0
234 54 -235 0
-234 -54 -235 0
234 -54 235 0
-234 54 235 0
235 58 -236 0
-235 -58 -236 0
235 -58 236 0
-235 58 236 0
236 60 -237 0
-236 -60 -237 0
236 -60 237 0
-236 60 237 0
237 64 -238 0
-237 -64 -238 0
237 -64 238 0
-237 64 238 0
-238 0
20 21 -239 0
-20 -21 -239 0
20 -21 239 0
-20 21 239 0
239 22 -240 0
-239 -22 -240 0
239 -22 240 0
-239 22 240 0
240 23 -241 0
-240 -23 -241 0
240 -23 241 0
-240 23 241 0
241 55 -242 0
-241 -55 -242 0
241 -55 242 0
-241 55 242 0
242 59 -243 0
-242 -59 -243 0
242 -59 243 0
-242 59 243 0
243 61 -244 0
-243 -61 -244 0
243 -61 244 0
-243 61 244 0
244 65 -245 0
-244 -65 -245 0
244 -65 245 0
-244 65 245 0
-245 0
21 22 -246 0
-21 -22 -246 0
21 -22 246 0
-21 22 246 0
246 23 -247 0
-246 -23 -247 0
246 -23 247 0
-246 23 247 0
247 24 -248 0
-247 -24 -248 0
247 -24 248 0
-247 24 248 0
248 56 -249 0
-248 -56 -249 0
248 -56 249 0
-248 56 249 0
249 60 -250 0
-249 -60 -250 0
249 -60 250 0
-249 60 250 0
250 62 -251 0
-250 -62 -251 0
250 -62 251 0
-250 62 251 0
251 66 -252 0
-251 -66 -252 0
251 -66 252 0
-251 66 252 0
-252 0
22 23 -253 0
-22 -23 -253 0
22 -23 253 0
-22 23 253 0
253 24 -254 0
-253 -24 -254 0
253 -24 254 0
-253 24 254 0
254 25 -255 0
-254 -25 -255 0
254 -25 255 0
-254 25 255 0
255 57 -256 0
-255 -57 -256 0
255 -57 256 0
-255 57 256 0
256 61 -257 0
-256 -61 -257 0
256 -61 257 0
-256 61 257 0
257 63 -258 0
-257 -63 -258 0
257 -63 258 0
-257 63 258 0
258 67 -259 0
-258 -67 -259 0
258 -67 259 0
-258 67 259 0
-259 0
23 24 -260 0
-23 -24 -260 0
23 -24 260 0
-23 24 260 0
260 25 -261 0
-260 -25 -261 0
260 -25 261 0
-260 25 261 0
261 26 -262 0
-261 -26 -262 0
261 -26 262 0
-261 26 262 0
262 58 -263 0
-262 -58 -263 0
262 -58 263 0
-262 58 263 0
263 62 -264 0
-263 -62 -264 0
263 -62 264 0
-263 62 264 0
264 64 -265 0
-264 -64 -265 0
264 -64 265 0
-264 64 265 0
265 68 -266 0
-265 -68 -266 0
265 -68 266 0
-265 68 266 0
-266 0
24 25 -267 0
-24 -25 -267 0
24 -25 267 0
-24 25 267 0
267 26 -268 0
-267 -26 -268 0
267 -26 268 0
-267 26 268 0
268 27 -269 0
-268 -27 -269 0
268 -27 269 0
-268 27 269 0
269 59 -270 0
-269 -59 -270 0
269 -59 270 0
-269 59 270 0
270 63 -271 0
-270 -63 -271 0
270 -63 271 0
-270 63 271 0
271 65 -272 0
-271 -65 -272 0
271 -65 272 0
-271 65 272 0
272 69 -273 0
-272 -69 -273 0
272 -69 273 0
-272 69 273 0
-273 0
25 26 -274 0
-25 -26 -274 0
25 -26 274 0
-25 26 274 0
274 27 -275 0
-274 -27 -275 0
274 -27 275 0
-274 27 275 0
275 28 -276 0
-275 -28 -276 0
275 -28 276 0
-275 28 276 0
276 60 -277 0
-276 -60 -277 0
276 -60 277 0
-276 60 277 0
277 64 -278 0
-277 -64 -278 0
277 -64 278 0
-277 64 278 0
278 66 -279 0
-278 -66 -279 0
278 -66 279 0
-278 66 279 0
279 70 -280 0
-279 -70 -280 0
279 -70 280 0
-279 70 280 0
-280 0
26 27 -281 0
-26 -27 -281 0
26 -27 281 0
-26 27 281 0
281 28 -282 0
-281 -28 -282 0
281 -28 282 0
-281 28 282 0
282 29 -283 0
-282 -29 -283 0
282 -29 283 0
-282 29 283 0
283 61 -284 0
-283 -61 -284 0
283 -61 284 0
-283 61 284 0
284 65 -285 0
-284 -65 -285 0
284 -65 285 0
-284 65 285 0
285 67 -286 0
-285 -67 -286 0
285 -67 286 0
-285 67 286 0
286 71 -287 0
-286 -71 -287 0
286 -71 287 0
-286 71 287 0
-287 0
27 28 -288 0
-27 -28 -288 0
27 -28 288 0
-27 28 288 0
288 29 -289 0
-288 -29 -289 0
288 -29 289 0
-288 29 289 0
289 30 -290 0
-289 -30 -290 0
289 -30 290 0
-289 30 290 0
290 62 -291 0
-290 -62 -291 0
290 -62 291 0
-290 62 291 0
291 66 -292 0
-291 -66 -292 0
291 -66 292 0
-291 66 292 0
292 68 -293 0
-292 -68 -293 0
292 -68 293 0
-292 68 293 0
293 72 -294 0
-293 -72 -294 0
293 -72 294 0
-293 72 294 0
-294 0
28 29 -295 0
-28 -29 -295 0
28 -29 295 0
-28 29 295 0
295 30 -296 0
-295 -30 -296 0
295 -30 296 0
-295 30 296 0
296 31 -297 0
-296 -31 -297 0
296 -31 297 0
-296 31 297 0
297 63 -298 0
-297 -63 -298 0
297 -63 298 0
-297 63 298 0
298 67 -299 0
-298 -67 -299 0
298 -67 299 0
-298 67 299 0
299 69 -300 0
-299 -69 -300 0
299 -69 300 0
-299 69 300 0
300 73 -301 0
-300 -73 -301 0
300 -73 301 0
-300 73 301 0
-301 0
29 30 -302 0
-29 -30 -302 0
29 -30 302 0
-29 30 302 0
302 31 -303 0
-302 -31 -303 0
302 -31 303 0
-302 31 303 0
303 32 -304 0
-303 -32 -304 0
303 -32 304 0
-303 32 304 0
304 64 -305 0
-304 -64 -305 0
304 -64 305 0
-304 64 305 0
305 68 -306 0
-305 -68 -306 0
305 -68 306 0
-305 68 306 0
306 70 -307 0
-306 -70 -307 0
306 -70 307 0
-306 70 307 0
307 74 -308 0
-307 -74 -308 0
307 -74 308 0
-307 74 308 0
-308 0
30 31 -309 0
-30 -31 -309 0
30 -31 309 0
-30 31 309 0
309 32 -310 0
-309 -32 -310 0
309 -32 310 0
-309 32 310 0
310 33 -311 0
-310 -33 -311 0
310 -33 311 0
-310 33 311 0
311 65 -312 0
-311 -65 -312 0
311 -65 312 0
-311 65 312 0
312 69 -313 0
-312 -69 -313 0
312 -69 313 0
-312 69 313 0
313 71 -314 0
-313 -71 -314 0
313 -71 314 0
-313 71 314 0
314 75 -315 0
-314 -75 -315 0
314 -75 315 0
-314 75 315 0
-315 0
31 32 -316 0
-31 -32 -316 0
31 -32 316 0
-31 32 316 0
316 33 -317 0
-316 -33 -317 0
316 -33 317 0
-316 33 317 0
317 34 -318 0
-317 -34 -318 0
317 -34 318 0
-317 34 318 0
318 66 -319 0
-318 -66 -319 0
318 -66 319 0
-318 66 319 0
319 70 -320 0
-319 -70 -320 0
319 -70 320 0
-319 70 320 0
320 72 -321 0
-320 -72 -321 0
320 -72 321 0
-320 72 321 0
321 76 -322 0
-321 -76 -322 0
321 -76 322 0
-321 76 322 0
-322 0
32 33 -323 0
-32 -33 -323 0
32 -33 323 0
-32 33 323 0
323 34 -324 0
-323 -34 -324 0
323 -34 324 0
-323 34 324 0
324 35 -325 0
-324 -35 -325 0
324 -35 325 0
-324 35 325 0
325 67 -326 0
-325 -67 -326 0
325 -67 326 0
-325 67 326 0
326 71 -327 0
-326 -71 -327 0
326 -71 327 0
-326 71 327 0
327 73 -328 0
-327 -73 -328 0
327 -73 328 0
-327 73 328 0
328 77 -329 0
-328 -77 -329 0
328 -77 329 0
-328 77 329 0
-329 0
33 34 -330 0
-33 -34 -330 0
33 -34 330 0
-33 34 330 0
330 35 -331 0
-330 -35 -331 0
330 -35 331 0
-330 35 331 0
331 36 -332 0
-331 -36 -332 0
331 -36 332 0
-331 36 332 0
332 68 -333 0
-332 -68 -333 0
332 -68 333 0
-332 68 333 0
333 72 -334 0
-333 -72 -334 0
333 -72 334 0
-333 72 334 0
334 74 -335 0
-334 -74 -335 0
334 -74 335 0
-334 74 335 0
335 78 -336 0
-335 -78 -336 0
335 -78 336 0
-335 78 336 0
-336 0
34 35 -337 0
-34 -35 -337 0
34 -35 337 0
-34 35 337 0
337 36 -338 0
-337 -36 -338 0
337 -36 338 0
-337 36 338 0
338 37 -339 0
-338 -37 -339 0
338 -37 339 0
-338 37 339 0
339 69 -340 0
-339 -69 -340 0
339 -69 340 0
-339 69 340 0
340 73 -341 0
-340 -73 -341 0
340 -73 341 0
-340 73 341 0
341 75 -342 0
-341 -75 -342 0
341 -75 342 0
-341 75 342 0
342 79 -343 0
-342 -79 -343 0
342 -79 343 0
-342 79 343 0
-343 0
35 36 -344 0
-35 -36 -344 0
35 -36 344 0
-35 36 344 0
344 37 -345 0
-344 -37 -345 0
344 -37 345 0
-344 37 345 0
345 38 -346 0
-345 -38 -346 0
345 -38 346 0
-345 38 346 0
346 70 -347 0
-346 -70 -347 0
346 -70 347 0
-346 70 347 0
347 74 -348 0
-347 -74 -348 0
347 -74 348 0
-347 74 348 0
348 76 -349 0
-348 -76 -349 0
348 -76 349 0
-348 76 349 0
349 80 -350 0
-349 -80 -350 0
349 -80 350 0
-349 80 350 0
-350 0
36 37 -351 0
-36 -37 -351 0
36 -37 351 0
-36 37 351 0
351 38 -352 0
-351 -38 -352 0
351 -38 352 0
-351 38 352 0
352 39 -353 0
-352 -39 -353 0
352 -39 353 0
-352 39 353 0
353 71 -354 0
-353 -71 -354 0
353 -71 354 0
-353 71 354 0
354 75 -355 0
-354 -75 -355 0
354 -75 355 0
-354 75 355 0
355 77 -356 0
-355 -77 -356 0
355 -77 356 0
-355 77 356 0
356 81 -357 0
-356 -81 -357 0
356 -81 357 0
-356 81 357 0
-357 0
37 38 -358 0
-37 -38 -358 0
37 -38 358 0
-37 38 358 0
358 39 -359 0
-358 -39 -359 0
358 -39 359 0
-358 39 359 0
359 40 -360 0
-359 -40 -360 0
359 -40 360 0
-359 40 360 0
360 72 -361 0
-360 -72 -361 0
360 -72 361 0
-360 72 361 0
361 76 -362 0
-361 -76 -362 0
361 -76 362 0
-361 76 362 0
362 78 -363 0
-362 -78 -363 0
362 -78 363 0
-362 78 363 0
363 82 -364 0
-363 -82 -364 0
363 -82 364 0
-363 82 364 0
-364 0
38 39 -365 0
-38 -39 -365 0
38 -39 365 0
-38 39 365 0
365 40 -366 0
-365 -40 -366 0
365 -40 366 0
-365 40 366 0
366 41 -367 0
-366 -41 -367 0
366 -41 367 0
-366 41 367 0
367 73 -368 0
-367 -73 -368 0
367 -73 368 0
-367 73 368 0
368 77 -369 0
-368 -77 -369 0
368 -77 369 0
-368 77 369 0
369 79 -370 0
-369 -79 -370 0
369 -79 370 0
-369 79 370 0
370 83 -371 0
-370 -83 -371 0
370 -83 371 0
-370 83 371 0
-371 0
39 40 -372 0
-39 -40 -372 0
39 -40 372 0
-39 40 372 0
372 41 -373 0
-372 -41 -373 0
372 -41 373 0
-372 41 373 0
373 42 -374 0
-373 -42 -374 0
373 -42 374 0
-373 42 374 0
374 74 -375 0
-374 -74 -375 0
374 -74 375 0
-374 74 375 0
375 78 -376 0
-375 -78 -376 0
375 -78 376 0
-375 78 376 0
376 80 -377 0
-376 -80 -377 0
376 -80 377 0
-376 80 377 0
377 84 -378 0
-377 -84 -378 0
377 -84 378 0
-377 84 378 0
-378 0
1 45 -379 0
-1 -45 -379 0
1 -45 379 0
-1 45 379 0
379 47 -380 0
-379 -47 -380 0
379 -47 380 0
-379 47 380 0
380 49 -381 0
-380 -49 -381 0
380 -49 381 0
-380 49 381 0
381 51 -382 0
-381 -51 -382 0
381 -51 382 0
-381 51 382 0
382 53 -383 0
-382 -53 -383 0
382 -53 383 0
-382 53 383 0
383 55 -384 0
-383 -55 -384 0
383 -55 384 0
-383 55 384 0
384 57 -385 0
-384 -57 -385 0
384 -57 385 0
-384 57 385 0
385 59 -386 0
-385 -59 -386 0
385 -59 386 0
-385 59 386 0
386 61 -387 0
-386 -61 -387 0
386 -61 387 0
-386 61 387 0
387 63 -388 0
-387 -63 -388 0
387 -63 388 0
-387 63 388 0
388 65 -389 0
-388 -65 -389 0
388 -65 389 0
-388 65 389 0
389 67 -390 0
-389 -67 -390 0
389 -67 390 0
-389 67 390 0
390 69 -391 0
-390 -69 -391 0
390 -69 391 0
-390 69 391 0
391 71 -392 0
-391 -71 -392 0
391 -71 392 0
-391 71 392 0
392 73 -393 0
-392 -73 -393 0
392 -73 393 0
-392 73 393 0
393 75 -394 0
-393 -75 -394 0
393 -75 394 0
-393 75 394 0
394 77 -395 0
-394 -77 -395 0
394 -77 395 0
-394 77 395 0
395 78 -396 0
-395 -78 -396 0
395 -78 396 0
-395 78 396 0
396 81 -397 0
-396 -81 -397 0
396 -81 397 0
-396 81 397 0
397 83 -398 0
-397 -83 -398 0
397 -83 398 0
-397 83 398 0
398 84 -399 0
-398 -84 -399 0
398 -84 399 0
-398 84 399 0
2 45 -400 0
-2 -45 -400 0
2 -45 400 0
-2 45 400 0
400 46 -401 0
-400 -46 -401 0
400 -46 401 0
-400 46 401 0
401 47 -402 0
-401 -47 -402 0
401 -47 402 0
-401 47 402 0
402 48 -403 0
-402 -48 -403 0
402 -48 403 0
-402 48 403 0
403 49 -404 0
-403 -49 -404 0
403 -49 404 0
-403 49 404 0
404 50 -405 0
-404 -50 -405 0
404 -50 405 0
-404 50 405 0
405 51 -406 0
-405 -51 -406 0
405 -51 406 0
-405 51 406 0
406 52 -407 0
-406 -52 -407 0
406 -52 407 0
-406 52 407 0
407 53 -408 0
-407 -53 -408 0
407 -53 408 0
-407 53 408 0
408 54 -409 0
-408 -54 -409 0
408 -54 409 0
-408 54 409 0
409 55 -410 0
-409 -55 -410 0
409 -55 410 0
-409 55 410 0
410 56 -411 0
-410 -56 -411 0
410 -56 411 0
-410 56 411 0
411 57 -412 0
-411 -57 -412 0
411 -57 412 0
-411 57 412 0
412 58 -413 0
-412 -58 -413 0
412 -58 413 0
-412 58 413 0
413 59 -414 0
-413 -59 -414 0
413 -59 414 0
-413 59 414 0
414 60 -415 0
-414 -60 -415 0
414 -60 415 0
-414 60 415 0
415 61 -416 0
-415 -61 -416 0
415 -61 416 0
-415 61 416 0
416 62 -417 0
-416 -62 -417 0
416 -62 417 0
-416 62 417 0
417 63 -418 0
-417 -63 -418 0
417 -63 418 0
-417 63 418 0
418 64 -419 0
-418 -64 -419 0
418 -64 419 0
-418 64 419 0
419 65 -420 0
-419 -65 -420 0
419 -65 420 0
-419 65 420 0
420 66 -421 0
-420 -66 -421 0
420 -66 421 0
-420 66 421 0
421 67 -422 0
-421 -67 -422 0
421 -67 422 0
-421 67 422 0
422 68 -423 0
-422 -68 -423 0
422 -68 423 0
-422 68 423 0
423 69 -424 0
-423 -69 -424 0
423 -69 424 0
-423 69 424 0
424 70 -425 0
-424 -70 -425 0
424 -70 425 0
-424 70 425 0
425 71 -426 0
-425 -71 -426 0
425 -71 426 0
-425 71 426 0
426 72 -427 0
-426 -72 -427 0
426 -72 427 0
-426 72 427 0
427 73 -428 0
-427 -73 -428 0
427 -73 428 0
-427 73 428 0
428 74 -429 0
-428 -74 -429 0
428 -74 429 0
-428 74 429 0
429 75 -430 0
-429 -75 -430 0
429 -75 430 0
-429 75 430 0
430 76 -431 0
-430 -76 -431 0
430 -76 431 0
-430 76 431 0
431 77 -432 0
-431 -77 -432 0
431 -77 432 0
-431 77 432 0
432 78 -433 0
-432 -78 -433 0
432 -78 433 0
-432 78 433 0
433 81 -434 0
-433 -81 -434 0
433 -81 434 0
-433 81 434 0
434 82 -435 0
-434 -82 -435 0
434 -82 435 0
-434 82 435 0
435 83 -436 0
-435 -83 -436 0
435 -83 436 0
-435 83 436 0
436 84 -437 0
-436 -84 -437 0
436 -84 437 0
-436 84 437 0
3 45 -438 0
-3 -45 -438 0
3 -45 438 0
-3 45 438 0
438 46 -439 0
-438 -46 -439 0
438 -46 439 0
-438 46 439 0
439 48 -440 0
-439 -48 -440 0
439 -48 440 0
-439 48 440 0
440 50 -441 0
-440 -50 -441 0
440 -50 441 0
-440 50 441 0
441 52 -442 0
-441 -52 -442 0
441 -52 442 0
-441 52 442 0
442 54 -443 0
-442 -54 -443 0
442 -54 443 0
-442 54 443 0
443 56 -444 0
-443 -56 -444 0
443 -56 444 0
-443 56 444 0
444 58 -445 0
-444 -58 -445 0
444 -58 445 0
-444 58 445 0
445 60 -446 0
-445 -60 -446 0
445 -60 446 0
-445 60 446 0
446 62 -447 0
-446 -62 -447 0
446 -62 447 0
-446 62 447 0
447 64 -448 0
-447 -64 -448 0
447 -64 448 0
-447 64 448 0
448 66 -449 0
-448 -66 -449 0
448 -66 449 0
-448 66 449 0
449 68 -450 0
-449 -68 -450 0
449 -68 450 0
-449 68 450 0
450 70 -451 0
-450 -70 -451 0
450 -70 451 0
-450 70 451 0
451 72 -452 0
-451 -72 -452 0
451 -72 452 0
-451 72 452 0
452 74 -453 0
-452 -74 -453 0
452 -74 453 0
-452 74 453 0
453 76 -454 0
-453 -76 -454 0
453 -76 454 0
-453 76 454 0
454 78 -455 0
-454 -78 -455 0
454 -78 455 0
-454 78 455 0
455 81 -456 0
-455 -81 -456 0
455 -81 456 0
-455 81 456 0
456 82 -457 0
-456 -82 -457 0
456 -82 457 0
-456 82 457 0
457 84 -458 0
-457 -84 -458 0
457 -84 458 0
-457 84 458 0
5 46 -459 0
-5 -46 -459 0
5 -46 459 0
-5 46 459 0
459 47 -460 0
-459 -47 -460 0
459 -47 460 0
-459 47 460 0
460 82 -461 0
-460 -82 -461 0
460 -82 461 0
-460 82 461 0
461 83 -462 0
-461 -83 -462 0
461 -83 462 0
-461 83 462 0
399 437 458 462 0
1 0
-471 465 472 0
-468 465 472 0
-468 -471 472 0
-472 463 0
-469 463 0
-472 -469 464 0
-470 464 0
-472 -470 0
-466 463 0
-472 -466 464 0
-467 464 0
-472 -467 0
-466 -469 464 0
-472 -466 -469 0
-466 -470 0
-472 -466 -470 0
-467 -469 0
-472 -467 -469 0
-467 -470 0
-472 -467 -470 0
-478 471 479 0
-475 471 479 0
-475 -478 479 0
-479 469 0
-476 469 0
-479 -476 470 0
-477 470 0
-479 -477 0
-473 469 0
-479 -473 470 0
-474 470 0
-479 -474 0
-473 -476 470 0
-479 -473 -476 0
-473 -477 0
-479 -473 -477 0
-474 -476 0
-479 -474 -476 0
-474 -477 0
-479 -474 -477 0
-485 478 486 0
-482 478 486 0
-482 -485 486 0
-486 476 0
-483 476 0
-486 -483 477 0
-484 477 0
-486 -484 0
-480 476 0
-486 -480 477 0
-481 477 0
-486 -481 0
-480 -483 477 0
-486 -480 -483 0
-480 -484 0
-486 -480 -484 0
-481 -483 0
-486 -481 -483 0
-481 -484 0
-486 -481 -484 0
-492 485 493 0
-489 485 493 0
-489 -492 493 0
-493 483 0
-490 483 0
-493 -490 484 0
-491 484 0
-493 -491 0
-487 483 0
-493 -487 484 0
-488 484 0
-493 -488 0
-487 -490 484 0
-493 -487 -490 0
-487 -491 0
-493 -487 -491 0
-488 -490 0
-493 -488 -490 0
-488 -491 0
-493 -488 -491 0
-497 492 498 0
-495 492 498 0
-495 -497 498 0
-498 490 0
-496 490 0
-498 -496 491 0
-494 490 0
-498 -494 491 0
-494 -496 491 0
-498 -494 -496 0
-84 497 499 0
-83 497 499 0
-83 -84 499 0
-499 496 0
-82 495 502 0
-501 495 502 0
-501 -82 502 0
-502 494 0
-500 494 0
-502 -500 0
-81 501 503 0
-80 501 503 0
-80 -81 503 0
-503 500 0
-507 489 508 0
-505 489 508 0
-505 -507 508 0
-508 487 0
-506 487 0
-508 -506 488 0
-504 487 0
-508 -504 488 0
-504 -506 488 0
-508 -504 -506 0
-79 507 509 0
-78 507 509 0
-78 -79 509 0
-509 506 0
-77 505 512 0
-511 505 512 0
-511 -77 512 0
-512 504 0
-510 504 0
-512 -510 0
-76 511 513 0
-75 511 513 0
-75 -76 513 0
-513 510 0
-519 482 520 0
-516 482 520 0
-516 -519 520 0
-520 480 0
-517 480 0
-520 -517 481 0
-518 481 0
-520 -518 0
-514 480 0
-520 -514 481 0
-515 481 0
-520 -515 0
-514 -517 481 0
-520 -514 -517 0
-514 -518 0
-520 -514 -518 0
-515 -517 0
-520 -515 -517 0
-515 -518 0
-520 -515 -518 0
-524 519 525 0
-522 519 525 0
-522 -524 525 0
-525 517 0
-523 517 0
-525 -523 518 0
-521 517 0
-525 -521 518 0
-521 -523 518 0
-525 -521 -523 0
-74 524 526 0
-73 524 526 0
-73 -74 526 0
-526 523 0
-72 522 529 0
-528 522 529 0
-528 -72 529 0
-529 521 0
-527 521 0
-529 -527 0
-71 528 530 0
-70 528 530 0
-70 -71 530 0
-530 527 0
-534 516 535 0
-532 516 535 0
-532 -534 535 0
-535 514 0
-533 514 0
-535 -533 515 0
-531 514 0
-535 -531 515 0
-531 -533 515 0
-535 -531 -533 0
-69 534 538 0
-537 534 538 0
-537 -69 538 0
-538 533 0
-536 533 0
-538 -536 0
-68 537 539 0
-67 537 539 0
-67 -68 539 0
-539 536 0
-66 532 542 0
-541 532 542 0
-541 -66 542 0
-542 531 0
-540 531 0
-542 -540 0
-65 541 543 0
-64 541 543 0
-64 -65 543 0
-543 540 0
-549 475 550 0
-546 475 550 0
-546 -549 550 0
-550 473 0
-547 473 0
-550 -547 474 0
-548 474 0
-550 -548 0
-544 473 0
-550 -544 474 0
-545 474 0
-550 -545 0
-544 -547 474 0
-550 -544 -547 0
-544 -548 0
-550 -544 -548 0
-545 -547 0
-550 -545 -547 0
-545 -548 0
-550 -545 -548 0
-556 549 557 0
-553 549 557 0
-553 -556 557 0
-557 547 0
-554 547 0
-557 -554 548 0
-555 548 0
-557 -555 0
-551 547 0
-557 -551 548 0
-552 548 0
-557 -552 0
-551 -554 548 0
-557 -551 -554 0
-551 -555 0
-557 -551 -555 0
-552 -554 0
-557 -552 -554 0
-552 -555 0
-557 -552 -555 0
-561 556 562 0
-559 556 562 0
-559 -561 562 0
-562 554 0
-560 554 0
-562 -560 555 0
-558 554 0
-562 -558 555 0
-558 -560 555 0
-562 -558 -560 0
-63 561 563 0
-62 561 563 0
-62 -63 563 0
-563 560 0
-61 559 566 0
-565 559 566 0
-565 -61 566 0
-566 558 0
-564 558 0
-566 -564 0
-60 565 567 0
-59 565 567 0
-59 -60 567 0
-567 564 0
-571 553 572 0
-569 553 572 0
-569 -571 572 0
-572 551 0
-570 551 0
-572 -570 552 0
-568 551 0
-572 -568 552 0
-568 -570 552 0
-572 -568 -570 0
-58 571 573 0
-57 571 573 0
-57 -58 573 0
-573 570 0
-56 569 576 0
-575 569 576 0
-575 -56 576 0
-576 568 0
-574 568 0
-576 -574 0
-55 575 577 0
-54 575 577 0
-54 -55 577 0
-577 574 0
-583 546 584 0
-580 546 584 0
-580 -583 584 0
-584 544 0
-581 544 0
-584 -581 545 0
-582 545 0
-584 -582 0
-578 544 0
-584 -578 545 0
-579 545 0
-584 -579 0
-578 -581 545 0
-584 -578 -581 0
-578 -582 0
-584 -578 -582 0
-579 -581 0
-584 -579 -581 0
-579 -582 0
-584 -579 -582 0
-588 583 589 0
-586 583 589 0
-586 -588 589 0
-589 581 0
-587 581 0
-589 -587 582 0
-585 581 0
-589 -585 582 0
-585 -587 582 0
-589 -585 -587 0
-53 588 590 0
-52 588 590 0
-52 -53 590 0
-590 587 0
-51 586 593 0
-592 586 593 0
-592 -51 593 0
-593 585 0
-591 585 0
-593 -591 0
-50 592 594 0
-49 592 594 0
-49 -50 594 0
-594 591 0
-598 580 599 0
-596 580 599 0
-596 -598 599 0
-599 578 0
-597 578 0
-599 -597 579 0
-595 578 0
-599 -595 579 0
-595 -597 579 0
-599 -595 -597 0
-48 598 602 0
-601 598 602 0
-601 -48 602 0
-602 597 0
-600 597 0
-602 -600 0
-47 601 603 0
-46 601 603 0
-46 -47 603 0
-603 600 0
-45 596 606 0
-605 596 606 0
-605 -45 606 0
-606 595 0
-604 595 0
-606 -604 0
-44 605 607 0
-43 605 607 0
-43 -44 607 0
-607 604 0
-613 468 614 0
-610 468 614 0
-610 -613 614 0
-614 466 0
-611 466 0
-614 -611 467 0
-612 467 0
-614 -612 0
-608 466 0
-614 -608 467 0
-609 467 0
-614 -609 0
-608 -611 467 0
-614 -608 -611 0
-608 -612 0
-614 -608 -612 0
-609 -611 0
-614 -609 -611 0
-609 -612 0
-614 -609 -612 0
-620 613 621 0
-617 613 621 0
-617 -620 621 0
-621 611 0
-618 611 0
-621 -618 612 0
-619 612 0
-621 -619 0
-615 611 0
-621 -615 612 0
-616 612 0
-621 -616 0
-615 -618 612 0
-621 -615 -618 0
-615 -619 0
-621 -615 -619 0
-616 -618 0
-621 -616 -618 0
-616 -619 0
-621 -616 -619 0
-627 620 628 0
-624 620 628 0
-624 -627 628 0
-628 618 0
-625 618 0
-628 -625 619 0
-626 619 0
-628 -626 0
-622 618 0
-628 -622 619 0
-623 619 0
-628 -623 0
-622 -625 619 0
-628 -622 -625 0
-622 -626 0
-628 -622 -626 0
-623 -625 0
-628 -623 -625 0
-623 -626 0
-628 -623 -626 0
-632 627 633 0
-630 627 633 0
-630 -632 633 0
-633 625 0
-631 625 0
-633 -631 626 0
-629 625 0
-633 -629 626 0
-629 -631 626 0
-633 -629 -631 0
-42 632 634 0
-41 632 634 0
-41 -42 634 0
-634 631 0
-40 630 637 0
-636 630 637 0
-636 -40 637 0
-637 629 0
-635 629 0
-637 -635 0
-39 636 638 0
-38 636 638 0
-38 -39 638 0
-638 635 0
-642 624 643 0
-640 624 643 0
-640 -642 643 0
-643 622 0
-641 622 0
-643 -641 623 0
-639 622 0
-643 -639 623 0
-639 -641 623 0
-643 -639 -641 0
-37 642 644 0
-36 642 644 0
-36 -37 644 0
-644 641 0
-35 640 647 0
-646 640 647 0
-646 -35 647 0
-647 639 0
-645 639 0
-647 -645 0
-34 646 648 0
-33 646 648 0
-33 -34 648 0
-648 645 0
-654 617 655 0
-651 617 655 0
-651 -654 655 0
-655 615 0
-652 615 0
-655 -652 616 0
-653 616 0
-655 -653 0
-649 615 0
-655 -649 616 0
-650 616 0
-655 -650 0
-649 -652 616 0
-655 -649 -652 0
-649 -653 0
-655 -649 -653 0
-650 -652 0
-655 -650 -652 0
-650 -653 0
-655 -650 -653 0
-659 654 660 0
-657 654 660 0
-657 -659 660 0
-660 652 0
-658 652 0
-660 -658 653 0
-656 652 0
-660 -656 653 0
-656 -658 653 0
-660 -656 -658 0
-32 659 661 0
-31 659 661 0
-31 -32 661 0
-661 658 0
-30 657 664 0
-663 657 664 0
-663 -30 664 0
-664 656 0
-662 656 0
-664 -662 0
-29 663 665 0
-28 663 665 0
-28 -29 665 0
-665 662 0
-669 651 670 0
-667 651 670 0
-667 -669 670 0
-670 649 0
-668 649 0
-670 -668 650 0
-666 649 0
-670 -666 650 0
-666 -668 650 0
-670 -666 -668 0
-27 669 673 0
-672 669 673 0
-672 -27 673 0
-673 668 0
-671 668 0
-673 -671 0
-26 672 674 0
-25 672 674 0
-25 -26 674 0
-674 671 0
-24 667 677 0
-676 667 677 0
-676 -24 677 0
-677 666 0
-675 666 0
-677 -675 0
-23 676 678 0
-22 676 678 0
-22 -23 678 0
-678 675 0
-684 610 685 0
-681 610 685 0
-681 -684 685 0
-685 608 0
-682 608 0
-685 -682 609 0
-683 609 0
-685 -683 0
-679 608 0
-685 -679 609 0
-680 609 0
-685 -680 0
-679 -682 609 0
-685 -679 -682 0
-679 -683 0
-685 -679 -683 0
-680 -682 0
-685 -680 -682 0
-680 -683 0
-685 -680 -683 0
-691 684 692 0
-688 684 692 0
-688 -691 692 0
-692 682 0
-689 682 0
-692 -689 683 0
-690 683 0
-692 -690 0
-686 682 0
-692 -686 683 0
-687 683 0
-692 -687 0
-686 -689 683 0
-692 -686 -689 0
-686 -690 0
-692 -686 -690 0
-687 -689 0
-692 -687 -689 0
-687 -690 0
-692 -687 -690 0
-696 691 697 0
-694 691 697 0
-694 -696 697 0
-697 689 0
-695 689 0
-697 -695 690 0
-693 689 0
-697 -693 690 0
-693 -695 690 0
-697 -693 -695 0
-21 696 698 0
-20 696 698 0
-20 -21 698 0
-698 695 0
-19 694 701 0
-700 694 701 0
-700 -19 701 0
-701 693 0
-699 693 0
-701 -699 0
-18 700 702 0
-17 700 702 0
-17 -18 702 0
-702 699 0
-706 688 707 0
-704 688 707 0
-704 -706 707 0
-707 686 0
-705 686 0
-707 -705 687 0
-703 686 0
-707 -703 687 0
-703 -705 687 0
-707 -703 -705 0
-16 706 708 0
-15 706 708 0
-15 -16 708 0
-708 705 0
-14 704 711 0
-710 704 711 0
-710 -14 711 0
-711 703 0
-709 703 0
-711 -709 0
-13 710 712 0
-12 710 712 0
-12 -13 712 0
-712 709 0
-718 681 719 0
-715 681 719 0
-715 -718 719 0
-719 679 0
-716 679 0
-719 -716 680 0
-717 680 0
-719 -717 0
-713 679 0
-719 -713 680 0
-714 680 0
-719 -714 0
-713 -716 680 0
-719 -713 -716 0
-713 -717 0
-719 -713 -717 0
-714 -716 0
-719 -714 -716 0
-714 -717 0
-719 -714 -717 0
-723 718 724 0
-721 718 724 0
-721 -723 724 0
-724 716 0
-722 716 0
-724 -722 717 0
-720 716 0
-724 -720 717 0
-720 -722 717 0
-724 -720 -722 0
-11 723 725 0
-10 723 725 0
-10 -11 725 0
-725 722 0
-9 721 728 0
-727 721 728 0
-727 -9 728 0
-728 720 0
-726 720 0
-728 -726 0
-8 727 729 0
-7 727 729 0
-7 -8 729 0
-729 726 0
-733 715 734 0
-731 715 734 0
-731 -733 734 0
-734 713 0
-732 713 0
-734 -732 714 0
-730 713 0
-734 -730 714 0
-730 -732 714 0
-734 -730 -732 0
-6 733 737 0
-736 733 737 0
-736 -6 737 0
-737 732 0
-735 732 0
-737 -735 0
-5 736 738 0
-4 736 738 0
-4 -5 738 0
-738 735 0
-3 731 741 0
-740 731 741 0
-740 -3 741 0
-741 730 0
-739 730 0
-741 -739 0
-2 740 742 0
-1 740 742 0
-1 -2 742 0
-742 739 0
-464 -465 0
