p cnf 3250 10412
1 160 -331 0
-1 -160 -331 0
1 -160 331 0
-1 160 331 0
331 161 -332 0
-331 -161 -332 0
331 -161 332 0
-331 161 332 0
332 165 -333 0
-332 -165 -333 0
332 -165 333 0
-332 165 333 0
333 166 -334 0
-333 -166 -334 0
333 -166 334 0
-333 166 334 0
334 306 -335 0
-334 -306 -335 0
334 -306 335 0
-334 306 335 0
335 316 -336 0
-335 -316 -336 0
335 -316 336 0
-335 316 336 0
336 321 -337 0
-336 -321 -337 0
336 -321 337 0
-336 321 337 0
-337 0
1 2 -338 0
-1 -2 -338 0
1 -2 338 0
-1 2 338 0
338 161 -339 0
-338 -161 -339 0
338 -161 339 0
-338 161 339 0
339 162 -340 0
-339 -162 -340 0
339 -162 340 0
-339 162 340 0
340 167 -341 0
-340 -167 -341 0
340 -167 341 0
-340 167 341 0
341 307 -342 0
-341 -307 -342 0
341 -307 342 0
-341 307 342 0
342 317 -343 0
-342 -317 -343 0
342 -317 343 0
-342 317 343 0
343 322 -344 0
-343 -322 -344 0
343 -322 344 0
-343 322 344 0
-344 0
2 3 -345 0
-2 -3 -345 0
2 -3 345 0
-2 3 345 0
345 162 -346 0
-345 -162 -346 0
345 -162 346 0
-345 162 346 0
346 163 -347 0
-346 -163 -347 0
346 -163 347 0
-346 163 347 0
347 168 -348 0
-347 -168 -348 0
347 -168 348 0
-347 168 348 0
348 308 -349 0
-348 -308 -349 0
348 -308 349 0
-348 308 349 0
349 318 -350 0
-349 -318 -350 0
349 -318 350 0
-349 318 350 0
350 323 -351 0
-350 -323 -351 0
350 -323 351 0
-350 323 351 0
-351 0
3 4 -352 0
-3 -4 -352 0
3 -4 352 0
-3 4 352 0
352 163 -353 0
-352 -163 -353 0
352 -163 353 0
-352 163 353 0
353 164 -354 0
-353 -164 -354 0
353 -164 354 0
-353 164 354 0
354 169 -355 0
-354 -169 -355 0
354 -169 355 0
-354 169 355 0
355 309 -356 0
-355 -309 -356 0
355 -309 356 0
-355 309 356 0
356 319 -357 0
-356 -319 -357 0
356 -319 357 0
-356 319 357 0
357 324 -358 0
-357 -324 -358 0
357 -324 358 0
-357 324 358 0
-358 0
4 5 -359 0
-4 -5 -359 0
4 -5 359 0
-4 5 359 0
359 164 -360 0
-359 -164 -360 0
359 -164 360 0
-359 164 360 0
360 165 -361 0
-360 -165 -361 0
360 -165 361 0
-360 165 361 0
361 170 -362 0
-361 -170 -362 0
361 -170 362 0
-361 170 362 0
362 310 -363 0
-362 -310 -363 0
362 -310 363 0
-362 310 363 0
363 320 -364 0
-363 -320 -364 0
363 -320 364 0
-363 320 364 0
364 325 -365 0
-364 -325 -365 0
364 -325 365 0
-364 325 365 0
-365 0
1 5 -366 0
-1 -5 -366 0
1 -5 366 0
-1 5 366 0
366 6 -367 0
-366 -6 -367 0
366 -6 367 0
-366 6 367 0
367 165 -368 0
-367 -165 -368 0
367 -165 368 0
-367 165 368 0
368 171 -369 0
-368 -171 -369 0
368 -171 369 0
-368 171 369 0
369 311 -370 0
-369 -311 -370 0
369 -311 370 0
-369 311 370 0
370 321 -371 0
-370 -321 -371 0
370 -321 371 0
-370 321 371 0
371 326 -372 0
-371 -326 -372 0
371 -326 372 0
-371 326 372 0
-372 0
1 2 -373 0
-1 -2 -373 0
1 -2 373 0
-1 2 373 0
373 6 -374 0
-373 -6 -374 0
373 -6 374 0
-373 6 374 0
374 7 -375 0
-374 -7 -375 0
374 -7 375 0
-374 7 375 0
375 172 -376 0
-375 -172 -376 0
375 -172 376 0
-375 172 376 0
376 312 -377 0
-376 -312 -377 0
376 -312 377 0
-376 312 377 0
377 322 -378 0
-377 -322 -378 0
377 -322 378 0
-377 322 378 0
378 327 -379 0
-378 -327 -379 0
378 -327 379 0
-378 327 379 0
-379 0
2 3 -380 0
-2 -3 -380 0
2 -3 380 0
-2 3 380 0
380 7 -381 0
-380 -7 -381 0
380 -7 381 0
-380 7 381 0
381 8 -382 0
-381 -8 -382 0
381 -8 382 0
-381 8 382 0
382 173 -383 0
-382 -173 -383 0
382 -173 383 0
-382 173 383 0
383 313 -384 0
-383 -313 -384 0
383 -313 384 0
-383 313 384 0
384 323 -385 0
-384 -323 -385 0
384 -323 385 0
-384 323 385 0
385 328 -386 0
-385 -328 -386 0
385 -328 386 0
-385 328 386 0
-386 0
3 4 -387 0
-3 -4 -387 0
3 -4 387 0
-3 4 387 0
387 8 -388 0
-387 -8 -388 0
387 -8 388 0
-387 8 388 0
388 9 -389 0
-388 -9 -389 0
388 -9 389 0
-388 9 389 0
389 174 -390 0
-389 -174 -390 0
389 -174 390 0
-389 174 390 0
390 314 -391 0
-390 -314 -391 0
390 -314 391 0
-390 314 391 0
391 324 -392 0
-391 -324 -392 0
391 -324 392 0
-391 324 392 0
392 329 -393 0
-392 -329 -393 0
392 -329 393 0
-392 329 393 0
-393 0
4 5 -394 0
-4 -5 -394 0
4 -5 394 0
-4 5 394 0
394 9 -395 0
-394 -9 -395 0
394 -9 395 0
-394 9 395 0
395 10 -396 0
-395 -10 -396 0
395 -10 396 0
-395 10 396 0
396 175 -397 0
-396 -175 -397 0
396 -175 397 0
-396 175 397 0
397 315 -398 0
-397 -315 -398 0
397 -315 398 0
-397 315 398 0
398 325 -399 0
-398 -325 -399 0
398 -325 399 0
-398 325 399 0
399 330 -400 0
-399 -330 -400 0
399 -330 400 0
-399 330 400 0
-400 0
5 6 -401 0
-5 -6 -401 0
5 -6 401 0
-5 6 401 0
401 10 -402 0
-401 -10 -402 0
401 -10 402 0
-401 10 402 0
402 11 -403 0
-402 -11 -403 0
402 -11 403 0
-402 11 403 0
403 166 -404 0
-403 -166 -404 0
403 -166 404 0
-403 166 404 0
404 176 -405 0
-404 -176 -405 0
404 -176 405 0
-404 176 405 0
405 316 -406 0
-405 -316 -406 0
405 -316 406 0
-405 316 406 0
406 326 -407 0
-406 -326 -407 0
406 -326 407 0
-406 326 407 0
-407 0
6 7 -408 0
-6 -7 -408 0
6 -7 408 0
-6 7 408 0
408 11 -409 0
-408 -11 -409 0
408 -11 409 0
-408 11 409 0
409 12 -410 0
-409 -12 -410 0
409 -12 410 0
-409 12 410 0
410 167 -411 0
-410 -167 -411 0
410 -167 411 0
-410 167 411 0
411 177 -412 0
-411 -177 -412 0
411 -177 412 0
-411 177 412 0
412 317 -413 0
-412 -317 -413 0
412 -317 413 0
-412 317 413 0
413 327 -414 0
-413 -327 -414 0
413 -327 414 0
-413 327 414 0
-414 0
7 8 -415 0
-7 -8 -415 0
7 -8 415 0
-7 8 415 0
415 12 -416 0
-415 -12 -416 0
415 -12 416 0
-415 12 416 0
416 13 -417 0
-416 -13 -417 0
416 -13 417 0
-416 13 417 0
417 168 -418 0
-417 -168 -418 0
417 -168 418 0
-417 168 418 0
418 178 -419 0
-418 -178 -419 0
418 -178 419 0
-418 178 419 0
419 318 -420 0
-419 -318 -420 0
419 -318 420 0
-419 318 420 0
420 328 -421 0
-420 -328 -421 0
420 -328 421 0
-420 328 421 0
-421 0
8 9 -422 0
-8 -9 -422 0
8 -9 422 0
-8 9 422 0
422 13 -423 0
-422 -13 -423 0
422 -13 423 0
-422 13 423 0
423 14 -424 0
-423 -14 -424 0
423 -14 424 0
-423 14 424 0
424 169 -425 0
-424 -169 -425 0
424 -169 425 0
-424 169 425 0
425 179 -426 0
-425 -179 -426 0
425 -179 426 0
-425 179 426 0
426 319 -427 0
-426 -319 -427 0
426 -319 427 0
-426 319 427 0
427 329 -428 0
-427 -329 -428 0
427 -329 428 0
-427 329 428 0
-428 0
9 10 -429 0
-9 -10 -429 0
9 -10 429 0
-9 10 429 0
429 14 -430 0
-429 -14 -430 0
429 -14 430 0
-429 14 430 0
430 15 -431 0
-430 -15 -431 0
430 -15 431 0
-430 15 431 0
431 170 -432 0
-431 -170 -432 0
431 -170 432 0
-431 170 432 0
432 180 -433 0
-432 -180 -433 0
432 -180 433 0
-432 180 433 0
433 320 -434 0
-433 -320 -434 0
433 -320 434 0
-433 320 434 0
434 330 -435 0
-434 -330 -435 0
434 -330 435 0
-434 330 435 0
-435 0
10 11 -436 0
-10 -11 -436 0
10 -11 436 0
-10 11 436 0
436 15 -437 0
-436 -15 -437 0
436 -15 437 0
-436 15 437 0
437 16 -438 0
-437 -16 -438 0
437 -16 438 0
-437 16 438 0
438 166 -439 0
-438 -166 -439 0
438 -166 439 0
-438 166 439 0
439 171 -440 0
-439 -171 -440 0
439 -171 440 0
-439 171 440 0
440 181 -441 0
-440 -181 -441 0
440 -181 441 0
-440 181 441 0
441 321 -442 0
-441 -321 -442 0
441 -321 442 0
-441 321 442 0
-442 0
11 12 -443 0
-11 -12 -443 0
11 -12 443 0
-11 12 443 0
443 16 -444 0
-443 -16 -444 0
443 -16 444 0
-443 16 444 0
444 17 -445 0
-444 -17 -445 0
444 -17 445 0
-444 17 445 0
445 167 -446 0
-445 -167 -446 0
445 -167 446 0
-445 167 446 0
446 172 -447 0
-446 -172 -447 0
446 -172 447 0
-446 172 447 0
447 182 -448 0
-447 -182 -448 0
447 -182 448 0
-447 182 448 0
448 322 -449 0
-448 -322 -449 0
448 -322 449 0
-448 322 449 0
-449 0
12 13 -450 0
-12 -13 -450 0
12 -13 450 0
-12 13 450 0
450 17 -451 0
-450 -17 -451 0
450 -17 451 0
-450 17 451 0
451 18 -452 0
-451 -18 -452 0
451 -18 452 0
-451 18 452 0
452 168 -453 0
-452 -168 -453 0
452 -168 453 0
-452 168 453 0
453 173 -454 0
-453 -173 -454 0
453 -173 454 0
-453 173 454 0
454 183 -455 0
-454 -183 -455 0
454 -183 455 0
-454 183 455 0
455 323 -456 0
-455 -323 -456 0
455 -323 456 0
-455 323 456 0
-456 0
13 14 -457 0
-13 -14 -457 0
13 -14 457 0
-13 14 457 0
457 18 -458 0
-457 -18 -458 0
457 -18 458 0
-457 18 458 0
458 19 -459 0
-458 -19 -459 0
458 -19 459 0
-458 19 459 0
459 169 -460 0
-459 -169 -460 0
459 -169 460 0
-459 169 460 0
460 174 -461 0
-460 -174 -461 0
460 -174 461 0
-460 174 461 0
461 184 -462 0
-461 -184 -462 0
461 -184 462 0
-461 184 462 0
462 324 -463 0
-462 -324 -463 0
462 -324 463 0
-462 324 463 0
-463 0
14 15 -464 0
-14 -15 -464 0
14 -15 464 0
-14 15 464 0
464 19 -465 0
-464 -19 -465 0
464 -19 465 0
-464 19 465 0
465 20 -466 0
-465 -20 -466 0
465 -20 466 0
-465 20 466 0
466 170 -467 0
-466 -170 -467 0
466 -170 467 0
-466 170 467 0
467 175 -468 0
-467 -175 -468 0
467 -175 468 0
-467 175 468 0
468 185 -469 0
-468 -185 -469 0
468 -185 469 0
-468 185 469 0
469 325 -470 0
-469 -325 -470 0
469 -325 470 0
-469 325 470 0
-470 0
15 16 -471 0
-15 -16 -471 0
15 -16 471 0
-15 16 471 0
471 20 -472 0
-471 -20 -472 0
471 -20 472 0
-471 20 472 0
472 21 -473 0
-472 -21 -473 0
472 -21 473 0
-472 21 473 0
473 171 -474 0
-473 -171 -474 0
473 -171 474 0
-473 171 474 0
474 176 -475 0
-474 -176 -475 0
474 -176 475 0
-474 176 475 0
475 186 -476 0
-475 -186 -476 0
475 -186 476 0
-475 186 476 0
476 326 -477 0
-476 -326 -477 0
476 -326 477 0
-476 326 477 0
-477 0
16 17 -478 0
-16 -17 -478 0
16 -17 478 0
-16 17 478 0
478 21 -479 0
-478 -21 -479 0
478 -21 479 0
-478 21 479 0
479 22 -480 0
-479 -22 -480 0
479 -22 480 0
-479 22 480 0
480 172 -481 0
-480 -172 -481 0
480 -172 481 0
-480 172 481 0
481 177 -482 0
-481 -177 -482 0
481 -177 482 0
-481 177 482 0
482 187 -483 0
-482 -187 -483 0
482 -187 483 0
-482 187 483 0
483 327 -484 0
-483 -327 -484 0
483 -327 484 0
-483 327 484 0
-484 0
17 18 -485 0
-17 -18 -485 0
17 -18 485 0
-17 18 485 0
485 22 -486 0
-485 -22 -486 0
485 -22 486 0
-485 22 486 0
486 23 -487 0
-486 -23 -487 0
486 -23 487 0
-486 23 487 0
487 173 -488 0
-487 -173 -488 0
487 -173 488 0
-487 173 488 0
488 178 -489 0
-488 -178 -489 0
488 -178 489 0
-488 178 489 0
489 188 -490 0
-489 -188 -490 0
489 -188 490 0
-489 188 490 0
490 328 -491 0
-490 -328 -491 0
490 -328 491 0
-490 328 491 0
-491 0
18 19 -492 0
-18 -19 -492 0
18 -19 492 0
-18 19 492 0
492 23 -493 0
-492 -23 -493 0
492 -23 493 0
-492 23 493 0
493 24 -494 0
-493 -24 -494 0
493 -24 494 0
-493 24 494 0
494 174 -495 0
-494 -174 -495 0
494 -174 495 0
-494 174 495 0
495 179 -496 0
-495 -179 -496 0
495 -179 496 0
-495 179 496 0
496 189 -497 0
-496 -189 -497 0
496 -189 497 0
-496 189 497 0
497 329 -498 0
-497 -329 -498 0
497 -329 498 0
-497 329 498 0
-498 0
19 20 -499 0
-19 -20 -499 0
19 -20 499 0
-19 20 499 0
499 24 -500 0
-499 -24 -500 0
499 -24 500 0
-499 24 500 0
500 25 -501 0
-500 -25 -501 0
500 -25 501 0
-500 25 501 0
501 175 -502 0
-501 -175 -502 0
501 -175 502 0
-501 175 502 0
502 180 -503 0
-502 -180 -503 0
502 -180 503 0
-502 180 503 0
503 190 -504 0
-503 -190 -504 0
503 -190 504 0
-503 190 504 0
504 330 -505 0
-504 -330 -505 0
504 -330 505 0
-504 330 505 0
-505 0
20 21 -506 0
-20 -21 -506 0
20 -21 506 0
-20 21 506 0
506 25 -507 0
-506 -25 -507 0
506 -25 507 0
-506 25 507 0
507 26 -508 0
-507 -26 -508 0
507 -26 508 0
-507 26 508 0
508 166 -509 0
-508 -166 -509 0
508 -166 509 0
-508 166 509 0
509 176 -510 0
-509 -176 -510 0
509 -176 510 0
-509 176 510 0
510 181 -511 0
-510 -181 -511 0
510 -181 511 0
-510 181 511 0
511 191 -512 0
-511 -191 -512 0
511 -191 512 0
-511 191 512 0
-512 0
21 22 -513 0
-21 -22 -513 0
21 -22 513 0
-21 22 513 0
513 26 -514 0
-513 -26 -514 0
513 -26 514 0
-513 26 514 0
514 27 -515 0
-514 -27 -515 0
514 -27 515 0
-514 27 515 0
515 167 -516 0
-515 -167 -516 0
515 -167 516 0
-515 167 516 0
516 177 -517 0
-516 -177 -517 0
516 -177 517 0
-516 177 517 0
517 182 -518 0
-517 -182 -518 0
517 -182 518 0
-517 182 518 0
518 192 -519 0
-518 -192 -519 0
518 -192 519 0
-518 192 519 0
-519 0
22 23 -520 0
-22 -23 -520 0
22 -23 520 0
-22 23 520 0
520 27 -521 0
-520 -27 -521 0
520 -27 521 0
-520 27 521 0
521 28 -522 0
-521 -28 -522 0
521 -28 522 0
-521 28 522 0
522 168 -523 0
-522 -168 -523 0
522 -168 523 0
-522 168 523 0
523 178 -524 0
-523 -178 -524 0
523 -178 524 0
-523 178 524 0
524 183 -525 0
-524 -183 -525 0
524 -183 525 0
-524 183 525 0
525 193 -526 0
-525 -193 -526 0
525 -193 526 0
-525 193 526 0
-526 0
23 24 -527 0
-23 -24 -527 0
23 -24 527 0
-23 24 527 0
527 28 -528 0
-527 -28 -528 0
527 -28 528 0
-527 28 528 0
528 29 -529 0
-528 -29 -529 0
528 -29 529 0
-528 29 529 0
529 169 -530 0
-529 -169 -530 0
529 -169 530 0
-529 169 530 0
530 179 -531 0
-530 -179 -531 0
530 -179 531 0
-530 179 531 0
531 184 -532 0
-531 -184 -532 0
531 -184 532 0
-531 184 532 0
532 194 -533 0
-532 -194 -533 0
532 -194 533 0
-532 194 533 0
-533 0
24 25 -534 0
-24 -25 -534 0
24 -25 534 0
-24 25 534 0
534 29 -535 0
-534 -29 -535 0
534 -29 535 0
-534 29 535 0
535 30 -536 0
-535 -30 -536 0
535 -30 536 0
-535 30 536 0
536 170 -537 0
-536 -170 -537 0
536 -170 537 0
-536 170 537 0
537 180 -538 0
-537 -180 -538 0
537 -180 538 0
-537 180 538 0
538 185 -539 0
-538 -185 -539 0
538 -185 539 0
-538 185 539 0
539 195 -540 0
-539 -195 -540 0
539 -195 540 0
-539 195 540 0
-540 0
25 26 -541 0
-25 -26 -541 0
25 -26 541 0
-25 26 541 0
541 30 -542 0
-541 -30 -542 0
541 -30 542 0
-541 30 542 0
542 31 -543 0
-542 -31 -543 0
542 -31 543 0
-542 31 543 0
543 171 -544 0
-543 -171 -544 0
543 -171 544 0
-543 171 544 0
544 181 -545 0
-544 -181 -545 0
544 -181 545 0
-544 181 545 0
545 186 -546 0
-545 -186 -546 0
545 -186 546 0
-545 186 546 0
546 196 -547 0
-546 -196 -547 0
546 -196 547 0
-546 196 547 0
-547 0
26 27 -548 0
-26 -27 -548 0
26 -27 548 0
-26 27 548 0
548 31 -549 0
-548 -31 -549 0
548 -31 549 0
-548 31 549 0
549 32 -550 0
-549 -32 -550 0
549 -32 550 0
-549 32 550 0
550 172 -551 0
-550 -172 -551 0
550 -172 551 0
-550 172 551 0
551 182 -552 0
-551 -182 -552 0
551 -182 552 0
-551 182 552 0
552 187 -553 0
-552 -187 -553 0
552 -187 553 0
-552 187 553 0
553 197 -554 0
-553 -197 -554 0
553 -197 554 0
-553 197 554 0
-554 0
27 28 -555 0
-27 -28 -555 0
27 -28 555 0
-27 28 555 0
555 32 -556 0
-555 -32 -556 0
555 -32 556 0
-555 32 556 0
556 33 -557 0
-556 -33 -557 0
556 -33 557 0
-556 33 557 0
557 173 -558 0
-557 -173 -558 0
557 -173 558 0
-557 173 558 0
558 183 -559 0
-558 -183 -559 0
558 -183 559 0
-558 183 559 0
559 188 -560 0
-559 -188 -560 0
559 -188 560 0
-559 188 560 0
560 198 -561 0
-560 -198 -561 0
560 -198 561 0
-560 198 561 0
-561 0
28 29 -562 0
-28 -29 -562 0
28 -29 562 0
-28 29 562 0
562 33 -563 0
-562 -33 -563 0
562 -33 563 0
-562 33 563 0
563 34 -564 0
-563 -34 -564 0
563 -34 564 0
-563 34 564 0
564 174 -565 0
-564 -174 -565 0
564 -174 565 0
-564 174 565 0
565 184 -566 0
-565 -184 -566 0
565 -184 566 0
-565 184 566 0
566 189 -567 0
-566 -189 -567 0
566 -189 567 0
-566 189 567 0
567 199 -568 0
-567 -199 -568 0
567 -199 568 0
-567 199 568 0
-568 0
29 30 -569 0
-29 -30 -569 0
29 -30 569 0
-29 30 569 0
569 34 -570 0
-569 -34 -570 0
569 -34 570 0
-569 34 570 0
570 35 -571 0
-570 -35 -571 0
570 -35 571 0
-570 35 571 0
571 175 -572 0
-571 -175 -572 0
571 -175 572 0
-571 175 572 0
572 185 -573 0
-572 -185 -573 0
572 -185 573 0
-572 185 573 0
573 190 -574 0
-573 -190 -574 0
573 -190 574 0
-573 190 574 0
574 200 -575 0
-574 -200 -575 0
574 -200 575 0
-574 200 575 0
-575 0
30 31 -576 0
-30 -31 -576 0
30 -31 576 0
-30 31 576 0
576 35 -577 0
-576 -35 -577 0
576 -35 577 0
-576 35 577 0
577 36 -578 0
-577 -36 -578 0
577 -36 578 0
-577 36 578 0
578 176 -579 0
-578 -176 -579 0
578 -176 579 0
-578 176 579 0
579 186 -580 0
-579 -186 -580 0
579 -186 580 0
-579 186 580 0
580 191 -581 0
-580 -191 -581 0
580 -191 581 0
-580 191 581 0
581 201 -582 0
-581 -201 -582 0
581 -201 582 0
-581 201 582 0
-582 0
31 32 -583 0
-31 -32 -583 0
31 -32 583 0
-31 32 583 0
583 36 -584 0
-583 -36 -584 0
583 -36 584 0
-583 36 584 0
584 37 -585 0
-584 -37 -585 0
584 -37 585 0
-584 37 585 0
585 177 -586 0
-585 -177 -586 0
585 -177 586 0
-585 177 586 0
586 187 -587 0
-586 -187 -587 0
586 -187 587 0
-586 187 587 0
587 192 -588 0
-587 -192 -588 0
587 -192 588 0
-587 192 588 0
588 202 -589 0
-588 -202 -589 0
588 -202 589 0
-588 202 589 0
-589 0
32 33 -590 0
-32 -33 -590 0
32 -33 590 0
-32 33 590 0
590 37 -591 0
-590 -37 -591 0
590 -37 591 0
-590 37 591 0
591 38 -592 0
-591 -38 -592 0
591 -38 592 0
-591 38 592 0
592 178 -593 0
-592 -178 -593 0
592 -178 593 0
-592 178 593 0
593 188 -594 0
-593 -188 -594 0
593 -188 594 0
-593 188 594 0
594 193 -595 0
-594 -193 -595 0
594 -193 595 0
-594 193 595 0
595 203 -596 0
-595 -203 -596 0
595 -203 596 0
-595 203 596 0
-596 0
33 34 -597 0
-33 -34 -597 0
33 -34 597 0
-33 34 597 0
597 38 -598 0
-597 -38 -598 0
597 -38 598 0
-597 38 598 0
598 39 -599 0
-598 -39 -599 0
598 -39 599 0
-598 39 599 0
599 179 -600 0
-599 -179 -600 0
599 -179 600 0
-599 179 600 0
600 189 -601 0
-600 -189 -601 0
600 -189 601 0
-600 189 601 0
601 194 -602 0
-601 -194 -602 0
601 -194 602 0
-601 194 602 0
602 204 -603 0
-602 -204 -603 0
602 -204 603 0
-602 204 603 0
-603 0
34 35 -604 0
-34 -35 -604 0
34 -35 604 0
-34 35 604 0
604 39 -605 0
-604 -39 -605 0
604 -39 605 0
-604 39 605 0
605 40 -606 0
-605 -40 -606 0
605 -40 606 0
-605 40 606 0
606 180 -607 0
-606 -180 -607 0
606 -180 607 0
-606 180 607 0
607 190 -608 0
-607 -190 -608 0
607 -190 608 0
-607 190 608 0
608 195 -609 0
-608 -195 -609 0
608 -195 609 0
-608 195 609 0
609 205 -610 0
-609 -205 -610 0
609 -205 610 0
-609 205 610 0
-610 0
35 36 -611 0
-35 -36 -611 0
35 -36 611 0
-35 36 611 0
611 40 -612 0
-611 -40 -612 0
611 -40 612 0
-611 40 612 0
612 41 -613 0
-612 -41 -613 0
612 -41 613 0
-612 41 613 0
613 181 -614 0
-613 -181 -614 0
613 -181 614 0
-613 181 614 0
614 191 -615 0
-614 -191 -615 0
614 -191 615 0
-614 191 615 0
615 196 -616 0
-615 -196 -616 0
615 -196 616 0
-615 196 616 0
616 206 -617 0
-616 -206 -617 0
616 -206 617 0
-616 206 617 0
-617 0
36 37 -618 0
-36 -37 -618 0
36 -37 618 0
-36 37 618 0
618 41 -619 0
-618 -41 -619 0
618 -41 619 0
-618 41 619 0
619 42 -620 0
-619 -42 -620 0
619 -42 620 0
-619 42 620 0
620 182 -621 0
-620 -182 -621 0
620 -182 621 0
-620 182 621 0
621 192 -622 0
-621 -192 -622 0
621 -192 622 0
-621 192 622 0
622 197 -623 0
-622 -197 -623 0
622 -197 623 0
-622 197 623 0
623 207 -624 0
-623 -207 -624 0
623 -207 624 0
-623 207 624 0
-624 0
37 38 -625 0
-37 -38 -625 0
37 -38 625 0
-37 38 625 0
625 42 -626 0
-625 -42 -626 0
625 -42 626 0
-625 42 626 0
626 43 -627 0
-626 -43 -627 0
626 -43 627 0
-626 43 627 0
627 183 -628 0
-627 -183 -628 0
627 -183 628 0
-627 183 628 0
628 193 -629 0
-628 -193 -629 0
628 -193 629 0
-628 193 629 0
629 198 -630 0
-629 -198 -630 0
629 -198 630 0
-629 198 630 0
630 208 -631 0
-630 -208 -631 0
630 -208 631 0
-630 208 631 0
-631 0
38 39 -632 0
-38 -39 -632 0
38 -39 632 0
-38 39 632 0
632 43 -633 0
-632 -43 -633 0
632 -43 633 0
-632 43 633 0
633 44 -634 0
-633 -44 -634 0
633 -44 634 0
-633 44 634 0
634 184 -635 0
-634 -184 -635 0
634 -184 635 0
-634 184 635 0
635 194 -636 0
-635 -194 -636 0
635 -194 636 0
-635 194 636 0
636 199 -637 0
-636 -199 -637 0
636 -199 637 0
-636 199 637 0
637 209 -638 0
-637 -209 -638 0
637 -209 638 0
-637 209 638 0
-638 0
39 40 -639 0
-39 -40 -639 0
39 -40 639 0
-39 40 639 0
639 44 -640 0
-639 -44 -640 0
639 -44 640 0
-639 44 640 0
640 45 -641 0
-640 -45 -641 0
640 -45 641 0
-640 45 641 0
641 185 -642 0
-641 -185 -642 0
641 -185 642 0
-641 185 642 0
642 195 -643 0
-642 -195 -643 0
642 -195 643 0
-642 195 643 0
643 200 -644 0
-643 -200 -644 0
643 -200 644 0
-643 200 644 0
644 210 -645 0
-644 -210 -645 0
644 -210 645 0
-644 210 645 0
-645 0
40 41 -646 0
-40 -41 -646 0
40 -41 646 0
-40 41 646 0
646 45 -647 0
-646 -45 -647 0
646 -45 647 0
-646 45 647 0
647 46 -648 0
-647 -46 -648 0
647 -46 648 0
-647 46 648 0
648 186 -649 0
-648 -186 -649 0
648 -186 649 0
-648 186 649 0
649 196 -650 0
-649 -196 -650 0
649 -196 650 0
-649 196 650 0
650 201 -651 0
-650 -201 -651 0
650 -201 651 0
-650 201 651 0
651 211 -652 0
-651 -211 -652 0
651 -211 652 0
-651 211 652 0
-652 0
41 42 -653 0
-41 -42 -653 0
41 -42 653 0
-41 42 653 0
653 46 -654 0
-653 -46 -654 0
653 -46 654 0
-653 46 654 0
654 47 -655 0
-654 -47 -655 0
654 -47 655 0
-654 47 655 0
655 187 -656 0
-655 -187 -656 0
655 -187 656 0
-655 187 656 0
656 197 -657 0
-656 -197 -657 0
656 -197 657 0
-656 197 657 0
657 202 -658 0
-657 -202 -658 0
657 -202 658 0
-657 202 658 0
658 212 -659 0
-658 -212 -659 0
658 -212 659 0
-658 212 659 0
-659 0
42 43 -660 0
-42 -43 -660 0
42 -43 660 0
-42 43 660 0
660 47 -661 0
-660 -47 -661 0
660 -47 661 0
-660 47 661 0
661 48 -662 0
-661 -48 -662 0
661 -48 662 0
-661 48 662 0
662 188 -663 0
-662 -188 -663 0
662 -188 663 0
-662 188 663 0
663 198 -664 0
-663 -198 -664 0
663 -198 664 0
-663 198 664 0
664 203 -665 0
-664 -203 -665 0
664 -203 665 0
-664 203 665 0
665 213 -666 0
-665 -213 -666 0
665 -213 666 0
-665 213 666 0
-666 0
43 44 -667 0
-43 -44 -667 0
43 -44 667 0
-43 44 667 0
667 48 -668 0
-667 -48 -668 0
667 -48 668 0
-667 48 668 0
668 49 -669 0
-668 -49 -669 0
668 -49 669 0
-668 49 669 0
669 189 -670 0
-669 -189 -670 0
669 -189 670 0
-669 189 670 0
670 199 -671 0
-670 -199 -671 0
670 -199 671 0
-670 199 671 0
671 204 -672 0
-671 -204 -672 0
671 -204 672 0
-671 204 672 0
672 214 -673 0
-672 -214 -673 0
672 -214 673 0
-672 214 673 0
-673 0
44 45 -674 0
-44 -45 -674 0
44 -45 674 0
-44 45 674 0
674 49 -675 0
-674 -49 -675 0
674 -49 675 0
-674 49 675 0
675 50 -676 0
-675 -50 -676 0
675 -50 676 0
-675 50 676 0
676 190 -677 0
-676 -190 -677 0
676 -190 677 0
-676 190 677 0
677 200 -678 0
-677 -200 -678 0
677 -200 678 0
-677 200 678 0
678 205 -679 0
-678 -205 -679 0
678 -205 679 0
-678 205 679 0
679 215 -680 0
-679 -215 -680 0
679 -215 680 0
-679 215 680 0
-680 0
45 46 -681 0
-45 -46 -681 0
45 -46 681 0
-45 46 681 0
681 50 -682 0
-681 -50 -682 0
681 -50 682 0
-681 50 682 0
682 51 -683 0
-682 -51 -683 0
682 -51 683 0
-682 51 683 0
683 191 -684 0
-683 -191 -684 0
683 -191 684 0
-683 191 684 0
684 201 -685 0
-684 -201 -685 0
684 -201 685 0
-684 201 685 0
685 206 -686 0
-685 -206 -686 0
685 -206 686 0
-685 206 686 0
686 216 -687 0
-686 -216 -687 0
686 -216 687 0
-686 216 687 0
-687 0
46 47 -688 0
-46 -47 -688 0
46 -47 688 0
-46 47 688 0
688 51 -689 0
-688 -51 -689 0
688 -51 689 0
-688 51 689 0
689 52 -690 0
-689 -52 -690 0
689 -52 690 0
-689 52 690 0
690 192 -691 0
-690 -192 -691 0
690 -192 691 0
-690 192 691 0
691 202 -692 0
-691 -202 -692 0
691 -202 692 0
-691 202 692 0
692 207 -693 0
-692 -207 -693 0
692 -207 693 0
-692 207 693 0
693 217 -694 0
-693 -217 -694 0
693 -217 694 0
-693 217 694 0
-694 0
47 48 -695 0
-47 -48 -695 0
47 -48 695 0
-47 48 695 0
695 52 -696 0
-695 -52 -696 0
695 -52 696 0
-695 52 696 0
696 53 -697 0
-696 -53 -697 0
696 -53 697 0
-696 53 697 0
697 193 -698 0
-697 -193 -698 0
697 -193 698 0
-697 193 698 0
698 203 -699 0
-698 -203 -699 0
698 -203 699 0
-698 203 699 0
699 208 -700 0
-699 -208 -700 0
699 -208 700 0
-699 208 700 0
700 218 -701 0
-700 -218 -701 0
700 -218 701 0
-700 218 701 0
-701 0
48 49 -702 0
-48 -49 -702 0
48 -49 702 0
-48 49 702 0
702 53 -703 0
-702 -53 -703 0
702 -53 703 0
-702 53 703 0
703 54 -704 0
-703 -54 -704 0
703 -54 704 0
-703 54 704 0
704 194 -705 0
-704 -194 -705 0
704 -194 705 0
-704 194 705 0
705 204 -706 0
-705 -204 -706 0
705 -204 706 0
-705 204 706 0
706 209 -707 0
-706 -209 -707 0
706 -209 707 0
-706 209 707 0
707 219 -708 0
-707 -219 -708 0
707 -219 708 0
-707 219 708 0
-708 0
49 50 -709 0
-49 -50 -709 0
49 -50 709 0
-49 50 709 0
709 54 -710 0
-709 -54 -710 0
709 -54 710 0
-709 54 710 0
710 55 -711 0
-710 -55 -711 0
710 -55 711 0
-710 55 711 0
711 195 -712 0
-711 -195 -712 0
711 -195 712 0
-711 195 712 0
712 205 -713 0
-712 -205 -713 0
712 -205 713 0
-712 205 713 0
713 210 -714 0
-713 -210 -714 0
713 -210 714 0
-713 210 714 0
714 220 -715 0
-714 -220 -715 0
714 -220 715 0
-714 220 715 0
-715 0
50 51 -716 0
-50 -51 -716 0
50 -51 716 0
-50 51 716 0
716 55 -717 0
-716 -55 -717 0
716 -55 717 0
-716 55 717 0
717 56 -718 0
-717 -56 -718 0
717 -56 718 0
-717 56 718 0
718 196 -719 0
-718 -196 -719 0
718 -196 719 0
-718 196 719 0
719 206 -720 0
-719 -206 -720 0
719 -206 720 0
-719 206 720 0
720 211 -721 0
-720 -211 -721 0
720 -211 721 0
-720 211 721 0
721 221 -722 0
-721 -221 -722 0
721 -221 722 0
-721 221 722 0
-722 0
51 52 -723 0
-51 -52 -723 0
51 -52 723 0
-51 52 723 0
723 56 -724 0
-723 -56 -724 0
723 -56 724 0
-723 56 724 0
724 57 -725 0
-724 -57 -725 0
724 -57 725 0
-724 57 725 0
725 197 -726 0
-725 -197 -726 0
725 -197 726 0
-725 197 726 0
726 207 -727 0
-726 -207 -727 0
726 -207 727 0
-726 207 727 0
727 212 -728 0
-727 -212 -728 0
727 -212 728 0
-727 212 728 0
728 222 -729 0
-728 -222 -729 0
728 -222 729 0
-728 222 729 0
-729 0
52 53 -730 0
-52 -53 -730 0
52 -53 730 0
-52 53 730 0
730 57 -731 0
-730 -57 -731 0
730 -57 731 0
-730 57 731 0
731 58 -732 0
-731 -58 -732 0
731 -58 732 0
-731 58 732 0
732 198 -733 0
-732 -198 -733 0
732 -198 733 0
-732 198 733 0
733 208 -734 0
-733 -208 -734 0
733 -208 734 0
-733 208 734 0
734 213 -735 0
-734 -213 -735 0
734 -213 735 0
-734 213 735 0
735 223 -736 0
-735 -223 -736 0
735 -223 736 0
-735 223 736 0
-736 0
53 54 -737 0
-53 -54 -737 0
53 -54 737 0
-53 54 737 0
737 58 -738 0
-737 -58 -738 0
737 -58 738 0
-737 58 738 0
738 59 -739 0
-738 -59 -739 0
738 -59 739 0
-738 59 739 0
739 199 -740 0
-739 -199 -740 0
739 -199 740 0
-739 199 740 0
740 209 -741 0
-740 -209 -741 0
740 -209 741 0
-740 209 741 0
741 214 -742 0
-741 -214 -742 0
741 -214 742 0
-741 214 742 0
742 224 -743 0
-742 -224 -743 0
742 -224 743 0
-742 224 743 0
-743 0
54 55 -744 0
-54 -55 -744 0
54 -55 744 0
-54 55 744 0
744 59 -745 0
-744 -59 -745 0
744 -59 745 0
-744 59 745 0
745 60 -746 0
-745 -60 -746 0
745 -60 746 0
-745 60 746 0
746 200 -747 0
-746 -200 -747 0
746 -200 747 0
-746 200 747 0
747 210 -748 0
-747 -210 -748 0
747 -210 748 0
-747 210 748 0
748 215 -749 0
-748 -215 -749 0
748 -215 749 0
-748 215 749 0
749 225 -750 0
-749 -225 -750 0
749 -225 750 0
-749 225 750 0
-750 0
55 56 -751 0
-55 -56 -751 0
55 -56 751 0
-55 56 751 0
751 60 -752 0
-751 -60 -752 0
751 -60 752 0
-751 60 752 0
752 61 -753 0
-752 -61 -753 0
752 -61 753 0
-752 61 753 0
753 201 -754 0
-753 -201 -754 0
753 -201 754 0
-753 201 754 0
754 211 -755 0
-754 -211 -755 0
754 -211 755 0
-754 211 755 0
755 216 -756 0
-755 -216 -756 0
755 -216 756 0
-755 216 756 0
756 226 -757 0
-756 -226 -757 0
756 -226 757 0
-756 226 757 0
-757 0
56 57 -758 0
-56 -57 -758 0
56 -57 758 0
-56 57 758 0
758 61 -759 0
-758 -61 -759 0
758 -61 759 0
-758 61 759 0
759 62 -760 0
-759 -62 -760 0
759 -62 760 0
-759 62 760 0
760 202 -761 0
-760 -202 -761 0
760 -202 761 0
-760 202 761 0
761 212 -762 0
-761 -212 -762 0
761 -212 762 0
-761 212 762 0
762 217 -763 0
-762 -217 -763 0
762 -217 763 0
-762 217 763 0
763 227 -764 0
-763 -227 -764 0
763 -227 764 0
-763 227 764 0
-764 0
57 58 -765 0
-57 -58 -765 0
57 -58 765 0
-57 58 765 0
765 62 -766 0
-765 -62 -766 0
765 -62 766 0
-765 62 766 0
766 63 -767 0
-766 -63 -767 0
766 -63 767 0
-766 63 767 0
767 203 -768 0
-767 -203 -768 0
767 -203 768 0
-767 203 768 0
768 213 -769 0
-768 -213 -769 0
768 -213 769 0
-768 213 769 0
769 218 -770 0
-769 -218 -770 0
769 -218 770 0
-769 218 770 0
770 228 -771 0
-770 -228 -771 0
770 -228 771 0
-770 228 771 0
-771 0
58 59 -772 0
-58 -59 -772 0
58 -59 772 0
-58 59 772 0
772 63 -773 0
-772 -63 -773 0
772 -63 773 0
-772 63 773 0
773 64 -774 0
-773 -64 -774 0
773 -64 774 0
-773 64 774 0
774 204 -775 0
-774 -204 -775 0
774 -204 775 0
-774 204 775 0
775 214 -776 0
-775 -214 -776 0
775 -214 776 0
-775 214 776 0
776 219 -777 0
-776 -219 -777 0
776 -219 777 0
-776 219 777 0
777 229 -778 0
-777 -229 -778 0
777 -229 778 0
-777 229 778 0
-778 0
59 60 -779 0
-59 -60 -779 0
59 -60 779 0
-59 60 779 0
779 64 -780 0
-779 -64 -780 0
779 -64 780 0
-779 64 780 0
780 65 -781 0
-780 -65 -781 0
780 -65 781 0
-780 65 781 0
781 205 -782 0
-781 -205 -782 0
781 -205 782 0
-781 205 782 0
782 215 -783 0
-782 -215 -783 0
782 -215 783 0
-782 215 783 0
783 220 -784 0
-783 -220 -784 0
783 -220 784 0
-783 220 784 0
784 230 -785 0
-784 -230 -785 0
784 -230 785 0
-784 230 785 0
-785 0
60 61 -786 0
-60 -61 -786 0
60 -61 786 0
-60 61 786 0
786 65 -787 0
-786 -65 -787 0
786 -65 787 0
-786 65 787 0
787 66 -788 0
-787 -66 -788 0
787 -66 788 0
-787 66 788 0
788 206 -789 0
-788 -206 -789 0
788 -206 789 0
-788 206 789 0
789 216 -790 0
-789 -216 -790 0
789 -216 790 0
-789 216 790 0
790 221 -791 0
-790 -221 -791 0
790 -221 791 0
-790 221 791 0
791 231 -792 0
-791 -231 -792 0
791 -231 792 0
-791 231 792 0
-792 0
61 62 -793 0
-61 -62 -793 0
61 -62 793 0
-61 62 793 0
793 66 -794 0
-793 -66 -794 0
793 -66 794 0
-793 66 794 0
794 67 -795 0
-794 -67 -795 0
794 -67 795 0
-794 67 795 0
795 207 -796 0
-795 -207 -796 0
795 -207 796 0
-795 207 796 0
796 217 -797 0
-796 -217 -797 0
796 -217 797 0
-796 217 797 0
797 222 -798 0
-797 -222 -798 0
797 -222 798 0
-797 222 798 0
798 232 -799 0
-798 -232 -799 0
798 -232 799 0
-798 232 799 0
-799 0
62 63 -800 0
-62 -63 -800 0
62 -63 800 0
-62 63 800 0
800 67 -801 0
-800 -67 -801 0
800 -67 801 0
-800 67 801 0
801 68 -802 0
-801 -68 -802 0
801 -68 802 0
-801 68 802 0
802 208 -803 0
-802 -208 -803 0
802 -208 803 0
-802 208 803 0
803 218 -804 0
-803 -218 -804 0
803 -218 804 0
-803 218 804 0
804 223 -805 0
-804 -223 -805 0
804 -223 805 0
-804 223 805 0
805 233 -806 0
-805 -233 -806 0
805 -233 806 0
-805 233 806 0
-806 0
63 64 -807 0
-63 -64 -807 0
63 -64 807 0
-63 64 807 0
807 68 -808 0
-807 -68 -808 0
807 -68 808 0
-807 68 808 0
808 69 -809 0
-808 -69 -809 0
808 -69 809 0
-808 69 809 0
809 209 -810 0
-809 -209 -810 0
809 -209 810 0
-809 209 810 0
810 219 -811 0
-810 -219 -811 0
810 -219 811 0
-810 219 811 0
811 224 -812 0
-811 -224 -812 0
811 -224 812 0
-811 224 812 0
812 234 -813 0
-812 -234 -813 0
812 -234 813 0
-812 234 813 0
-813 0
64 65 -814 0
-64 -65 -814 0
64 -65 814 0
-64 65 814 0
814 69 -815 0
-814 -69 -815 0
814 -69 815 0
-814 69 815 0
815 70 -816 0
-815 -70 -816 0
815 -70 816 0
-815 70 816 0
816 210 -817 0
-816 -210 -817 0
816 -210 817 0
-816 210 817 0
817 220 -818 0
-817 -220 -818 0
817 -220 818 0
-817 220 818 0
818 225 -819 0
-818 -225 -819 0
818 -225 819 0
-818 225 819 0
819 235 -820 0
-819 -235 -820 0
819 -235 820 0
-819 235 820 0
-820 0
65 66 -821 0
-65 -66 -821 0
65 -66 821 0
-65 66 821 0
821 70 -822 0
-821 -70 -822 0
821 -70 822 0
-821 70 822 0
822 71 -823 0
-822 -71 -823 0
822 -71 823 0
-822 71 823 0
823 211 -824 0
-823 -211 -824 0
823 -211 824 0
-823 211 824 0
824 221 -825 0
-824 -221 -825 0
824 -221 825 0
-824 221 825 0
825 226 -826 0
-825 -226 -826 0
825 -226 826 0
-825 226 826 0
826 236 -827 0
-826 -236 -827 0
826 -236 827 0
-826 236 827 0
-827 0
66 67 -828 0
-66 -67 -828 0
66 -67 828 0
-66 67 828 0
828 71 -829 0
-828 -71 -829 0
828 -71 829 0
-828 71 829 0
829 72 -830 0
-829 -72 -830 0
829 -72 830 0
-829 72 830 0
830 212 -831 0
-830 -212 -831 0
830 -212 831 0
-830 212 831 0
831 222 -832 0
-831 -222 -832 0
831 -222 832 0
-831 222 832 0
832 227 -833 0
-832 -227 -833 0
832 -227 833 0
-832 227 833 0
833 237 -834 0
-833 -237 -834 0
833 -237 834 0
-833 237 834 0
-834 0
67 68 -835 0
-67 -68 -835 0
67 -68 835 0
-67 68 835 0
835 72 -836 0
-835 -72 -836 0
835 -72 836 0
-835 72 836 0
836 73 -837 0
-836 -73 -837 0
836 -73 837 0
-836 73 837 0
837 213 -838 0
-837 -213 -838 0
837 -213 838 0
-837 213 838 0
838 223 -839 0
-838 -223 -839 0
838 -223 839 0
-838 223 839 0
839 228 -840 0
-839 -228 -840 0
839 -228 840 0
-839 228 840 0
840 238 -841 0
-840 -238 -841 0
840 -238 841 0
-840 238 841 0
-841 0
68 69 -842 0
-68 -69 -842 0
68 -69 842 0
-68 69 842 0
842 73 -843 0
-842 -73 -843 0
842 -73 843 0
-842 73 843 0
843 74 -844 0
-843 -74 -844 0
843 -74 844 0
-843 74 844 0
844 214 -845 0
-844 -214 -845 0
844 -214 845 0
-844 214 845 0
845 224 -846 0
-845 -224 -846 0
845 -224 846 0
-845 224 846 0
846 229 -847 0
-846 -229 -847 0
846 -229 847 0
-846 229 847 0
847 239 -848 0
-847 -239 -848 0
847 -239 848 0
-847 239 848 0
-848 0
69 70 -849 0
-69 -70 -849 0
69 -70 849 0
-69 70 849 0
849 74 -850 0
-849 -74 -850 0
849 -74 850 0
-849 74 850 0
850 75 -851 0
-850 -75 -851 0
850 -75 851 0
-850 75 851 0
851 215 -852 0
-851 -215 -852 0
851 -215 852 0
-851 215 852 0
852 225 -853 0
-852 -225 -853 0
852 -225 853 0
-852 225 853 0
853 230 -854 0
-853 -230 -854 0
853 -230 854 0
-853 230 854 0
854 240 -855 0
-854 -240 -855 0
854 -240 855 0
-854 240 855 0
-855 0
70 71 -856 0
-70 -71 -856 0
70 -71 856 0
-70 71 856 0
856 75 -857 0
-856 -75 -857 0
856 -75 857 0
-856 75 857 0
857 76 -858 0
-857 -76 -858 0
857 -76 858 0
-857 76 858 0
858 216 -859 0
-858 -216 -859 0
858 -216 859 0
-858 216 859 0
859 226 -860 0
-859 -226 -860 0
859 -226 860 0
-859 226 860 0
860 231 -861 0
-860 -231 -861 0
860 -231 861 0
-860 231 861 0
861 241 -862 0
-861 -241 -862 0
861 -241 862 0
-861 241 862 0
-862 0
71 72 -863 0
-71 -72 -863 0
71 -72 863 0
-71 72 863 0
863 76 -864 0
-863 -76 -864 0
863 -76 864 0
-863 76 864 0
864 77 -865 0
-864 -77 -865 0
864 -77 865 0
-864 77 865 0
865 217 -866 0
-865 -217 -866 0
865 -217 866 0
-865 217 866 0
866 227 -867 0
-866 -227 -867 0
866 -227 867 0
-866 227 867 0
867 232 -868 0
-867 -232 -868 0
867 -232 868 0
-867 232 868 0
868 242 -869 0
-868 -242 -869 0
868 -242 869 0
-868 242 869 0
-869 0
72 73 -870 0
-72 -73 -870 0
72 -73 870 0
-72 73 870 0
870 77 -871 0
-870 -77 -871 0
870 -77 871 0
-870 77 871 0
871 78 -872 0
-871 -78 -872 0
871 -78 872 0
-871 78 872 0
872 218 -873 0
-872 -218 -873 0
872 -218 873 0
-872 218 873 0
873 228 -874 0
-873 -228 -874 0
873 -228 874 0
-873 228 874 0
874 233 -875 0
-874 -233 -875 0
874 -233 875 0
-874 233 875 0
875 243 -876 0
-875 -243 -876 0
875 -243 876 0
-875 243 876 0
-876 0
73 74 -877 0
-73 -74 -877 0
73 -74 877 0
-73 74 877 0
877 78 -878 0
-877 -78 -878 0
877 -78 878 0
-877 78 878 0
878 79 -879 0
-878 -79 -879 0
878 -79 879 0
-878 79 879 0
879 219 -880 0
-879 -219 -880 0
879 -219 880 0
-879 219 880 0
880 229 -881 0
-880 -229 -881 0
880 -229 881 0
-880 229 881 0
881 234 -882 0
-881 -234 -882 0
881 -234 882 0
-881 234 882 0
882 244 -883 0
-882 -244 -883 0
882 -244 883 0
-882 244 883 0
-883 0
74 75 -884 0
-74 -75 -884 0
74 -75 884 0
-74 75 884 0
884 79 -885 0
-884 -79 -885 0
884 -79 885 0
-884 79 885 0
885 80 -886 0
-885 -80 -886 0
885 -80 886 0
-885 80 886 0
886 220 -887 0
-886 -220 -887 0
886 -220 887 0
-886 220 887 0
887 230 -888 0
-887 -230 -888 0
887 -230 888 0
-887 230 888 0
888 235 -889 0
-888 -235 -889 0
888 -235 889 0
-888 235 889 0
889 245 -890 0
-889 -245 -890 0
889 -245 890 0
-889 245 890 0
-890 0
75 76 -891 0
-75 -76 -891 0
75 -76 891 0
-75 76 891 0
891 80 -892 0
-891 -80 -892 0
891 -80 892 0
-891 80 892 0
892 81 -893 0
-892 -81 -893 0
892 -81 893 0
-892 81 893 0
893 221 -894 0
-893 -221 -894 0
893 -221 894 0
-893 221 894 0
894 231 -895 0
-894 -231 -895 0
894 -231 895 0
-894 231 895 0
895 236 -896 0
-895 -236 -896 0
895 -236 896 0
-895 236 896 0
896 246 -897 0
-896 -246 -897 0
896 -246 897 0
-896 246 897 0
-897 0
76 77 -898 0
-76 -77 -898 0
76 -77 898 0
-76 77 898 0
898 81 -899 0
-898 -81 -899 0
898 -81 899 0
-898 81 899 0
899 82 -900 0
-899 -82 -900 0
899 -82 900 0
-899 82 900 0
900 222 -901 0
-900 -222 -901 0
900 -222 901 0
-900 222 901 0
901 232 -902 0
-901 -232 -902 0
901 -232 902 0
-901 232 902 0
902 237 -903 0
-902 -237 -903 0
902 -237 903 0
-902 237 903 0
903 247 -904 0
-903 -247 -904 0
903 -247 904 0
-903 247 904 0
-904 0
77 78 -905 0
-77 -78 -905 0
77 -78 905 0
-77 78 905 0
905 82 -906 0
-905 -82 -906 0
905 -82 906 0
-905 82 906 0
906 83 -907 0
-906 -83 -907 0
906 -83 907 0
-906 83 907 0
907 223 -908 0
-907 -223 -908 0
907 -223 908 0
-907 223 908 0
908 233 -909 0
-908 -233 -909 0
908 -233 909 0
-908 233 909 0
909 238 -910 0
-909 -238 -910 0
909 -238 910 0
-909 238 910 0
910 248 -911 0
-910 -248 -911 0
910 -248 911 0
-910 248 911 0
-911 0
78 79 -912 0
-78 -79 -912 0
78 -79 912 0
-78 79 912 0
912 83 -913 0
-912 -83 -913 0
912 -83 913 0
-912 83 913 0
913 84 -914 0
-913 -84 -914 0
913 -84 914 0
-913 84 914 0
914 224 -915 0
-914 -224 -915 0
914 -224 915 0
-914 224 915 0
915 234 -916 0
-915 -234 -916 0
915 -234 916 0
-915 234 916 0
916 239 -917 0
-916 -239 -917 0
916 -239 917 0
-916 239 917 0
917 249 -918 0
-917 -249 -918 0
917 -249 918 0
-917 249 918 0
-918 0
79 80 -919 0
-79 -80 -919 0
79 -80 919 0
-79 80 919 0
919 84 -920 0
-919 -84 -920 0
919 -84 920 0
-919 84 920 0
920 85 -921 0
-920 -85 -921 0
920 -85 921 0
-920 85 921 0
921 225 -922 0
-921 -225 -922 0
921 -225 922 0
-921 225 922 0
922 235 -923 0
-922 -235 -923 0
922 -235 923 0
-922 235 923 0
923 240 -924 0
-923 -240 -924 0
923 -240 924 0
-923 240 924 0
924 250 -925 0
-924 -250 -925 0
924 -250 925 0
-924 250 925 0
-925 0
80 81 -926 0
-80 -81 -926 0
80 -81 926 0
-80 81 926 0
926 85 -927 0
-926 -85 -927 0
926 -85 927 0
-926 85 927 0
927 86 -928 0
-927 -86 -928 0
927 -86 928 0
-927 86 928 0
928 226 -929 0
-928 -226 -929 0
928 -226 929 0
-928 226 929 0
929 236 -930 0
-929 -236 -930 0
929 -236 930 0
-929 236 930 0
930 241 -931 0
-930 -241 -931 0
930 -241 931 0
-930 241 931 0
931 251 -932 0
-931 -251 -932 0
931 -251 932 0
-931 251 932 0
-932 0
81 82 -933 0
-81 -82 -933 0
81 -82 933 0
-81 82 933 0
933 86 -934 0
-933 -86 -934 0
933 -86 934 0
-933 86 934 0
934 87 -935 0
-934 -87 -935 0
934 -87 935 0
-934 87 935 0
935 227 -936 0
-935 -227 -936 0
935 -227 936 0
-935 227 936 0
936 237 -937 0
-936 -237 -937 0
936 -237 937 0
-936 237 937 0
937 242 -938 0
-937 -242 -938 0
937 -242 938 0
-937 242 938 0
938 252 -939 0
-938 -252 -939 0
938 -252 939 0
-938 252 939 0
-939 0
82 83 -940 0
-82 -83 -940 0
82 -83 940 0
-82 83 940 0
940 87 -941 0
-940 -87 -941 0
940 -87 941 0
-940 87 941 0
941 88 -942 0
-941 -88 -942 0
941 -88 942 0
-941 88 942 0
942 228 -943 0
-942 -228 -943 0
942 -228 943 0
-942 228 943 0
943 238 -944 0
-943 -238 -944 0
943 -238 944 0
-943 238 944 0
944 243 -945 0
-944 -243 -945 0
944 -243 945 0
-944 243 945 0
945 253 -946 0
-945 -253 -946 0
945 -253 946 0
-945 253 946 0
-946 0
83 84 -947 0
-83 -84 -947 0
83 -84 947 0
-83 84 947 0
947 88 -948 0
-947 -88 -948 0
947 -88 948 0
-947 88 948 0
948 89 -949 0
-948 -89 -949 0
948 -89 949 0
-948 89 949 0
949 229 -950 0
-949 -229 -950 0
949 -229 950 0
-949 229 950 0
950 239 -951 0
-950 -239 -951 0
950 -239 951 0
-950 239 951 0
951 244 -952 0
-951 -244 -952 0
951 -244 952 0
-951 244 952 0
952 254 -953 0
-952 -254 -953 0
952 -254 953 0
-952 254 953 0
-953 0
84 85 -954 0
-84 -85 -954 0
84 -85 954 0
-84 85 954 0
954 89 -955 0
-954 -89 -955 0
954 -89 955 0
-954 89 955 0
955 90 -956 0
-955 -90 -956 0
955 -90 956 0
-955 90 956 0
956 230 -957 0
-956 -230 -957 0
956 -230 957 0
-956 230 957 0
957 240 -958 0
-957 -240 -958 0
957 -240 958 0
-957 240 958 0
958 245 -959 0
-958 -245 -959 0
958 -245 959 0
-958 245 959 0
959 255 -960 0
-959 -255 -960 0
959 -255 960 0
-959 255 960 0
-960 0
85 86 -961 0
-85 -86 -961 0
85 -86 961 0
-85 86 961 0
961 90 -962 0
-961 -90 -962 0
961 -90 962 0
-961 90 962 0
962 91 -963 0
-962 -91 -963 0
962 -91 963 0
-962 91 963 0
963 231 -964 0
-963 -231 -964 0
963 -231 964 0
-963 231 964 0
964 241 -965 0
-964 -241 -965 0
964 -241 965 0
-964 241 965 0
965 246 -966 0
-965 -246 -966 0
965 -246 966 0
-965 246 966 0
966 256 -967 0
-966 -256 -967 0
966 -256 967 0
-966 256 967 0
-967 0
86 87 -968 0
-86 -87 -968 0
86 -87 968 0
-86 87 968 0
968 91 -969 0
-968 -91 -969 0
968 -91 969 0
-968 91 969 0
969 92 -970 0
-969 -92 -970 0
969 -92 970 0
-969 92 970 0
970 232 -971 0
-970 -232 -971 0
970 -232 971 0
-970 232 971 0
971 242 -972 0
-971 -242 -972 0
971 -242 972 0
-971 242 972 0
972 247 -973 0
-972 -247 -973 0
972 -247 973 0
-972 247 973 0
973 257 -974 0
-973 -257 -974 0
973 -257 974 0
-973 257 974 0
-974 0
87 88 -975 0
-87 -88 -975 0
87 -88 975 0
-87 88 975 0
975 92 -976 0
-975 -92 -976 0
975 -92 976 0
-975 92 976 0
976 93 -977 0
-976 -93 -977 0
976 -93 977 0
-976 93 977 0
977 233 -978 0
-977 -233 -978 0
977 -233 978 0
-977 233 978 0
978 243 -979 0
-978 -243 -979 0
978 -243 979 0
-978 243 979 0
979 248 -980 0
-979 -248 -980 0
979 -248 980 0
-979 248 980 0
980 258 -981 0
-980 -258 -981 0
980 -258 981 0
-980 258 981 0
-981 0
88 89 -982 0
-88 -89 -982 0
88 -89 982 0
-88 89 982 0
982 93 -983 0
-982 -93 -983 0
982 -93 983 0
-982 93 983 0
983 94 -984 0
-983 -94 -984 0
983 -94 984 0
-983 94 984 0
984 234 -985 0
-984 -234 -985 0
984 -234 985 0
-984 234 985 0
985 244 -986 0
-985 -244 -986 0
985 -244 986 0
-985 244 986 0
986 249 -987 0
-986 -249 -987 0
986 -249 987 0
-986 249 987 0
987 259 -988 0
-987 -259 -988 0
987 -259 988 0
-987 259 988 0
-988 0
89 90 -989 0
-89 -90 -989 0
89 -90 989 0
-89 90 989 0
989 94 -990 0
-989 -94 -990 0
989 -94 990 0
-989 94 990 0
990 95 -991 0
-990 -95 -991 0
990 -95 991 0
-990 95 991 0
991 235 -992 0
-991 -235 -992 0
991 -235 992 0
-991 235 992 0
992 245 -993 0
-992 -245 -993 0
992 -245 993 0
-992 245 993 0
993 250 -994 0
-993 -250 -994 0
993 -250 994 0
-993 250 994 0
994 260 -995 0
-994 -260 -995 0
994 -260 995 0
-994 260 995 0
-995 0
90 91 -996 0
-90 -91 -996 0
90 -91 996 0
-90 91 996 0
996 95 -997 0
-996 -95 -997 0
996 -95 997 0
-996 95 997 0
997 96 -998 0
-997 -96 -998 0
997 -96 998 0
-997 96 998 0
998 236 -999 0
-998 -236 -999 0
998 -236 999 0
-998 236 999 0
999 246 -1000 0
-999 -246 -1000 0
999 -246 1000 0
-999 246 1000 0
1000 251 -1001 0
-1000 -251 -1001 0
1000 -251 1001 0
-1000 251 1001 0
1001 261 -1002 0
-1001 -261 -1002 0
1001 -261 1002 0
-1001 261 1002 0
-1002 0
91 92 -1003 0
-91 -92 -1003 0
91 -92 1003 0
-91 92 1003 0
1003 96 -1004 0
-1003 -96 -1004 0
1003 -96 1004 0
-1003 96 1004 0
1004 97 -1005 0
-1004 -97 -1005 0
1004 -97 1005 0
-1004 97 1005 0
1005 237 -1006 0
-1005 -237 -1006 0
1005 -237 1006 0
-1005 237 1006 0
1006 247 -1007 0
-1006 -247 -1007 0
1006 -247 1007 0
-1006 247 1007 0
1007 252 -1008 0
-1007 -252 -1008 0
1007 -252 1008 0
-1007 252 1008 0
1008 262 -1009 0
-1008 -262 -1009 0
1008 -262 1009 0
-1008 262 1009 0
-1009 0
92 93 -1010 0
-92 -93 -1010 0
92 -93 1010 0
-92 93 1010 0
1010 97 -1011 0
-1010 -97 -1011 0
1010 -97 1011 0
-1010 97 1011 0
1011 98 -1012 0
-1011 -98 -1012 0
1011 -98 1012 0
-1011 98 1012 0
1012 238 -1013 0
-1012 -238 -1013 0
1012 -238 1013 0
-1012 238 1013 0
1013 248 -1014 0
-1013 -248 -1014 0
1013 -248 1014 0
-1013 248 1014 0
1014 253 -1015 0
-1014 -253 -1015 0
1014 -253 1015 0
-1014 253 1015 0
1015 263 -1016 0
-1015 -263 -1016 0
1015 -263 1016 0
-1015 263 1016 0
-1016 0
93 94 -1017 0
-93 -94 -1017 0
93 -94 1017 0
-93 94 1017 0
1017 98 -1018 0
-1017 -98 -1018 0
1017 -98 1018 0
-1017 98 1018 0
1018 99 -1019 0
-1018 -99 -1019 0
1018 -99 1019 0
-1018 99 1019 0
1019 239 -1020 0
-1019 -239 -1020 0
1019 -239 1020 0
-1019 239 1020 0
1020 249 -1021 0
-1020 -249 -1021 0
1020 -249 1021 0
-1020 249 1021 0
1021 254 -1022 0
-1021 -254 -1022 0
1021 -254 1022 0
-1021 254 1022 0
1022 264 -1023 0
-1022 -264 -1023 0
1022 -264 1023 0
-1022 264 1023 0
-1023 0
94 95 -1024 0
-94 -95 -1024 0
94 -95 1024 0
-94 95 1024 0
1024 99 -1025 0
-1024 -99 -1025 0
1024 -99 1025 0
-1024 99 1025 0
1025 100 -1026 0
-1025 -100 -1026 0
1025 -100 1026 0
-1025 100 1026 0
1026 240 -1027 0
-1026 -240 -1027 0
1026 -240 1027 0
-1026 240 1027 0
1027 250 -1028 0
-1027 -250 -1028 0
1027 -250 1028 0
-1027 250 1028 0
1028 255 -1029 0
-1028 -255 -1029 0
1028 -255 1029 0
-1028 255 1029 0
1029 265 -1030 0
-1029 -265 -1030 0
1029 -265 1030 0
-1029 265 1030 0
-1030 0
95 96 -1031 0
-95 -96 -1031 0
95 -96 1031 0
-95 96 1031 0
1031 100 -1032 0
-1031 -100 -1032 0
1031 -100 1032 0
-1031 100 1032 0
1032 101 -1033 0
-1032 -101 -1033 0
1032 -101 1033 0
-1032 101 1033 0
1033 241 -1034 0
-1033 -241 -1034 0
1033 -241 1034 0
-1033 241 1034 0
1034 251 -1035 0
-1034 -251 -1035 0
1034 -251 1035 0
-1034 251 1035 0
1035 256 -1036 0
-1035 -256 -1036 0
1035 -256 1036 0
-1035 256 1036 0
1036 266 -1037 0
-1036 -266 -1037 0
1036 -266 1037 0
-1036 266 1037 0
-1037 0
96 97 -1038 0
-96 -97 -1038 0
96 -97 1038 0
-96 97 1038 0
1038 101 -1039 0
-1038 -101 -1039 0
1038 -101 1039 0
-1038 101 1039 0
1039 102 -1040 0
-1039 -102 -1040 0
1039 -102 1040 0
-1039 102 1040 0
1040 242 -1041 0
-1040 -242 -1041 0
1040 -242 1041 0
-1040 242 1041 0
1041 252 -1042 0
-1041 -252 -1042 0
1041 -252 1042 0
-1041 252 1042 0
1042 257 -1043 0
-1042 -257 -1043 0
1042 -257 1043 0
-1042 257 1043 0
1043 267 -1044 0
-1043 -267 -1044 0
1043 -267 1044 0
-1043 267 1044 0
-1044 0
97 98 -1045 0
-97 -98 -1045 0
97 -98 1045 0
-97 98 1045 0
1045 102 -1046 0
-1045 -102 -1046 0
1045 -102 1046 0
-1045 102 1046 0
1046 103 -1047 0
-1046 -103 -1047 0
1046 -103 1047 0
-1046 103 1047 0
1047 243 -1048 0
-1047 -243 -1048 0
1047 -243 1048 0
-1047 243 1048 0
1048 253 -1049 0
-1048 -253 -1049 0
1048 -253 1049 0
-1048 253 1049 0
1049 258 -1050 0
-1049 -258 -1050 0
1049 -258 1050 0
-1049 258 1050 0
1050 268 -1051 0
-1050 -268 -1051 0
1050 -268 1051 0
-1050 268 1051 0
-1051 0
98 99 -1052 0
-98 -99 -1052 0
98 -99 1052 0
-98 99 1052 0
1052 103 -1053 0
-1052 -103 -1053 0
1052 -103 1053 0
-1052 103 1053 0
1053 104 -1054 0
-1053 -104 -1054 0
1053 -104 1054 0
-1053 104 1054 0
1054 244 -1055 0
-1054 -244 -1055 0
1054 -244 1055 0
-1054 244 1055 0
1055 254 -1056 0
-1055 -254 -1056 0
1055 -254 1056 0
-1055 254 1056 0
1056 259 -1057 0
-1056 -259 -1057 0
1056 -259 1057 0
-1056 259 1057 0
1057 269 -1058 0
-1057 -269 -1058 0
1057 -269 1058 0
-1057 269 1058 0
-1058 0
99 100 -1059 0
-99 -100 -1059 0
99 -100 1059 0
-99 100 1059 0
1059 104 -1060 0
-1059 -104 -1060 0
1059 -104 1060 0
-1059 104 1060 0
1060 105 -1061 0
-1060 -105 -1061 0
1060 -105 1061 0
-1060 105 1061 0
1061 245 -1062 0
-1061 -245 -1062 0
1061 -245 1062 0
-1061 245 1062 0
1062 255 -1063 0
-1062 -255 -1063 0
1062 -255 1063 0
-1062 255 1063 0
1063 260 -1064 0
-1063 -260 -1064 0
1063 -260 1064 0
-1063 260 1064 0
1064 270 -1065 0
-1064 -270 -1065 0
1064 -270 1065 0
-1064 270 1065 0
-1065 0
100 101 -1066 0
-100 -101 -1066 0
100 -101 1066 0
-100 101 1066 0
1066 105 -1067 0
-1066 -105 -1067 0
1066 -105 1067 0
-1066 105 1067 0
1067 106 -1068 0
-1067 -106 -1068 0
1067 -106 1068 0
-1067 106 1068 0
1068 246 -1069 0
-1068 -246 -1069 0
1068 -246 1069 0
-1068 246 1069 0
1069 256 -1070 0
-1069 -256 -1070 0
1069 -256 1070 0
-1069 256 1070 0
1070 261 -1071 0
-1070 -261 -1071 0
1070 -261 1071 0
-1070 261 1071 0
1071 271 -1072 0
-1071 -271 -1072 0
1071 -271 1072 0
-1071 271 1072 0
-1072 0
101 102 -1073 0
-101 -102 -1073 0
101 -102 1073 0
-101 102 1073 0
1073 106 -1074 0
-1073 -106 -1074 0
1073 -106 1074 0
-1073 106 1074 0
1074 107 -1075 0
-1074 -107 -1075 0
1074 -107 1075 0
-1074 107 1075 0
1075 247 -1076 0
-1075 -247 -1076 0
1075 -247 1076 0
-1075 247 1076 0
1076 257 -1077 0
-1076 -257 -1077 0
1076 -257 1077 0
-1076 257 1077 0
1077 262 -1078 0
-1077 -262 -1078 0
1077 -262 1078 0
-1077 262 1078 0
1078 272 -1079 0
-1078 -272 -1079 0
1078 -272 1079 0
-1078 272 1079 0
-1079 0
102 103 -1080 0
-102 -103 -1080 0
102 -103 1080 0
-102 103 1080 0
1080 107 -1081 0
-1080 -107 -1081 0
1080 -107 1081 0
-1080 107 1081 0
1081 108 -1082 0
-1081 -108 -1082 0
1081 -108 1082 0
-1081 108 1082 0
1082 248 -1083 0
-1082 -248 -1083 0
1082 -248 1083 0
-1082 248 1083 0
1083 258 -1084 0
-1083 -258 -1084 0
1083 -258 1084 0
-1083 258 1084 0
1084 263 -1085 0
-1084 -263 -1085 0
1084 -263 1085 0
-1084 263 1085 0
1085 273 -1086 0
-1085 -273 -1086 0
1085 -273 1086 0
-1085 273 1086 0
-1086 0
103 104 -1087 0
-103 -104 -1087 0
103 -104 1087 0
-103 104 1087 0
1087 108 -1088 0
-1087 -108 -1088 0
1087 -108 1088 0
-1087 108 1088 0
1088 109 -1089 0
-1088 -109 -1089 0
1088 -109 1089 0
-1088 109 1089 0
1089 249 -1090 0
-1089 -249 -1090 0
1089 -249 1090 0
-1089 249 1090 0
1090 259 -1091 0
-1090 -259 -1091 0
1090 -259 1091 0
-1090 259 1091 0
1091 264 -1092 0
-1091 -264 -1092 0
1091 -264 1092 0
-1091 264 1092 0
1092 274 -1093 0
-1092 -274 -1093 0
1092 -274 1093 0
-1092 274 1093 0
-1093 0
104 105 -1094 0
-104 -105 -1094 0
104 -105 1094 0
-104 105 1094 0
1094 109 -1095 0
-1094 -109 -1095 0
1094 -109 1095 0
-1094 109 1095 0
1095 110 -1096 0
-1095 -110 -1096 0
1095 -110 1096 0
-1095 110 1096 0
1096 250 -1097 0
-1096 -250 -1097 0
1096 -250 1097 0
-1096 250 1097 0
1097 260 -1098 0
-1097 -260 -1098 0
1097 -260 1098 0
-1097 260 1098 0
1098 265 -1099 0
-1098 -265 -1099 0
1098 -265 1099 0
-1098 265 1099 0
1099 275 -1100 0
-1099 -275 -1100 0
1099 -275 1100 0
-1099 275 1100 0
-1100 0
105 106 -1101 0
-105 -106 -1101 0
105 -106 1101 0
-105 106 1101 0
1101 110 -1102 0
-1101 -110 -1102 0
1101 -110 1102 0
-1101 110 1102 0
1102 111 -1103 0
-1102 -111 -1103 0
1102 -111 1103 0
-1102 111 1103 0
1103 251 -1104 0
-1103 -251 -1104 0
1103 -251 1104 0
-1103 251 1104 0
1104 261 -1105 0
-1104 -261 -1105 0
1104 -261 1105 0
-1104 261 1105 0
1105 266 -1106 0
-1105 -266 -1106 0
1105 -266 1106 0
-1105 266 1106 0
1106 276 -1107 0
-1106 -276 -1107 0
1106 -276 1107 0
-1106 276 1107 0
-1107 0
106 107 -1108 0
-106 -107 -1108 0
106 -107 1108 0
-106 107 1108 0
1108 111 -1109 0
-1108 -111 -1109 0
1108 -111 1109 0
-1108 111 1109 0
1109 112 -1110 0
-1109 -112 -1110 0
1109 -112 1110 0
-1109 112 1110 0
1110 252 -1111 0
-1110 -252 -1111 0
1110 -252 1111 0
-1110 252 1111 0
1111 262 -1112 0
-1111 -262 -1112 0
1111 -262 1112 0
-1111 262 1112 0
1112 267 -1113 0
-1112 -267 -1113 0
1112 -267 1113 0
-1112 267 1113 0
1113 277 -1114 0
-1113 -277 -1114 0
1113 -277 1114 0
-1113 277 1114 0
-1114 0
107 108 -1115 0
-107 -108 -1115 0
107 -108 1115 0
-107 108 1115 0
1115 112 -1116 0
-1115 -112 -1116 0
1115 -112 1116 0
-1115 112 1116 0
1116 113 -1117 0
-1116 -113 -1117 0
1116 -113 1117 0
-1116 113 1117 0
1117 253 -1118 0
-1117 -253 -1118 0
1117 -253 1118 0
-1117 253 1118 0
1118 263 -1119 0
-1118 -263 -1119 0
1118 -263 1119 0
-1118 263 1119 0
1119 268 -1120 0
-1119 -268 -1120 0
1119 -268 1120 0
-1119 268 1120 0
1120 278 -1121 0
-1120 -278 -1121 0
1120 -278 1121 0
-1120 278 1121 0
-1121 0
108 109 -1122 0
-108 -109 -1122 0
108 -109 1122 0
-108 109 1122 0
1122 113 -1123 0
-1122 -113 -1123 0
1122 -113 1123 0
-1122 113 1123 0
1123 114 -1124 0
-1123 -114 -1124 0
1123 -114 1124 0
-1123 114 1124 0
1124 254 -1125 0
-1124 -254 -1125 0
1124 -254 1125 0
-1124 254 1125 0
1125 264 -1126 0
-1125 -264 -1126 0
1125 -264 1126 0
-1125 264 1126 0
1126 269 -1127 0
-1126 -269 -1127 0
1126 -269 1127 0
-1126 269 1127 0
1127 279 -1128 0
-1127 -279 -1128 0
1127 -279 1128 0
-1127 279 1128 0
-1128 0
109 110 -1129 0
-109 -110 -1129 0
109 -110 1129 0
-109 110 1129 0
1129 114 -1130 0
-1129 -114 -1130 0
1129 -114 1130 0
-1129 114 1130 0
1130 115 -1131 0
-1130 -115 -1131 0
1130 -115 1131 0
-1130 115 1131 0
1131 255 -1132 0
-1131 -255 -1132 0
1131 -255 1132 0
-1131 255 1132 0
1132 265 -1133 0
-1132 -265 -1133 0
1132 -265 1133 0
-1132 265 1133 0
1133 270 -1134 0
-1133 -270 -1134 0
1133 -270 1134 0
-1133 270 1134 0
1134 280 -1135 0
-1134 -280 -1135 0
1134 -280 1135 0
-1134 280 1135 0
-1135 0
110 111 -1136 0
-110 -111 -1136 0
110 -111 1136 0
-110 111 1136 0
1136 115 -1137 0
-1136 -115 -1137 0
1136 -115 1137 0
-1136 115 1137 0
1137 116 -1138 0
-1137 -116 -1138 0
1137 -116 1138 0
-1137 116 1138 0
1138 256 -1139 0
-1138 -256 -1139 0
1138 -256 1139 0
-1138 256 1139 0
1139 266 -1140 0
-1139 -266 -1140 0
1139 -266 1140 0
-1139 266 1140 0
1140 271 -1141 0
-1140 -271 -1141 0
1140 -271 1141 0
-1140 271 1141 0
1141 281 -1142 0
-1141 -281 -1142 0
1141 -281 1142 0
-1141 281 1142 0
-1142 0
111 112 -1143 0
-111 -112 -1143 0
111 -112 1143 0
-111 112 1143 0
1143 116 -1144 0
-1143 -116 -1144 0
1143 -116 1144 0
-1143 116 1144 0
1144 117 -1145 0
-1144 -117 -1145 0
1144 -117 1145 0
-1144 117 1145 0
1145 257 -1146 0
-1145 -257 -1146 0
1145 -257 1146 0
-1145 257 1146 0
1146 267 -1147 0
-1146 -267 -1147 0
1146 -267 1147 0
-1146 267 1147 0
1147 272 -1148 0
-1147 -272 -1148 0
1147 -272 1148 0
-1147 272 1148 0
1148 282 -1149 0
-1148 -282 -1149 0
1148 -282 1149 0
-1148 282 1149 0
-1149 0
112 113 -1150 0
-112 -113 -1150 0
112 -113 1150 0
-112 113 1150 0
1150 117 -1151 0
-1150 -117 -1151 0
1150 -117 1151 0
-1150 117 1151 0
1151 118 -1152 0
-1151 -118 -1152 0
1151 -118 1152 0
-1151 118 1152 0
1152 258 -1153 0
-1152 -258 -1153 0
1152 -258 1153 0
-1152 258 1153 0
1153 268 -1154 0
-1153 -268 -1154 0
1153 -268 1154 0
-1153 268 1154 0
1154 273 -1155 0
-1154 -273 -1155 0
1154 -273 1155 0
-1154 273 1155 0
1155 283 -1156 0
-1155 -283 -1156 0
1155 -283 1156 0
-1155 283 1156 0
-1156 0
113 114 -1157 0
-113 -114 -1157 0
113 -114 1157 0
-113 114 1157 0
1157 118 -1158 0
-1157 -118 -1158 0
1157 -118 1158 0
-1157 118 1158 0
1158 119 -1159 0
-1158 -119 -1159 0
1158 -119 1159 0
-1158 119 1159 0
1159 259 -1160 0
-1159 -259 -1160 0
1159 -259 1160 0
-1159 259 1160 0
1160 269 -1161 0
-1160 -269 -1161 0
1160 -269 1161 0
-1160 269 1161 0
1161 274 -1162 0
-1161 -274 -1162 0
1161 -274 1162 0
-1161 274 1162 0
1162 284 -1163 0
-1162 -284 -1163 0
1162 -284 1163 0
-1162 284 1163 0
-1163 0
114 115 -1164 0
-114 -115 -1164 0
114 -115 1164 0
-114 115 1164 0
1164 119 -1165 0
-1164 -119 -1165 0
1164 -119 1165 0
-1164 119 1165 0
1165 120 -1166 0
-1165 -120 -1166 0
1165 -120 1166 0
-1165 120 1166 0
1166 260 -1167 0
-1166 -260 -1167 0
1166 -260 1167 0
-1166 260 1167 0
1167 270 -1168 0
-1167 -270 -1168 0
1167 -270 1168 0
-1167 270 1168 0
1168 275 -1169 0
-1168 -275 -1169 0
1168 -275 1169 0
-1168 275 1169 0
1169 285 -1170 0
-1169 -285 -1170 0
1169 -285 1170 0
-1169 285 1170 0
-1170 0
115 116 -1171 0
-115 -116 -1171 0
115 -116 1171 0
-115 116 1171 0
1171 120 -1172 0
-1171 -120 -1172 0
1171 -120 1172 0
-1171 120 1172 0
1172 121 -1173 0
-1172 -121 -1173 0
1172 -121 1173 0
-1172 121 1173 0
1173 261 -1174 0
-1173 -261 -1174 0
1173 -261 1174 0
-1173 261 1174 0
1174 271 -1175 0
-1174 -271 -1175 0
1174 -271 1175 0
-1174 271 1175 0
1175 276 -1176 0
-1175 -276 -1176 0
1175 -276 1176 0
-1175 276 1176 0
1176 286 -1177 0
-1176 -286 -1177 0
1176 -286 1177 0
-1176 286 1177 0
-1177 0
116 117 -1178 0
-116 -117 -1178 0
116 -117 1178 0
-116 117 1178 0
1178 121 -1179 0
-1178 -121 -1179 0
1178 -121 1179 0
-1178 121 1179 0
1179 122 -1180 0
-1179 -122 -1180 0
1179 -122 1180 0
-1179 122 1180 0
1180 262 -1181 0
-1180 -262 -1181 0
1180 -262 1181 0
-1180 262 1181 0
1181 272 -1182 0
-1181 -272 -1182 0
1181 -272 1182 0
-1181 272 1182 0
1182 277 -1183 0
-1182 -277 -1183 0
1182 -277 1183 0
-1182 277 1183 0
1183 287 -1184 0
-1183 -287 -1184 0
1183 -287 1184 0
-1183 287 1184 0
-1184 0
117 118 -1185 0
-117 -118 -1185 0
117 -118 1185 0
-117 118 1185 0
1185 122 -1186 0
-1185 -122 -1186 0
1185 -122 1186 0
-1185 122 1186 0
1186 123 -1187 0
-1186 -123 -1187 0
1186 -123 1187 0
-1186 123 1187 0
1187 263 -1188 0
-1187 -263 -1188 0
1187 -263 1188 0
-1187 263 1188 0
1188 273 -1189 0
-1188 -273 -1189 0
1188 -273 1189 0
-1188 273 1189 0
1189 278 -1190 0
-1189 -278 -1190 0
1189 -278 1190 0
-1189 278 1190 0
1190 288 -1191 0
-1190 -288 -1191 0
1190 -288 1191 0
-1190 288 1191 0
-1191 0
118 119 -1192 0
-118 -119 -1192 0
118 -119 1192 0
-118 119 1192 0
1192 123 -1193 0
-1192 -123 -1193 0
1192 -123 1193 0
-1192 123 1193 0
1193 124 -1194 0
-1193 -124 -1194 0
1193 -124 1194 0
-1193 124 1194 0
1194 264 -1195 0
-1194 -264 -1195 0
1194 -264 1195 0
-1194 264 1195 0
1195 274 -1196 0
-1195 -274 -1196 0
1195 -274 1196 0
-1195 274 1196 0
1196 279 -1197 0
-1196 -279 -1197 0
1196 -279 1197 0
-1196 279 1197 0
1197 289 -1198 0
-1197 -289 -1198 0
1197 -289 1198 0
-1197 289 1198 0
-1198 0
119 120 -1199 0
-119 -120 -1199 0
119 -120 1199 0
-119 120 1199 0
1199 124 -1200 0
-1199 -124 -1200 0
1199 -124 1200 0
-1199 124 1200 0
1200 125 -1201 0
-1200 -125 -1201 0
1200 -125 1201 0
-1200 125 1201 0
1201 265 -1202 0
-1201 -265 -1202 0
1201 -265 1202 0
-1201 265 1202 0
1202 275 -1203 0
-1202 -275 -1203 0
1202 -275 1203 0
-1202 275 1203 0
1203 280 -1204 0
-1203 -280 -1204 0
1203 -280 1204 0
-1203 280 1204 0
1204 290 -1205 0
-1204 -290 -1205 0
1204 -290 1205 0
-1204 290 1205 0
-1205 0
120 121 -1206 0
-120 -121 -1206 0
120 -121 1206 0
-120 121 1206 0
1206 125 -1207 0
-1206 -125 -1207 0
1206 -125 1207 0
-1206 125 1207 0
1207 126 -1208 0
-1207 -126 -1208 0
1207 -126 1208 0
-1207 126 1208 0
1208 266 -1209 0
-1208 -266 -1209 0
1208 -266 1209 0
-1208 266 1209 0
1209 276 -1210 0
-1209 -276 -1210 0
1209 -276 1210 0
-1209 276 1210 0
1210 281 -1211 0
-1210 -281 -1211 0
1210 -281 1211 0
-1210 281 1211 0
1211 291 -1212 0
-1211 -291 -1212 0
1211 -291 1212 0
-1211 291 1212 0
-1212 0
121 122 -1213 0
-121 -122 -1213 0
121 -122 1213 0
-121 122 1213 0
1213 126 -1214 0
-1213 -126 -1214 0
1213 -126 1214 0
-1213 126 1214 0
1214 127 -1215 0
-1214 -127 -1215 0
1214 -127 1215 0
-1214 127 1215 0
1215 267 -1216 0
-1215 -267 -1216 0
1215 -267 1216 0
-1215 267 1216 0
1216 277 -1217 0
-1216 -277 -1217 0
1216 -277 1217 0
-1216 277 1217 0
1217 282 -1218 0
-1217 -282 -1218 0
1217 -282 1218 0
-1217 282 1218 0
1218 292 -1219 0
-1218 -292 -1219 0
1218 -292 1219 0
-1218 292 1219 0
-1219 0
122 123 -1220 0
-122 -123 -1220 0
122 -123 1220 0
-122 123 1220 0
1220 127 -1221 0
-1220 -127 -1221 0
1220 -127 1221 0
-1220 127 1221 0
1221 128 -1222 0
-1221 -128 -1222 0
1221 -128 1222 0
-1221 128 1222 0
1222 268 -1223 0
-1222 -268 -1223 0
1222 -268 1223 0
-1222 268 1223 0
1223 278 -1224 0
-1223 -278 -1224 0
1223 -278 1224 0
-1223 278 1224 0
1224 283 -1225 0
-1224 -283 -1225 0
1224 -283 1225 0
-1224 283 1225 0
1225 293 -1226 0
-1225 -293 -1226 0
1225 -293 1226 0
-1225 293 1226 0
-1226 0
123 124 -1227 0
-123 -124 -1227 0
123 -124 1227 0
-123 124 1227 0
1227 128 -1228 0
-1227 -128 -1228 0
1227 -128 1228 0
-1227 128 1228 0
1228 129 -1229 0
-1228 -129 -1229 0
1228 -129 1229 0
-1228 129 1229 0
1229 269 -1230 0
-1229 -269 -1230 0
1229 -269 1230 0
-1229 269 1230 0
1230 279 -1231 0
-1230 -279 -1231 0
1230 -279 1231 0
-1230 279 1231 0
1231 284 -1232 0
-1231 -284 -1232 0
1231 -284 1232 0
-1231 284 1232 0
1232 294 -1233 0
-1232 -294 -1233 0
1232 -294 1233 0
-1232 294 1233 0
-1233 0
124 125 -1234 0
-124 -125 -1234 0
124 -125 1234 0
-124 125 1234 0
1234 129 -1235 0
-1234 -129 -1235 0
1234 -129 1235 0
-1234 129 1235 0
1235 130 -1236 0
-1235 -130 -1236 0
1235 -130 1236 0
-1235 130 1236 0
1236 270 -1237 0
-1236 -270 -1237 0
1236 -270 1237 0
-1236 270 1237 0
1237 280 -1238 0
-1237 -280 -1238 0
1237 -280 1238 0
-1237 280 1238 0
1238 285 -1239 0
-1238 -285 -1239 0
1238 -285 1239 0
-1238 285 1239 0
1239 295 -1240 0
-1239 -295 -1240 0
1239 -295 1240 0
-1239 295 1240 0
-1240 0
125 126 -1241 0
-125 -126 -1241 0
125 -126 1241 0
-125 126 1241 0
1241 130 -1242 0
-1241 -130 -1242 0
1241 -130 1242 0
-1241 130 1242 0
1242 131 -1243 0
-1242 -131 -1243 0
1242 -131 1243 0
-1242 131 1243 0
1243 271 -1244 0
-1243 -271 -1244 0
1243 -271 1244 0
-1243 271 1244 0
1244 281 -1245 0
-1244 -281 -1245 0
1244 -281 1245 0
-1244 281 1245 0
1245 286 -1246 0
-1245 -286 -1246 0
1245 -286 1246 0
-1245 286 1246 0
1246 296 -1247 0
-1246 -296 -1247 0
1246 -296 1247 0
-1246 296 1247 0
-1247 0
126 127 -1248 0
-126 -127 -1248 0
126 -127 1248 0
-126 127 1248 0
1248 131 -1249 0
-1248 -131 -1249 0
1248 -131 1249 0
-1248 131 1249 0
1249 132 -1250 0
-1249 -132 -1250 0
1249 -132 1250 0
-1249 132 1250 0
1250 272 -1251 0
-1250 -272 -1251 0
1250 -272 1251 0
-1250 272 1251 0
1251 282 -1252 0
-1251 -282 -1252 0
1251 -282 1252 0
-1251 282 1252 0
1252 287 -1253 0
-1252 -287 -1253 0
1252 -287 1253 0
-1252 287 1253 0
1253 297 -1254 0
-1253 -297 -1254 0
1253 -297 1254 0
-1253 297 1254 0
-1254 0
127 128 -1255 0
-127 -128 -1255 0
127 -128 1255 0
-127 128 1255 0
1255 132 -1256 0
-1255 -132 -1256 0
1255 -132 1256 0
-1255 132 1256 0
1256 133 -1257 0
-1256 -133 -1257 0
1256 -133 1257 0
-1256 133 1257 0
1257 273 -1258 0
-1257 -273 -1258 0
1257 -273 1258 0
-1257 273 1258 0
1258 283 -1259 0
-1258 -283 -1259 0
1258 -283 1259 0
-1258 283 1259 0
1259 288 -1260 0
-1259 -288 -1260 0
1259 -288 1260 0
-1259 288 1260 0
1260 298 -1261 0
-1260 -298 -1261 0
1260 -298 1261 0
-1260 298 1261 0
-1261 0
128 129 -1262 0
-128 -129 -1262 0
128 -129 1262 0
-128 129 1262 0
1262 133 -1263 0
-1262 -133 -1263 0
1262 -133 1263 0
-1262 133 1263 0
1263 134 -1264 0
-1263 -134 -1264 0
1263 -134 1264 0
-1263 134 1264 0
1264 274 -1265 0
-1264 -274 -1265 0
1264 -274 1265 0
-1264 274 1265 0
1265 284 -1266 0
-1265 -284 -1266 0
1265 -284 1266 0
-1265 284 1266 0
1266 289 -1267 0
-1266 -289 -1267 0
1266 -289 1267 0
-1266 289 1267 0
1267 299 -1268 0
-1267 -299 -1268 0
1267 -299 1268 0
-1267 299 1268 0
-1268 0
129 130 -1269 0
-129 -130 -1269 0
129 -130 1269 0
-129 130 1269 0
1269 134 -1270 0
-1269 -134 -1270 0
1269 -134 1270 0
-1269 134 1270 0
1270 135 -1271 0
-1270 -135 -1271 0
1270 -135 1271 0
-1270 135 1271 0
1271 275 -1272 0
-1271 -275 -1272 0
1271 -275 1272 0
-1271 275 1272 0
1272 285 -1273 0
-1272 -285 -1273 0
1272 -285 1273 0
-1272 285 1273 0
1273 290 -1274 0
-1273 -290 -1274 0
1273 -290 1274 0
-1273 290 1274 0
1274 300 -1275 0
-1274 -300 -1275 0
1274 -300 1275 0
-1274 300 1275 0
-1275 0
130 131 -1276 0
-130 -131 -1276 0
130 -131 1276 0
-130 131 1276 0
1276 135 -1277 0
-1276 -135 -1277 0
1276 -135 1277 0
-1276 135 1277 0
1277 136 -1278 0
-1277 -136 -1278 0
1277 -136 1278 0
-1277 136 1278 0
1278 276 -1279 0
-1278 -276 -1279 0
1278 -276 1279 0
-1278 276 1279 0
1279 286 -1280 0
-1279 -286 -1280 0
1279 -286 1280 0
-1279 286 1280 0
1280 291 -1281 0
-1280 -291 -1281 0
1280 -291 1281 0
-1280 291 1281 0
1281 301 -1282 0
-1281 -301 -1282 0
1281 -301 1282 0
-1281 301 1282 0
-1282 0
131 132 -1283 0
-131 -132 -1283 0
131 -132 1283 0
-131 132 1283 0
1283 136 -1284 0
-1283 -136 -1284 0
1283 -136 1284 0
-1283 136 1284 0
1284 137 -1285 0
-1284 -137 -1285 0
1284 -137 1285 0
-1284 137 1285 0
1285 277 -1286 0
-1285 -277 -1286 0
1285 -277 1286 0
-1285 277 1286 0
1286 287 -1287 0
-1286 -287 -1287 0
1286 -287 1287 0
-1286 287 1287 0
1287 292 -1288 0
-1287 -292 -1288 0
1287 -292 1288 0
-1287 292 1288 0
1288 302 -1289 0
-1288 -302 -1289 0
1288 -302 1289 0
-1288 302 1289 0
-1289 0
132 133 -1290 0
-132 -133 -1290 0
132 -133 1290 0
-132 133 1290 0
1290 137 -1291 0
-1290 -137 -1291 0
1290 -137 1291 0
-1290 137 1291 0
1291 138 -1292 0
-1291 -138 -1292 0
1291 -138 1292 0
-1291 138 1292 0
1292 278 -1293 0
-1292 -278 -1293 0
1292 -278 1293 0
-1292 278 1293 0
1293 288 -1294 0
-1293 -288 -1294 0
1293 -288 1294 0
-1293 288 1294 0
1294 293 -1295 0
-1294 -293 -1295 0
1294 -293 1295 0
-1294 293 1295 0
1295 303 -1296 0
-1295 -303 -1296 0
1295 -303 1296 0
-1295 303 1296 0
-1296 0
133 134 -1297 0
-133 -134 -1297 0
133 -134 1297 0
-133 134 1297 0
1297 138 -1298 0
-1297 -138 -1298 0
1297 -138 1298 0
-1297 138 1298 0
1298 139 -1299 0
-1298 -139 -1299 0
1298 -139 1299 0
-1298 139 1299 0
1299 279 -1300 0
-1299 -279 -1300 0
1299 -279 1300 0
-1299 279 1300 0
1300 289 -1301 0
-1300 -289 -1301 0
1300 -289 1301 0
-1300 289 1301 0
1301 294 -1302 0
-1301 -294 -1302 0
1301 -294 1302 0
-1301 294 1302 0
1302 304 -1303 0
-1302 -304 -1303 0
1302 -304 1303 0
-1302 304 1303 0
-1303 0
134 135 -1304 0
-134 -135 -1304 0
134 -135 1304 0
-134 135 1304 0
1304 139 -1305 0
-1304 -139 -1305 0
1304 -139 1305 0
-1304 139 1305 0
1305 140 -1306 0
-1305 -140 -1306 0
1305 -140 1306 0
-1305 140 1306 0
1306 280 -1307 0
-1306 -280 -1307 0
1306 -280 1307 0
-1306 280 1307 0
1307 290 -1308 0
-1307 -290 -1308 0
1307 -290 1308 0
-1307 290 1308 0
1308 295 -1309 0
-1308 -295 -1309 0
1308 -295 1309 0
-1308 295 1309 0
1309 305 -1310 0
-1309 -305 -1310 0
1309 -305 1310 0
-1309 305 1310 0
-1310 0
135 136 -1311 0
-135 -136 -1311 0
135 -136 1311 0
-135 136 1311 0
1311 140 -1312 0
-1311 -140 -1312 0
1311 -140 1312 0
-1311 140 1312 0
1312 141 -1313 0
-1312 -141 -1313 0
1312 -141 1313 0
-1312 141 1313 0
1313 281 -1314 0
-1313 -281 -1314 0
1313 -281 1314 0
-1313 281 1314 0
1314 291 -1315 0
-1314 -291 -1315 0
1314 -291 1315 0
-1314 291 1315 0
1315 296 -1316 0
-1315 -296 -1316 0
1315 -296 1316 0
-1315 296 1316 0
1316 306 -1317 0
-1316 -306 -1317 0
1316 -306 1317 0
-1316 306 1317 0
-1317 0
136 137 -1318 0
-136 -137 -1318 0
136 -137 1318 0
-136 137 1318 0
1318 141 -1319 0
-1318 -141 -1319 0
1318 -141 1319 0
-1318 141 1319 0
1319 142 -1320 0
-1319 -142 -1320 0
1319 -142 1320 0
-1319 142 1320 0
1320 282 -1321 0
-1320 -282 -1321 0
1320 -282 1321 0
-1320 282 1321 0
1321 292 -1322 0
-1321 -292 -1322 0
1321 -292 1322 0
-1321 292 1322 0
1322 297 -1323 0
-1322 -297 -1323 0
1322 -297 1323 0
-1322 297 1323 0
1323 307 -1324 0
-1323 -307 -1324 0
1323 -307 1324 0
-1323 307 1324 0
-1324 0
137 138 -1325 0
-137 -138 -1325 0
137 -138 1325 0
-137 138 1325 0
1325 142 -1326 0
-1325 -142 -1326 0
1325 -142 1326 0
-1325 142 1326 0
1326 143 -1327 0
-1326 -143 -1327 0
1326 -143 1327 0
-1326 143 1327 0
1327 283 -1328 0
-1327 -283 -1328 0
1327 -283 1328 0
-1327 283 1328 0
1328 293 -1329 0
-1328 -293 -1329 0
1328 -293 1329 0
-1328 293 1329 0
1329 298 -1330 0
-1329 -298 -1330 0
1329 -298 1330 0
-1329 298 1330 0
1330 308 -1331 0
-1330 -308 -1331 0
1330 -308 1331 0
-1330 308 1331 0
-1331 0
138 139 -1332 0
-138 -139 -1332 0
138 -139 1332 0
-138 139 1332 0
1332 143 -1333 0
-1332 -143 -1333 0
1332 -143 1333 0
-1332 143 1333 0
1333 144 -1334 0
-1333 -144 -1334 0
1333 -144 1334 0
-1333 144 1334 0
1334 284 -1335 0
-1334 -284 -1335 0
1334 -284 1335 0
-1334 284 1335 0
1335 294 -1336 0
-1335 -294 -1336 0
1335 -294 1336 0
-1335 294 1336 0
1336 299 -1337 0
-1336 -299 -1337 0
1336 -299 1337 0
-1336 299 1337 0
1337 309 -1338 0
-1337 -309 -1338 0
1337 -309 1338 0
-1337 309 1338 0
-1338 0
139 140 -1339 0
-139 -140 -1339 0
139 -140 1339 0
-139 140 1339 0
1339 144 -1340 0
-1339 -144 -1340 0
1339 -144 1340 0
-1339 144 1340 0
1340 145 -1341 0
-1340 -145 -1341 0
1340 -145 1341 0
-1340 145 1341 0
1341 285 -1342 0
-1341 -285 -1342 0
1341 -285 1342 0
-1341 285 1342 0
1342 295 -1343 0
-1342 -295 -1343 0
1342 -295 1343 0
-1342 295 1343 0
1343 300 -1344 0
-1343 -300 -1344 0
1343 -300 1344 0
-1343 300 1344 0
1344 310 -1345 0
-1344 -310 -1345 0
1344 -310 1345 0
-1344 310 1345 0
-1345 0
140 141 -1346 0
-140 -141 -1346 0
140 -141 1346 0
-140 141 1346 0
1346 145 -1347 0
-1346 -145 -1347 0
1346 -145 1347 0
-1346 145 1347 0
1347 146 -1348 0
-1347 -146 -1348 0
1347 -146 1348 0
-1347 146 1348 0
1348 286 -1349 0
-1348 -286 -1349 0
1348 -286 1349 0
-1348 286 1349 0
1349 296 -1350 0
-1349 -296 -1350 0
1349 -296 1350 0
-1349 296 1350 0
1350 301 -1351 0
-1350 -301 -1351 0
1350 -301 1351 0
-1350 301 1351 0
1351 311 -1352 0
-1351 -311 -1352 0
1351 -311 1352 0
-1351 311 1352 0
-1352 0
141 142 -1353 0
-141 -142 -1353 0
141 -142 1353 0
-141 142 1353 0
1353 146 -1354 0
-1353 -146 -1354 0
1353 -146 1354 0
-1353 146 1354 0
1354 147 -1355 0
-1354 -147 -1355 0
1354 -147 1355 0
-1354 147 1355 0
1355 287 -1356 0
-1355 -287 -1356 0
1355 -287 1356 0
-1355 287 1356 0
1356 297 -1357 0
-1356 -297 -1357 0
1356 -297 1357 0
-1356 297 1357 0
1357 302 -1358 0
-1357 -302 -1358 0
1357 -302 1358 0
-1357 302 1358 0
1358 312 -1359 0
-1358 -312 -1359 0
1358 -312 1359 0
-1358 312 1359 0
-1359 0
142 143 -1360 0
-142 -143 -1360 0
142 -143 1360 0
-142 143 1360 0
1360 147 -1361 0
-1360 -147 -1361 0
1360 -147 1361 0
-1360 147 1361 0
1361 148 -1362 0
-1361 -148 -1362 0
1361 -148 1362 0
-1361 148 1362 0
1362 288 -1363 0
-1362 -288 -1363 0
1362 -288 1363 0
-1362 288 1363 0
1363 298 -1364 0
-1363 -298 -1364 0
1363 -298 1364 0
-1363 298 1364 0
1364 303 -1365 0
-1364 -303 -1365 0
1364 -303 1365 0
-1364 303 1365 0
1365 313 -1366 0
-1365 -313 -1366 0
1365 -313 1366 0
-1365 313 1366 0
-1366 0
143 144 -1367 0
-143 -144 -1367 0
143 -144 1367 0
-143 144 1367 0
1367 148 -1368 0
-1367 -148 -1368 0
1367 -148 1368 0
-1367 148 1368 0
1368 149 -1369 0
-1368 -149 -1369 0
1368 -149 1369 0
-1368 149 1369 0
1369 289 -1370 0
-1369 -289 -1370 0
1369 -289 1370 0
-1369 289 1370 0
1370 299 -1371 0
-1370 -299 -1371 0
1370 -299 1371 0
-1370 299 1371 0
1371 304 -1372 0
-1371 -304 -1372 0
1371 -304 1372 0
-1371 304 1372 0
1372 314 -1373 0
-1372 -314 -1373 0
1372 -314 1373 0
-1372 314 1373 0
-1373 0
144 145 -1374 0
-144 -145 -1374 0
144 -145 1374 0
-144 145 1374 0
1374 149 -1375 0
-1374 -149 -1375 0
1374 -149 1375 0
-1374 149 1375 0
1375 150 -1376 0
-1375 -150 -1376 0
1375 -150 1376 0
-1375 150 1376 0
1376 290 -1377 0
-1376 -290 -1377 0
1376 -290 1377 0
-1376 290 1377 0
1377 300 -1378 0
-1377 -300 -1378 0
1377 -300 1378 0
-1377 300 1378 0
1378 305 -1379 0
-1378 -305 -1379 0
1378 -305 1379 0
-1378 305 1379 0
1379 315 -1380 0
-1379 -315 -1380 0
1379 -315 1380 0
-1379 315 1380 0
-1380 0
145 146 -1381 0
-145 -146 -1381 0
145 -146 1381 0
-145 146 1381 0
1381 150 -1382 0
-1381 -150 -1382 0
1381 -150 1382 0
-1381 150 1382 0
1382 151 -1383 0
-1382 -151 -1383 0
1382 -151 1383 0
-1382 151 1383 0
1383 291 -1384 0
-1383 -291 -1384 0
1383 -291 1384 0
-1383 291 1384 0
1384 301 -1385 0
-1384 -301 -1385 0
1384 -301 1385 0
-1384 301 1385 0
1385 306 -1386 0
-1385 -306 -1386 0
1385 -306 1386 0
-1385 306 1386 0
1386 316 -1387 0
-1386 -316 -1387 0
1386 -316 1387 0
-1386 316 1387 0
-1387 0
146 147 -1388 0
-146 -147 -1388 0
146 -147 1388 0
-146 147 1388 0
1388 151 -1389 0
-1388 -151 -1389 0
1388 -151 1389 0
-1388 151 1389 0
1389 152 -1390 0
-1389 -152 -1390 0
1389 -152 1390 0
-1389 152 1390 0
1390 292 -1391 0
-1390 -292 -1391 0
1390 -292 1391 0
-1390 292 1391 0
1391 302 -1392 0
-1391 -302 -1392 0
1391 -302 1392 0
-1391 302 1392 0
1392 307 -1393 0
-1392 -307 -1393 0
1392 -307 1393 0
-1392 307 1393 0
1393 317 -1394 0
-1393 -317 -1394 0
1393 -317 1394 0
-1393 317 1394 0
-1394 0
147 148 -1395 0
-147 -148 -1395 0
147 -148 1395 0
-147 148 1395 0
1395 152 -1396 0
-1395 -152 -1396 0
1395 -152 1396 0
-1395 152 1396 0
1396 153 -1397 0
-1396 -153 -1397 0
1396 -153 1397 0
-1396 153 1397 0
1397 293 -1398 0
-1397 -293 -1398 0
1397 -293 1398 0
-1397 293 1398 0
1398 303 -1399 0
-1398 -303 -1399 0
1398 -303 1399 0
-1398 303 1399 0
1399 308 -1400 0
-1399 -308 -1400 0
1399 -308 1400 0
-1399 308 1400 0
1400 318 -1401 0
-1400 -318 -1401 0
1400 -318 1401 0
-1400 318 1401 0
-1401 0
148 149 -1402 0
-148 -149 -1402 0
148 -149 1402 0
-148 149 1402 0
1402 153 -1403 0
-1402 -153 -1403 0
1402 -153 1403 0
-1402 153 1403 0
1403 154 -1404 0
-1403 -154 -1404 0
1403 -154 1404 0
-1403 154 1404 0
1404 294 -1405 0
-1404 -294 -1405 0
1404 -294 1405 0
-1404 294 1405 0
1405 304 -1406 0
-1405 -304 -1406 0
1405 -304 1406 0
-1405 304 1406 0
1406 309 -1407 0
-1406 -309 -1407 0
1406 -309 1407 0
-1406 309 1407 0
1407 319 -1408 0
-1407 -319 -1408 0
1407 -319 1408 0
-1407 319 1408 0
-1408 0
149 150 -1409 0
-149 -150 -1409 0
149 -150 1409 0
-149 150 1409 0
1409 154 -1410 0
-1409 -154 -1410 0
1409 -154 1410 0
-1409 154 1410 0
1410 155 -1411 0
-1410 -155 -1411 0
1410 -155 1411 0
-1410 155 1411 0
1411 295 -1412 0
-1411 -295 -1412 0
1411 -295 1412 0
-1411 295 1412 0
1412 305 -1413 0
-1412 -305 -1413 0
1412 -305 1413 0
-1412 305 1413 0
1413 310 -1414 0
-1413 -310 -1414 0
1413 -310 1414 0
-1413 310 1414 0
1414 320 -1415 0
-1414 -320 -1415 0
1414 -320 1415 0
-1414 320 1415 0
-1415 0
150 151 -1416 0
-150 -151 -1416 0
150 -151 1416 0
-150 151 1416 0
1416 155 -1417 0
-1416 -155 -1417 0
1416 -155 1417 0
-1416 155 1417 0
1417 156 -1418 0
-1417 -156 -1418 0
1417 -156 1418 0
-1417 156 1418 0
1418 296 -1419 0
-1418 -296 -1419 0
1418 -296 1419 0
-1418 296 1419 0
1419 306 -1420 0
-1419 -306 -1420 0
1419 -306 1420 0
-1419 306 1420 0
1420 311 -1421 0
-1420 -311 -1421 0
1420 -311 1421 0
-1420 311 1421 0
1421 321 -1422 0
-1421 -321 -1422 0
1421 -321 1422 0
-1421 321 1422 0
-1422 0
151 152 -1423 0
-151 -152 -1423 0
151 -152 1423 0
-151 152 1423 0
1423 156 -1424 0
-1423 -156 -1424 0
1423 -156 1424 0
-1423 156 1424 0
1424 157 -1425 0
-1424 -157 -1425 0
1424 -157 1425 0
-1424 157 1425 0
1425 297 -1426 0
-1425 -297 -1426 0
1425 -297 1426 0
-1425 297 1426 0
1426 307 -1427 0
-1426 -307 -1427 0
1426 -307 1427 0
-1426 307 1427 0
1427 312 -1428 0
-1427 -312 -1428 0
1427 -312 1428 0
-1427 312 1428 0
1428 322 -1429 0
-1428 -322 -1429 0
1428 -322 1429 0
-1428 322 1429 0
-1429 0
152 153 -1430 0
-152 -153 -1430 0
152 -153 1430 0
-152 153 1430 0
1430 157 -1431 0
-1430 -157 -1431 0
1430 -157 1431 0
-1430 157 1431 0
1431 158 -1432 0
-1431 -158 -1432 0
1431 -158 1432 0
-1431 158 1432 0
1432 298 -1433 0
-1432 -298 -1433 0
1432 -298 1433 0
-1432 298 1433 0
1433 308 -1434 0
-1433 -308 -1434 0
1433 -308 1434 0
-1433 308 1434 0
1434 313 -1435 0
-1434 -313 -1435 0
1434 -313 1435 0
-1434 313 1435 0
1435 323 -1436 0
-1435 -323 -1436 0
1435 -323 1436 0
-1435 323 1436 0
-1436 0
153 154 -1437 0
-153 -154 -1437 0
153 -154 1437 0
-153 154 1437 0
1437 158 -1438 0
-1437 -158 -1438 0
1437 -158 1438 0
-1437 158 1438 0
1438 159 -1439 0
-1438 -159 -1439 0
1438 -159 1439 0
-1438 159 1439 0
1439 299 -1440 0
-1439 -299 -1440 0
1439 -299 1440 0
-1439 299 1440 0
1440 309 -1441 0
-1440 -309 -1441 0
1440 -309 1441 0
-1440 309 1441 0
1441 314 -1442 0
-1441 -314 -1442 0
1441 -314 1442 0
-1441 314 1442 0
1442 324 -1443 0
-1442 -324 -1443 0
1442 -324 1443 0
-1442 324 1443 0
-1443 0
154 155 -1444 0
-154 -155 -1444 0
154 -155 1444 0
-154 155 1444 0
1444 159 -1445 0
-1444 -159 -1445 0
1444 -159 1445 0
-1444 159 1445 0
1445 160 -1446 0
-1445 -160 -1446 0
1445 -160 1446 0
-1445 160 1446 0
1446 300 -1447 0
-1446 -300 -1447 0
1446 -300 1447 0
-1446 300 1447 0
1447 310 -1448 0
-1447 -310 -1448 0
1447 -310 1448 0
-1447 310 1448 0
1448 315 -1449 0
-1448 -315 -1449 0
1448 -315 1449 0
-1448 315 1449 0
1449 325 -1450 0
-1449 -325 -1450 0
1449 -325 1450 0
-1449 325 1450 0
-1450 0
155 156 -1451 0
-155 -156 -1451 0
155 -156 1451 0
-155 156 1451 0
1451 160 -1452 0
-1451 -160 -1452 0
1451 -160 1452 0
-1451 160 1452 0
1452 161 -1453 0
-1452 -161 -1453 0
1452 -161 1453 0
-1452 161 1453 0
1453 301 -1454 0
-1453 -301 -1454 0
1453 -301 1454 0
-1453 301 1454 0
1454 311 -1455 0
-1454 -311 -1455 0
1454 -311 1455 0
-1454 311 1455 0
1455 316 -1456 0
-1455 -316 -1456 0
1455 -316 1456 0
-1455 316 1456 0
1456 326 -1457 0
-1456 -326 -1457 0
1456 -326 1457 0
-1456 326 1457 0
-1457 0
156 157 -1458 0
-156 -157 -1458 0
156 -157 1458 0
-156 157 1458 0
1458 161 -1459 0
-1458 -161 -1459 0
1458 -161 1459 0
-1458 161 1459 0
1459 162 -1460 0
-1459 -162 -1460 0
1459 -162 1460 0
-1459 162 1460 0
1460 302 -1461 0
-1460 -302 -1461 0
1460 -302 1461 0
-1460 302 1461 0
1461 312 -1462 0
-1461 -312 -1462 0
1461 -312 1462 0
-1461 312 1462 0
1462 317 -1463 0
-1462 -317 -1463 0
1462 -317 1463 0
-1462 317 1463 0
1463 327 -1464 0
-1463 -327 -1464 0
1463 -327 1464 0
-1463 327 1464 0
-1464 0
157 158 -1465 0
-157 -158 -1465 0
157 -158 1465 0
-157 158 1465 0
1465 162 -1466 0
-1465 -162 -1466 0
1465 -162 1466 0
-1465 162 1466 0
1466 163 -1467 0
-1466 -163 -1467 0
1466 -163 1467 0
-1466 163 1467 0
1467 303 -1468 0
-1467 -303 -1468 0
1467 -303 1468 0
-1467 303 1468 0
1468 313 -1469 0
-1468 -313 -1469 0
1468 -313 1469 0
-1468 313 1469 0
1469 318 -1470 0
-1469 -318 -1470 0
1469 -318 1470 0
-1469 318 1470 0
1470 328 -1471 0
-1470 -328 -1471 0
1470 -328 1471 0
-1470 328 1471 0
-1471 0
158 159 -1472 0
-158 -159 -1472 0
158 -159 1472 0
-158 159 1472 0
1472 163 -1473 0
-1472 -163 -1473 0
1472 -163 1473 0
-1472 163 1473 0
1473 164 -1474 0
-1473 -164 -1474 0
1473 -164 1474 0
-1473 164 1474 0
1474 304 -1475 0
-1474 -304 -1475 0
1474 -304 1475 0
-1474 304 1475 0
1475 314 -1476 0
-1475 -314 -1476 0
1475 -314 1476 0
-1475 314 1476 0
1476 319 -1477 0
-1476 -319 -1477 0
1476 -319 1477 0
-1476 319 1477 0
1477 329 -1478 0
-1477 -329 -1478 0
1477 -329 1478 0
-1477 329 1478 0
-1478 0
159 160 -1479 0
-159 -160 -1479 0
159 -160 1479 0
-159 160 1479 0
1479 164 -1480 0
-1479 -164 -1480 0
1479 -164 1480 0
-1479 164 1480 0
1480 165 -1481 0
-1480 -165 -1481 0
1480 -165 1481 0
-1480 165 1481 0
1481 305 -1482 0
-1481 -305 -1482 0
1481 -305 1482 0
-1481 305 1482 0
1482 315 -1483 0
-1482 -315 -1483 0
1482 -315 1483 0
-1482 315 1483 0
1483 320 -1484 0
-1483 -320 -1484 0
1483 -320 1484 0
-1483 320 1484 0
1484 330 -1485 0
-1484 -330 -1485 0
1484 -330 1485 0
-1484 330 1485 0
-1485 0
1 171 -1486 0
-1 -171 -1486 0
1 -171 1486 0
-1 171 1486 0
1486 176 -1487 0
-1486 -176 -1487 0
1486 -176 1487 0
-1486 176 1487 0
1487 181 -1488 0
-1487 -181 -1488 0
1487 -181 1488 0
-1487 181 1488 0
1488 186 -1489 0
-1488 -186 -1489 0
1488 -186 1489 0
-1488 186 1489 0
1489 191 -1490 0
-1489 -191 -1490 0
1489 -191 1490 0
-1489 191 1490 0
1490 196 -1491 0
-1490 -196 -1491 0
1490 -196 1491 0
-1490 196 1491 0
1491 201 -1492 0
-1491 -201 -1492 0
1491 -201 1492 0
-1491 201 1492 0
1492 206 -1493 0
-1492 -206 -1493 0
1492 -206 1493 0
-1492 206 1493 0
1493 211 -1494 0
-1493 -211 -1494 0
1493 -211 1494 0
-1493 211 1494 0
1494 216 -1495 0
-1494 -216 -1495 0
1494 -216 1495 0
-1494 216 1495 0
1495 221 -1496 0
-1495 -221 -1496 0
1495 -221 1496 0
-1495 221 1496 0
1496 226 -1497 0
-1496 -226 -1497 0
1496 -226 1497 0
-1496 226 1497 0
1497 231 -1498 0
-1497 -231 -1498 0
1497 -231 1498 0
-1497 231 1498 0
1498 236 -1499 0
-1498 -236 -1499 0
1498 -236 1499 0
-1498 236 1499 0
1499 241 -1500 0
-1499 -241 -1500 0
1499 -241 1500 0
-1499 241 1500 0
1500 246 -1501 0
-1500 -246 -1501 0
1500 -246 1501 0
-1500 246 1501 0
1501 251 -1502 0
-1501 -251 -1502 0
1501 -251 1502 0
-1501 251 1502 0
1502 256 -1503 0
-1502 -256 -1503 0
1502 -256 1503 0
-1502 256 1503 0
1503 261 -1504 0
-1503 -261 -1504 0
1503 -261 1504 0
-1503 261 1504 0
1504 266 -1505 0
-1504 -266 -1505 0
1504 -266 1505 0
-1504 266 1505 0
1505 271 -1506 0
-1505 -271 -1506 0
1505 -271 1506 0
-1505 271 1506 0
1506 276 -1507 0
-1506 -276 -1507 0
1506 -276 1507 0
-1506 276 1507 0
1507 281 -1508 0
-1507 -281 -1508 0
1507 -281 1508 0
-1507 281 1508 0
1508 286 -1509 0
-1508 -286 -1509 0
1508 -286 1509 0
-1508 286 1509 0
1509 291 -1510 0
-1509 -291 -1510 0
1509 -291 1510 0
-1509 291 1510 0
1510 296 -1511 0
-1510 -296 -1511 0
1510 -296 1511 0
-1510 296 1511 0
1511 301 -1512 0
-1511 -301 -1512 0
1511 -301 1512 0
-1511 301 1512 0
1512 306 -1513 0
-1512 -306 -1513 0
1512 -306 1513 0
-1512 306 1513 0
1513 311 -1514 0
-1513 -311 -1514 0
1513 -311 1514 0
-1513 311 1514 0
1514 312 -1515 0
-1514 -312 -1515 0
1514 -312 1515 0
-1514 312 1515 0
1515 313 -1516 0
-1515 -313 -1516 0
1515 -313 1516 0
-1515 313 1516 0
1516 314 -1517 0
-1516 -314 -1517 0
1516 -314 1517 0
-1516 314 1517 0
1517 315 -1518 0
-1517 -315 -1518 0
1517 -315 1518 0
-1517 315 1518 0
1518 321 -1519 0
-1518 -321 -1519 0
1518 -321 1519 0
-1518 321 1519 0
1519 326 -1520 0
-1519 -326 -1520 0
1519 -326 1520 0
-1519 326 1520 0
1520 327 -1521 0
-1520 -327 -1521 0
1520 -327 1521 0
-1520 327 1521 0
1521 328 -1522 0
-1521 -328 -1522 0
1521 -328 1522 0
-1521 328 1522 0
1522 329 -1523 0
-1522 -329 -1523 0
1522 -329 1523 0
-1522 329 1523 0
1523 330 -1524 0
-1523 -330 -1524 0
1523 -330 1524 0
-1523 330 1524 0
2 171 -1525 0
-2 -171 -1525 0
2 -171 1525 0
-2 171 1525 0
1525 172 -1526 0
-1525 -172 -1526 0
1525 -172 1526 0
-1525 172 1526 0
1526 176 -1527 0
-1526 -176 -1527 0
1526 -176 1527 0
-1526 176 1527 0
1527 177 -1528 0
-1527 -177 -1528 0
1527 -177 1528 0
-1527 177 1528 0
1528 181 -1529 0
-1528 -181 -1529 0
1528 -181 1529 0
-1528 181 1529 0
1529 182 -1530 0
-1529 -182 -1530 0
1529 -182 1530 0
-1529 182 1530 0
1530 186 -1531 0
-1530 -186 -1531 0
1530 -186 1531 0
-1530 186 1531 0
1531 187 -1532 0
-1531 -187 -1532 0
1531 -187 1532 0
-1531 187 1532 0
1532 191 -1533 0
-1532 -191 -1533 0
1532 -191 1533 0
-1532 191 1533 0
1533 192 -1534 0
-1533 -192 -1534 0
1533 -192 1534 0
-1533 192 1534 0
1534 196 -1535 0
-1534 -196 -1535 0
1534 -196 1535 0
-1534 196 1535 0
1535 197 -1536 0
-1535 -197 -1536 0
1535 -197 1536 0
-1535 197 1536 0
1536 201 -1537 0
-1536 -201 -1537 0
1536 -201 1537 0
-1536 201 1537 0
1537 202 -1538 0
-1537 -202 -1538 0
1537 -202 1538 0
-1537 202 1538 0
1538 206 -1539 0
-1538 -206 -1539 0
1538 -206 1539 0
-1538 206 1539 0
1539 207 -1540 0
-1539 -207 -1540 0
1539 -207 1540 0
-1539 207 1540 0
1540 211 -1541 0
-1540 -211 -1541 0
1540 -211 1541 0
-1540 211 1541 0
1541 212 -1542 0
-1541 -212 -1542 0
1541 -212 1542 0
-1541 212 1542 0
1542 216 -1543 0
-1542 -216 -1543 0
1542 -216 1543 0
-1542 216 1543 0
1543 217 -1544 0
-1543 -217 -1544 0
1543 -217 1544 0
-1543 217 1544 0
1544 221 -1545 0
-1544 -221 -1545 0
1544 -221 1545 0
-1544 221 1545 0
1545 222 -1546 0
-1545 -222 -1546 0
1545 -222 1546 0
-1545 222 1546 0
1546 226 -1547 0
-1546 -226 -1547 0
1546 -226 1547 0
-1546 226 1547 0
1547 227 -1548 0
-1547 -227 -1548 0
1547 -227 1548 0
-1547 227 1548 0
1548 231 -1549 0
-1548 -231 -1549 0
1548 -231 1549 0
-1548 231 1549 0
1549 232 -1550 0
-1549 -232 -1550 0
1549 -232 1550 0
-1549 232 1550 0
1550 236 -1551 0
-1550 -236 -1551 0
1550 -236 1551 0
-1550 236 1551 0
1551 237 -1552 0
-1551 -237 -1552 0
1551 -237 1552 0
-1551 237 1552 0
1552 241 -1553 0
-1552 -241 -1553 0
1552 -241 1553 0
-1552 241 1553 0
1553 242 -1554 0
-1553 -242 -1554 0
1553 -242 1554 0
-1553 242 1554 0
1554 246 -1555 0
-1554 -246 -1555 0
1554 -246 1555 0
-1554 246 1555 0
1555 247 -1556 0
-1555 -247 -1556 0
1555 -247 1556 0
-1555 247 1556 0
1556 251 -1557 0
-1556 -251 -1557 0
1556 -251 1557 0
-1556 251 1557 0
1557 252 -1558 0
-1557 -252 -1558 0
1557 -252 1558 0
-1557 252 1558 0
1558 256 -1559 0
-1558 -256 -1559 0
1558 -256 1559 0
-1558 256 1559 0
1559 257 -1560 0
-1559 -257 -1560 0
1559 -257 1560 0
-1559 257 1560 0
1560 261 -1561 0
-1560 -261 -1561 0
1560 -261 1561 0
-1560 261 1561 0
1561 262 -1562 0
-1561 -262 -1562 0
1561 -262 1562 0
-1561 262 1562 0
1562 266 -1563 0
-1562 -266 -1563 0
1562 -266 1563 0
-1562 266 1563 0
1563 267 -1564 0
-1563 -267 -1564 0
1563 -267 1564 0
-1563 267 1564 0
1564 271 -1565 0
-1564 -271 -1565 0
1564 -271 1565 0
-1564 271 1565 0
1565 272 -1566 0
-1565 -272 -1566 0
1565 -272 1566 0
-1565 272 1566 0
1566 276 -1567 0
-1566 -276 -1567 0
1566 -276 1567 0
-1566 276 1567 0
1567 277 -1568 0
-1567 -277 -1568 0
1567 -277 1568 0
-1567 277 1568 0
1568 281 -1569 0
-1568 -281 -1569 0
1568 -281 1569 0
-1568 281 1569 0
1569 282 -1570 0
-1569 -282 -1570 0
1569 -282 1570 0
-1569 282 1570 0
1570 286 -1571 0
-1570 -286 -1571 0
1570 -286 1571 0
-1570 286 1571 0
1571 287 -1572 0
-1571 -287 -1572 0
1571 -287 1572 0
-1571 287 1572 0
1572 291 -1573 0
-1572 -291 -1573 0
1572 -291 1573 0
-1572 291 1573 0
1573 292 -1574 0
-1573 -292 -1574 0
1573 -292 1574 0
-1573 292 1574 0
1574 296 -1575 0
-1574 -296 -1575 0
1574 -296 1575 0
-1574 296 1575 0
1575 297 -1576 0
-1575 -297 -1576 0
1575 -297 1576 0
-1575 297 1576 0
1576 301 -1577 0
-1576 -301 -1577 0
1576 -301 1577 0
-1576 301 1577 0
1577 302 -1578 0
-1577 -302 -1578 0
1577 -302 1578 0
-1577 302 1578 0
1578 306 -1579 0
-1578 -306 -1579 0
1578 -306 1579 0
-1578 306 1579 0
1579 307 -1580 0
-1579 -307 -1580 0
1579 -307 1580 0
-1579 307 1580 0
1580 311 -1581 0
-1580 -311 -1581 0
1580 -311 1581 0
-1580 311 1581 0
1581 312 -1582 0
-1581 -312 -1582 0
1581 -312 1582 0
-1581 312 1582 0
1582 313 -1583 0
-1582 -313 -1583 0
1582 -313 1583 0
-1582 313 1583 0
1583 314 -1584 0
-1583 -314 -1584 0
1583 -314 1584 0
-1583 314 1584 0
1584 315 -1585 0
-1584 -315 -1585 0
1584 -315 1585 0
-1584 315 1585 0
1585 321 -1586 0
-1585 -321 -1586 0
1585 -321 1586 0
-1585 321 1586 0
1586 322 -1587 0
-1586 -322 -1587 0
1586 -322 1587 0
-1586 322 1587 0
1587 326 -1588 0
-1587 -326 -1588 0
1587 -326 1588 0
-1587 326 1588 0
1588 327 -1589 0
-1588 -327 -1589 0
1588 -327 1589 0
-1588 327 1589 0
1589 328 -1590 0
-1589 -328 -1590 0
1589 -328 1590 0
-1589 328 1590 0
1590 329 -1591 0
-1590 -329 -1591 0
1590 -329 1591 0
-1590 329 1591 0
1591 330 -1592 0
-1591 -330 -1592 0
1591 -330 1592 0
-1591 330 1592 0
3 171 -1593 0
-3 -171 -1593 0
3 -171 1593 0
-3 171 1593 0
1593 172 -1594 0
-1593 -172 -1594 0
1593 -172 1594 0
-1593 172 1594 0
1594 173 -1595 0
-1594 -173 -1595 0
1594 -173 1595 0
-1594 173 1595 0
1595 176 -1596 0
-1595 -176 -1596 0
1595 -176 1596 0
-1595 176 1596 0
1596 177 -1597 0
-1596 -177 -1597 0
1596 -177 1597 0
-1596 177 1597 0
1597 178 -1598 0
-1597 -178 -1598 0
1597 -178 1598 0
-1597 178 1598 0
1598 181 -1599 0
-1598 -181 -1599 0
1598 -181 1599 0
-1598 181 1599 0
1599 182 -1600 0
-1599 -182 -1600 0
1599 -182 1600 0
-1599 182 1600 0
1600 183 -1601 0
-1600 -183 -1601 0
1600 -183 1601 0
-1600 183 1601 0
1601 186 -1602 0
-1601 -186 -1602 0
1601 -186 1602 0
-1601 186 1602 0
1602 187 -1603 0
-1602 -187 -1603 0
1602 -187 1603 0
-1602 187 1603 0
1603 188 -1604 0
-1603 -188 -1604 0
1603 -188 1604 0
-1603 188 1604 0
1604 191 -1605 0
-1604 -191 -1605 0
1604 -191 1605 0
-1604 191 1605 0
1605 192 -1606 0
-1605 -192 -1606 0
1605 -192 1606 0
-1605 192 1606 0
1606 193 -1607 0
-1606 -193 -1607 0
1606 -193 1607 0
-1606 193 1607 0
1607 196 -1608 0
-1607 -196 -1608 0
1607 -196 1608 0
-1607 196 1608 0
1608 197 -1609 0
-1608 -197 -1609 0
1608 -197 1609 0
-1608 197 1609 0
1609 198 -1610 0
-1609 -198 -1610 0
1609 -198 1610 0
-1609 198 1610 0
1610 201 -1611 0
-1610 -201 -1611 0
1610 -201 1611 0
-1610 201 1611 0
1611 202 -1612 0
-1611 -202 -1612 0
1611 -202 1612 0
-1611 202 1612 0
1612 203 -1613 0
-1612 -203 -1613 0
1612 -203 1613 0
-1612 203 1613 0
1613 206 -1614 0
-1613 -206 -1614 0
1613 -206 1614 0
-1613 206 1614 0
1614 207 -1615 0
-1614 -207 -1615 0
1614 -207 1615 0
-1614 207 1615 0
1615 208 -1616 0
-1615 -208 -1616 0
1615 -208 1616 0
-1615 208 1616 0
1616 211 -1617 0
-1616 -211 -1617 0
1616 -211 1617 0
-1616 211 1617 0
1617 212 -1618 0
-1617 -212 -1618 0
1617 -212 1618 0
-1617 212 1618 0
1618 213 -1619 0
-1618 -213 -1619 0
1618 -213 1619 0
-1618 213 1619 0
1619 216 -1620 0
-1619 -216 -1620 0
1619 -216 1620 0
-1619 216 1620 0
1620 217 -1621 0
-1620 -217 -1621 0
1620 -217 1621 0
-1620 217 1621 0
1621 218 -1622 0
-1621 -218 -1622 0
1621 -218 1622 0
-1621 218 1622 0
1622 221 -1623 0
-1622 -221 -1623 0
1622 -221 1623 0
-1622 221 1623 0
1623 222 -1624 0
-1623 -222 -1624 0
1623 -222 1624 0
-1623 222 1624 0
1624 223 -1625 0
-1624 -223 -1625 0
1624 -223 1625 0
-1624 223 1625 0
1625 226 -1626 0
-1625 -226 -1626 0
1625 -226 1626 0
-1625 226 1626 0
1626 227 -1627 0
-1626 -227 -1627 0
1626 -227 1627 0
-1626 227 1627 0
1627 228 -1628 0
-1627 -228 -1628 0
1627 -228 1628 0
-1627 228 1628 0
1628 231 -1629 0
-1628 -231 -1629 0
1628 -231 1629 0
-1628 231 1629 0
1629 232 -1630 0
-1629 -232 -1630 0
1629 -232 1630 0
-1629 232 1630 0
1630 233 -1631 0
-1630 -233 -1631 0
1630 -233 1631 0
-1630 233 1631 0
1631 236 -1632 0
-1631 -236 -1632 0
1631 -236 1632 0
-1631 236 1632 0
1632 237 -1633 0
-1632 -237 -1633 0
1632 -237 1633 0
-1632 237 1633 0
1633 238 -1634 0
-1633 -238 -1634 0
1633 -238 1634 0
-1633 238 1634 0
1634 241 -1635 0
-1634 -241 -1635 0
1634 -241 1635 0
-1634 241 1635 0
1635 242 -1636 0
-1635 -242 -1636 0
1635 -242 1636 0
-1635 242 1636 0
1636 243 -1637 0
-1636 -243 -1637 0
1636 -243 1637 0
-1636 243 1637 0
1637 246 -1638 0
-1637 -246 -1638 0
1637 -246 1638 0
-1637 246 1638 0
1638 247 -1639 0
-1638 -247 -1639 0
1638 -247 1639 0
-1638 247 1639 0
1639 248 -1640 0
-1639 -248 -1640 0
1639 -248 1640 0
-1639 248 1640 0
1640 251 -1641 0
-1640 -251 -1641 0
1640 -251 1641 0
-1640 251 1641 0
1641 252 -1642 0
-1641 -252 -1642 0
1641 -252 1642 0
-1641 252 1642 0
1642 253 -1643 0
-1642 -253 -1643 0
1642 -253 1643 0
-1642 253 1643 0
1643 256 -1644 0
-1643 -256 -1644 0
1643 -256 1644 0
-1643 256 1644 0
1644 257 -1645 0
-1644 -257 -1645 0
1644 -257 1645 0
-1644 257 1645 0
1645 258 -1646 0
-1645 -258 -1646 0
1645 -258 1646 0
-1645 258 1646 0
1646 261 -1647 0
-1646 -261 -1647 0
1646 -261 1647 0
-1646 261 1647 0
1647 262 -1648 0
-1647 -262 -1648 0
1647 -262 1648 0
-1647 262 1648 0
1648 263 -1649 0
-1648 -263 -1649 0
1648 -263 1649 0
-1648 263 1649 0
1649 266 -1650 0
-1649 -266 -1650 0
1649 -266 1650 0
-1649 266 1650 0
1650 267 -1651 0
-1650 -267 -1651 0
1650 -267 1651 0
-1650 267 1651 0
1651 268 -1652 0
-1651 -268 -1652 0
1651 -268 1652 0
-1651 268 1652 0
1652 271 -1653 0
-1652 -271 -1653 0
1652 -271 1653 0
-1652 271 1653 0
1653 272 -1654 0
-1653 -272 -1654 0
1653 -272 1654 0
-1653 272 1654 0
1654 273 -1655 0
-1654 -273 -1655 0
1654 -273 1655 0
-1654 273 1655 0
1655 276 -1656 0
-1655 -276 -1656 0
1655 -276 1656 0
-1655 276 1656 0
1656 277 -1657 0
-1656 -277 -1657 0
1656 -277 1657 0
-1656 277 1657 0
1657 278 -1658 0
-1657 -278 -1658 0
1657 -278 1658 0
-1657 278 1658 0
1658 281 -1659 0
-1658 -281 -1659 0
1658 -281 1659 0
-1658 281 1659 0
1659 282 -1660 0
-1659 -282 -1660 0
1659 -282 1660 0
-1659 282 1660 0
1660 283 -1661 0
-1660 -283 -1661 0
1660 -283 1661 0
-1660 283 1661 0
1661 286 -1662 0
-1661 -286 -1662 0
1661 -286 1662 0
-1661 286 1662 0
1662 287 -1663 0
-1662 -287 -1663 0
1662 -287 1663 0
-1662 287 1663 0
1663 288 -1664 0
-1663 -288 -1664 0
1663 -288 1664 0
-1663 288 1664 0
1664 291 -1665 0
-1664 -291 -1665 0
1664 -291 1665 0
-1664 291 1665 0
1665 292 -1666 0
-1665 -292 -1666 0
1665 -292 1666 0
-1665 292 1666 0
1666 293 -1667 0
-1666 -293 -1667 0
1666 -293 1667 0
-1666 293 1667 0
1667 296 -1668 0
-1667 -296 -1668 0
1667 -296 1668 0
-1667 296 1668 0
1668 297 -1669 0
-1668 -297 -1669 0
1668 -297 1669 0
-1668 297 1669 0
1669 298 -1670 0
-1669 -298 -1670 0
1669 -298 1670 0
-1669 298 1670 0
1670 301 -1671 0
-1670 -301 -1671 0
1670 -301 1671 0
-1670 301 1671 0
1671 302 -1672 0
-1671 -302 -1672 0
1671 -302 1672 0
-1671 302 1672 0
1672 303 -1673 0
-1672 -303 -1673 0
1672 -303 1673 0
-1672 303 1673 0
1673 306 -1674 0
-1673 -306 -1674 0
1673 -306 1674 0
-1673 306 1674 0
1674 307 -1675 0
-1674 -307 -1675 0
1674 -307 1675 0
-1674 307 1675 0
1675 308 -1676 0
-1675 -308 -1676 0
1675 -308 1676 0
-1675 308 1676 0
1676 311 -1677 0
-1676 -311 -1677 0
1676 -311 1677 0
-1676 311 1677 0
1677 312 -1678 0
-1677 -312 -1678 0
1677 -312 1678 0
-1677 312 1678 0
1678 313 -1679 0
-1678 -313 -1679 0
1678 -313 1679 0
-1678 313 1679 0
1679 314 -1680 0
-1679 -314 -1680 0
1679 -314 1680 0
-1679 314 1680 0
1680 315 -1681 0
-1680 -315 -1681 0
1680 -315 1681 0
-1680 315 1681 0
1681 321 -1682 0
-1681 -321 -1682 0
1681 -321 1682 0
-1681 321 1682 0
1682 322 -1683 0
-1682 -322 -1683 0
1682 -322 1683 0
-1682 322 1683 0
1683 323 -1684 0
-1683 -323 -1684 0
1683 -323 1684 0
-1683 323 1684 0
1684 326 -1685 0
-1684 -326 -1685 0
1684 -326 1685 0
-1684 326 1685 0
1685 327 -1686 0
-1685 -327 -1686 0
1685 -327 1686 0
-1685 327 1686 0
1686 328 -1687 0
-1686 -328 -1687 0
1686 -328 1687 0
-1686 328 1687 0
1687 329 -1688 0
-1687 -329 -1688 0
1687 -329 1688 0
-1687 329 1688 0
1688 330 -1689 0
-1688 -330 -1689 0
1688 -330 1689 0
-1688 330 1689 0
4 171 -1690 0
-4 -171 -1690 0
4 -171 1690 0
-4 171 1690 0
1690 172 -1691 0
-1690 -172 -1691 0
1690 -172 1691 0
-1690 172 1691 0
1691 173 -1692 0
-1691 -173 -1692 0
1691 -173 1692 0
-1691 173 1692 0
1692 174 -1693 0
-1692 -174 -1693 0
1692 -174 1693 0
-1692 174 1693 0
1693 176 -1694 0
-1693 -176 -1694 0
1693 -176 1694 0
-1693 176 1694 0
1694 177 -1695 0
-1694 -177 -1695 0
1694 -177 1695 0
-1694 177 1695 0
1695 178 -1696 0
-1695 -178 -1696 0
1695 -178 1696 0
-1695 178 1696 0
1696 179 -1697 0
-1696 -179 -1697 0
1696 -179 1697 0
-1696 179 1697 0
1697 181 -1698 0
-1697 -181 -1698 0
1697 -181 1698 0
-1697 181 1698 0
1698 182 -1699 0
-1698 -182 -1699 0
1698 -182 1699 0
-1698 182 1699 0
1699 183 -1700 0
-1699 -183 -1700 0
1699 -183 1700 0
-1699 183 1700 0
1700 184 -1701 0
-1700 -184 -1701 0
1700 -184 1701 0
-1700 184 1701 0
1701 186 -1702 0
-1701 -186 -1702 0
1701 -186 1702 0
-1701 186 1702 0
1702 187 -1703 0
-1702 -187 -1703 0
1702 -187 1703 0
-1702 187 1703 0
1703 188 -1704 0
-1703 -188 -1704 0
1703 -188 1704 0
-1703 188 1704 0
1704 189 -1705 0
-1704 -189 -1705 0
1704 -189 1705 0
-1704 189 1705 0
1705 191 -1706 0
-1705 -191 -1706 0
1705 -191 1706 0
-1705 191 1706 0
1706 192 -1707 0
-1706 -192 -1707 0
1706 -192 1707 0
-1706 192 1707 0
1707 193 -1708 0
-1707 -193 -1708 0
1707 -193 1708 0
-1707 193 1708 0
1708 194 -1709 0
-1708 -194 -1709 0
1708 -194 1709 0
-1708 194 1709 0
1709 196 -1710 0
-1709 -196 -1710 0
1709 -196 1710 0
-1709 196 1710 0
1710 197 -1711 0
-1710 -197 -1711 0
1710 -197 1711 0
-1710 197 1711 0
1711 198 -1712 0
-1711 -198 -1712 0
1711 -198 1712 0
-1711 198 1712 0
1712 199 -1713 0
-1712 -199 -1713 0
1712 -199 1713 0
-1712 199 1713 0
1713 201 -1714 0
-1713 -201 -1714 0
1713 -201 1714 0
-1713 201 1714 0
1714 202 -1715 0
-1714 -202 -1715 0
1714 -202 1715 0
-1714 202 1715 0
1715 203 -1716 0
-1715 -203 -1716 0
1715 -203 1716 0
-1715 203 1716 0
1716 204 -1717 0
-1716 -204 -1717 0
1716 -204 1717 0
-1716 204 1717 0
1717 206 -1718 0
-1717 -206 -1718 0
1717 -206 1718 0
-1717 206 1718 0
1718 207 -1719 0
-1718 -207 -1719 0
1718 -207 1719 0
-1718 207 1719 0
1719 208 -1720 0
-1719 -208 -1720 0
1719 -208 1720 0
-1719 208 1720 0
1720 209 -1721 0
-1720 -209 -1721 0
1720 -209 1721 0
-1720 209 1721 0
1721 211 -1722 0
-1721 -211 -1722 0
1721 -211 1722 0
-1721 211 1722 0
1722 212 -1723 0
-1722 -212 -1723 0
1722 -212 1723 0
-1722 212 1723 0
1723 213 -1724 0
-1723 -213 -1724 0
1723 -213 1724 0
-1723 213 1724 0
1724 214 -1725 0
-1724 -214 -1725 0
1724 -214 1725 0
-1724 214 1725 0
1725 216 -1726 0
-1725 -216 -1726 0
1725 -216 1726 0
-1725 216 1726 0
1726 217 -1727 0
-1726 -217 -1727 0
1726 -217 1727 0
-1726 217 1727 0
1727 218 -1728 0
-1727 -218 -1728 0
1727 -218 1728 0
-1727 218 1728 0
1728 219 -1729 0
-1728 -219 -1729 0
1728 -219 1729 0
-1728 219 1729 0
1729 221 -1730 0
-1729 -221 -1730 0
1729 -221 1730 0
-1729 221 1730 0
1730 222 -1731 0
-1730 -222 -1731 0
1730 -222 1731 0
-1730 222 1731 0
1731 223 -1732 0
-1731 -223 -1732 0
1731 -223 1732 0
-1731 223 1732 0
1732 224 -1733 0
-1732 -224 -1733 0
1732 -224 1733 0
-1732 224 1733 0
1733 226 -1734 0
-1733 -226 -1734 0
1733 -226 1734 0
-1733 226 1734 0
1734 227 -1735 0
-1734 -227 -1735 0
1734 -227 1735 0
-1734 227 1735 0
1735 228 -1736 0
-1735 -228 -1736 0
1735 -228 1736 0
-1735 228 1736 0
1736 229 -1737 0
-1736 -229 -1737 0
1736 -229 1737 0
-1736 229 1737 0
1737 231 -1738 0
-1737 -231 -1738 0
1737 -231 1738 0
-1737 231 1738 0
1738 232 -1739 0
-1738 -232 -1739 0
1738 -232 1739 0
-1738 232 1739 0
1739 233 -1740 0
-1739 -233 -1740 0
1739 -233 1740 0
-1739 233 1740 0
1740 234 -1741 0
-1740 -234 -1741 0
1740 -234 1741 0
-1740 234 1741 0
1741 236 -1742 0
-1741 -236 -1742 0
1741 -236 1742 0
-1741 236 1742 0
1742 237 -1743 0
-1742 -237 -1743 0
1742 -237 1743 0
-1742 237 1743 0
1743 238 -1744 0
-1743 -238 -1744 0
1743 -238 1744 0
-1743 238 1744 0
1744 239 -1745 0
-1744 -239 -1745 0
1744 -239 1745 0
-1744 239 1745 0
1745 241 -1746 0
-1745 -241 -1746 0
1745 -241 1746 0
-1745 241 1746 0
1746 242 -1747 0
-1746 -242 -1747 0
1746 -242 1747 0
-1746 242 1747 0
1747 243 -1748 0
-1747 -243 -1748 0
1747 -243 1748 0
-1747 243 1748 0
1748 244 -1749 0
-1748 -244 -1749 0
1748 -244 1749 0
-1748 244 1749 0
1749 246 -1750 0
-1749 -246 -1750 0
1749 -246 1750 0
-1749 246 1750 0
1750 247 -1751 0
-1750 -247 -1751 0
1750 -247 1751 0
-1750 247 1751 0
1751 248 -1752 0
-1751 -248 -1752 0
1751 -248 1752 0
-1751 248 1752 0
1752 249 -1753 0
-1752 -249 -1753 0
1752 -249 1753 0
-1752 249 1753 0
1753 251 -1754 0
-1753 -251 -1754 0
1753 -251 1754 0
-1753 251 1754 0
1754 252 -1755 0
-1754 -252 -1755 0
1754 -252 1755 0
-1754 252 1755 0
1755 253 -1756 0
-1755 -253 -1756 0
1755 -253 1756 0
-1755 253 1756 0
1756 254 -1757 0
-1756 -254 -1757 0
1756 -254 1757 0
-1756 254 1757 0
1757 256 -1758 0
-1757 -256 -1758 0
1757 -256 1758 0
-1757 256 1758 0
1758 257 -1759 0
-1758 -257 -1759 0
1758 -257 1759 0
-1758 257 1759 0
1759 258 -1760 0
-1759 -258 -1760 0
1759 -258 1760 0
-1759 258 1760 0
1760 259 -1761 0
-1760 -259 -1761 0
1760 -259 1761 0
-1760 259 1761 0
1761 261 -1762 0
-1761 -261 -1762 0
1761 -261 1762 0
-1761 261 1762 0
1762 262 -1763 0
-1762 -262 -1763 0
1762 -262 1763 0
-1762 262 1763 0
1763 263 -1764 0
-1763 -263 -1764 0
1763 -263 1764 0
-1763 263 1764 0
1764 264 -1765 0
-1764 -264 -1765 0
1764 -264 1765 0
-1764 264 1765 0
1765 266 -1766 0
-1765 -266 -1766 0
1765 -266 1766 0
-1765 266 1766 0
1766 267 -1767 0
-1766 -267 -1767 0
1766 -267 1767 0
-1766 267 1767 0
1767 268 -1768 0
-1767 -268 -1768 0
1767 -268 1768 0
-1767 268 1768 0
1768 269 -1769 0
-1768 -269 -1769 0
1768 -269 1769 0
-1768 269 1769 0
1769 271 -1770 0
-1769 -271 -1770 0
1769 -271 1770 0
-1769 271 1770 0
1770 272 -1771 0
-1770 -272 -1771 0
1770 -272 1771 0
-1770 272 1771 0
1771 273 -1772 0
-1771 -273 -1772 0
1771 -273 1772 0
-1771 273 1772 0
1772 274 -1773 0
-1772 -274 -1773 0
1772 -274 1773 0
-1772 274 1773 0
1773 276 -1774 0
-1773 -276 -1774 0
1773 -276 1774 0
-1773 276 1774 0
1774 277 -1775 0
-1774 -277 -1775 0
1774 -277 1775 0
-1774 277 1775 0
1775 278 -1776 0
-1775 -278 -1776 0
1775 -278 1776 0
-1775 278 1776 0
1776 279 -1777 0
-1776 -279 -1777 0
1776 -279 1777 0
-1776 279 1777 0
1777 281 -1778 0
-1777 -281 -1778 0
1777 -281 1778 0
-1777 281 1778 0
1778 282 -1779 0
-1778 -282 -1779 0
1778 -282 1779 0
-1778 282 1779 0
1779 283 -1780 0
-1779 -283 -1780 0
1779 -283 1780 0
-1779 283 1780 0
1780 284 -1781 0
-1780 -284 -1781 0
1780 -284 1781 0
-1780 284 1781 0
1781 286 -1782 0
-1781 -286 -1782 0
1781 -286 1782 0
-1781 286 1782 0
1782 287 -1783 0
-1782 -287 -1783 0
1782 -287 1783 0
-1782 287 1783 0
1783 288 -1784 0
-1783 -288 -1784 0
1783 -288 1784 0
-1783 288 1784 0
1784 289 -1785 0
-1784 -289 -1785 0
1784 -289 1785 0
-1784 289 1785 0
1785 291 -1786 0
-1785 -291 -1786 0
1785 -291 1786 0
-1785 291 1786 0
1786 292 -1787 0
-1786 -292 -1787 0
1786 -292 1787 0
-1786 292 1787 0
1787 293 -1788 0
-1787 -293 -1788 0
1787 -293 1788 0
-1787 293 1788 0
1788 294 -1789 0
-1788 -294 -1789 0
1788 -294 1789 0
-1788 294 1789 0
1789 296 -1790 0
-1789 -296 -1790 0
1789 -296 1790 0
-1789 296 1790 0
1790 297 -1791 0
-1790 -297 -1791 0
1790 -297 1791 0
-1790 297 1791 0
1791 298 -1792 0
-1791 -298 -1792 0
1791 -298 1792 0
-1791 298 1792 0
1792 299 -1793 0
-1792 -299 -1793 0
1792 -299 1793 0
-1792 299 1793 0
1793 301 -1794 0
-1793 -301 -1794 0
1793 -301 1794 0
-1793 301 1794 0
1794 302 -1795 0
-1794 -302 -1795 0
1794 -302 1795 0
-1794 302 1795 0
1795 303 -1796 0
-1795 -303 -1796 0
1795 -303 1796 0
-1795 303 1796 0
1796 304 -1797 0
-1796 -304 -1797 0
1796 -304 1797 0
-1796 304 1797 0
1797 306 -1798 0
-1797 -306 -1798 0
1797 -306 1798 0
-1797 306 1798 0
1798 307 -1799 0
-1798 -307 -1799 0
1798 -307 1799 0
-1798 307 1799 0
1799 308 -1800 0
-1799 -308 -1800 0
1799 -308 1800 0
-1799 308 1800 0
1800 309 -1801 0
-1800 -309 -1801 0
1800 -309 1801 0
-1800 309 1801 0
1801 311 -1802 0
-1801 -311 -1802 0
1801 -311 1802 0
-1801 311 1802 0
1802 312 -1803 0
-1802 -312 -1803 0
1802 -312 1803 0
-1802 312 1803 0
1803 313 -1804 0
-1803 -313 -1804 0
1803 -313 1804 0
-1803 313 1804 0
1804 314 -1805 0
-1804 -314 -1805 0
1804 -314 1805 0
-1804 314 1805 0
1805 315 -1806 0
-1805 -315 -1806 0
1805 -315 1806 0
-1805 315 1806 0
1806 321 -1807 0
-1806 -321 -1807 0
1806 -321 1807 0
-1806 321 1807 0
1807 322 -1808 0
-1807 -322 -1808 0
1807 -322 1808 0
-1807 322 1808 0
1808 323 -1809 0
-1808 -323 -1809 0
1808 -323 1809 0
-1808 323 1809 0
1809 324 -1810 0
-1809 -324 -1810 0
1809 -324 1810 0
-1809 324 1810 0
1810 326 -1811 0
-1810 -326 -1811 0
1810 -326 1811 0
-1810 326 1811 0
1811 327 -1812 0
-1811 -327 -1812 0
1811 -327 1812 0
-1811 327 1812 0
1812 328 -1813 0
-1812 -328 -1813 0
1812 -328 1813 0
-1812 328 1813 0
1813 329 -1814 0
-1813 -329 -1814 0
1813 -329 1814 0
-1813 329 1814 0
1814 330 -1815 0
-1814 -330 -1815 0
1814 -330 1815 0
-1814 330 1815 0
5 171 -1816 0
-5 -171 -1816 0
5 -171 1816 0
-5 171 1816 0
1816 172 -1817 0
-1816 -172 -1817 0
1816 -172 1817 0
-1816 172 1817 0
1817 173 -1818 0
-1817 -173 -1818 0
1817 -173 1818 0
-1817 173 1818 0
1818 174 -1819 0
-1818 -174 -1819 0
1818 -174 1819 0
-1818 174 1819 0
1819 175 -1820 0
-1819 -175 -1820 0
1819 -175 1820 0
-1819 175 1820 0
1820 176 -1821 0
-1820 -176 -1821 0
1820 -176 1821 0
-1820 176 1821 0
1821 177 -1822 0
-1821 -177 -1822 0
1821 -177 1822 0
-1821 177 1822 0
1822 178 -1823 0
-1822 -178 -1823 0
1822 -178 1823 0
-1822 178 1823 0
1823 179 -1824 0
-1823 -179 -1824 0
1823 -179 1824 0
-1823 179 1824 0
1824 180 -1825 0
-1824 -180 -1825 0
1824 -180 1825 0
-1824 180 1825 0
1825 181 -1826 0
-1825 -181 -1826 0
1825 -181 1826 0
-1825 181 1826 0
1826 182 -1827 0
-1826 -182 -1827 0
1826 -182 1827 0
-1826 182 1827 0
1827 183 -1828 0
-1827 -183 -1828 0
1827 -183 1828 0
-1827 183 1828 0
1828 184 -1829 0
-1828 -184 -1829 0
1828 -184 1829 0
-1828 184 1829 0
1829 185 -1830 0
-1829 -185 -1830 0
1829 -185 1830 0
-1829 185 1830 0
1830 186 -1831 0
-1830 -186 -1831 0
1830 -186 1831 0
-1830 186 1831 0
1831 187 -1832 0
-1831 -187 -1832 0
1831 -187 1832 0
-1831 187 1832 0
1832 188 -1833 0
-1832 -188 -1833 0
1832 -188 1833 0
-1832 188 1833 0
1833 189 -1834 0
-1833 -189 -1834 0
1833 -189 1834 0
-1833 189 1834 0
1834 190 -1835 0
-1834 -190 -1835 0
1834 -190 1835 0
-1834 190 1835 0
1835 191 -1836 0
-1835 -191 -1836 0
1835 -191 1836 0
-1835 191 1836 0
1836 192 -1837 0
-1836 -192 -1837 0
1836 -192 1837 0
-1836 192 1837 0
1837 193 -1838 0
-1837 -193 -1838 0
1837 -193 1838 0
-1837 193 1838 0
1838 194 -1839 0
-1838 -194 -1839 0
1838 -194 1839 0
-1838 194 1839 0
1839 195 -1840 0
-1839 -195 -1840 0
1839 -195 1840 0
-1839 195 1840 0
1840 196 -1841 0
-1840 -196 -1841 0
1840 -196 1841 0
-1840 196 1841 0
1841 197 -1842 0
-1841 -197 -1842 0
1841 -197 1842 0
-1841 197 1842 0
1842 198 -1843 0
-1842 -198 -1843 0
1842 -198 1843 0
-1842 198 1843 0
1843 199 -1844 0
-1843 -199 -1844 0
1843 -199 1844 0
-1843 199 1844 0
1844 200 -1845 0
-1844 -200 -1845 0
1844 -200 1845 0
-1844 200 1845 0
1845 201 -1846 0
-1845 -201 -1846 0
1845 -201 1846 0
-1845 201 1846 0
1846 202 -1847 0
-1846 -202 -1847 0
1846 -202 1847 0
-1846 202 1847 0
1847 203 -1848 0
-1847 -203 -1848 0
1847 -203 1848 0
-1847 203 1848 0
1848 204 -1849 0
-1848 -204 -1849 0
1848 -204 1849 0
-1848 204 1849 0
1849 205 -1850 0
-1849 -205 -1850 0
1849 -205 1850 0
-1849 205 1850 0
1850 206 -1851 0
-1850 -206 -1851 0
1850 -206 1851 0
-1850 206 1851 0
1851 207 -1852 0
-1851 -207 -1852 0
1851 -207 1852 0
-1851 207 1852 0
1852 208 -1853 0
-1852 -208 -1853 0
1852 -208 1853 0
-1852 208 1853 0
1853 209 -1854 0
-1853 -209 -1854 0
1853 -209 1854 0
-1853 209 1854 0
1854 210 -1855 0
-1854 -210 -1855 0
1854 -210 1855 0
-1854 210 1855 0
1855 211 -1856 0
-1855 -211 -1856 0
1855 -211 1856 0
-1855 211 1856 0
1856 212 -1857 0
-1856 -212 -1857 0
1856 -212 1857 0
-1856 212 1857 0
1857 213 -1858 0
-1857 -213 -1858 0
1857 -213 1858 0
-1857 213 1858 0
1858 214 -1859 0
-1858 -214 -1859 0
1858 -214 1859 0
-1858 214 1859 0
1859 215 -1860 0
-1859 -215 -1860 0
1859 -215 1860 0
-1859 215 1860 0
1860 216 -1861 0
-1860 -216 -1861 0
1860 -216 1861 0
-1860 216 1861 0
1861 217 -1862 0
-1861 -217 -1862 0
1861 -217 1862 0
-1861 217 1862 0
1862 218 -1863 0
-1862 -218 -1863 0
1862 -218 1863 0
-1862 218 1863 0
1863 219 -1864 0
-1863 -219 -1864 0
1863 -219 1864 0
-1863 219 1864 0
1864 220 -1865 0
-1864 -220 -1865 0
1864 -220 1865 0
-1864 220 1865 0
1865 221 -1866 0
-1865 -221 -1866 0
1865 -221 1866 0
-1865 221 1866 0
1866 222 -1867 0
-1866 -222 -1867 0
1866 -222 1867 0
-1866 222 1867 0
1867 223 -1868 0
-1867 -223 -1868 0
1867 -223 1868 0
-1867 223 1868 0
1868 224 -1869 0
-1868 -224 -1869 0
1868 -224 1869 0
-1868 224 1869 0
1869 225 -1870 0
-1869 -225 -1870 0
1869 -225 1870 0
-1869 225 1870 0
1870 226 -1871 0
-1870 -226 -1871 0
1870 -226 1871 0
-1870 226 1871 0
1871 227 -1872 0
-1871 -227 -1872 0
1871 -227 1872 0
-1871 227 1872 0
1872 228 -1873 0
-1872 -228 -1873 0
1872 -228 1873 0
-1872 228 1873 0
1873 229 -1874 0
-1873 -229 -1874 0
1873 -229 1874 0
-1873 229 1874 0
1874 230 -1875 0
-1874 -230 -1875 0
1874 -230 1875 0
-1874 230 1875 0
1875 231 -1876 0
-1875 -231 -1876 0
1875 -231 1876 0
-1875 231 1876 0
1876 232 -1877 0
-1876 -232 -1877 0
1876 -232 1877 0
-1876 232 1877 0
1877 233 -1878 0
-1877 -233 -1878 0
1877 -233 1878 0
-1877 233 1878 0
1878 234 -1879 0
-1878 -234 -1879 0
1878 -234 1879 0
-1878 234 1879 0
1879 235 -1880 0
-1879 -235 -1880 0
1879 -235 1880 0
-1879 235 1880 0
1880 236 -1881 0
-1880 -236 -1881 0
1880 -236 1881 0
-1880 236 1881 0
1881 237 -1882 0
-1881 -237 -1882 0
1881 -237 1882 0
-1881 237 1882 0
1882 238 -1883 0
-1882 -238 -1883 0
1882 -238 1883 0
-1882 238 1883 0
1883 239 -1884 0
-1883 -239 -1884 0
1883 -239 1884 0
-1883 239 1884 0
1884 240 -1885 0
-1884 -240 -1885 0
1884 -240 1885 0
-1884 240 1885 0
1885 241 -1886 0
-1885 -241 -1886 0
1885 -241 1886 0
-1885 241 1886 0
1886 242 -1887 0
-1886 -242 -1887 0
1886 -242 1887 0
-1886 242 1887 0
1887 243 -1888 0
-1887 -243 -1888 0
1887 -243 1888 0
-1887 243 1888 0
1888 244 -1889 0
-1888 -244 -1889 0
1888 -244 1889 0
-1888 244 1889 0
1889 245 -1890 0
-1889 -245 -1890 0
1889 -245 1890 0
-1889 245 1890 0
1890 246 -1891 0
-1890 -246 -1891 0
1890 -246 1891 0
-1890 246 1891 0
1891 247 -1892 0
-1891 -247 -1892 0
1891 -247 1892 0
-1891 247 1892 0
1892 248 -1893 0
-1892 -248 -1893 0
1892 -248 1893 0
-1892 248 1893 0
1893 249 -1894 0
-1893 -249 -1894 0
1893 -249 1894 0
-1893 249 1894 0
1894 250 -1895 0
-1894 -250 -1895 0
1894 -250 1895 0
-1894 250 1895 0
1895 251 -1896 0
-1895 -251 -1896 0
1895 -251 1896 0
-1895 251 1896 0
1896 252 -1897 0
-1896 -252 -1897 0
1896 -252 1897 0
-1896 252 1897 0
1897 253 -1898 0
-1897 -253 -1898 0
1897 -253 1898 0
-1897 253 1898 0
1898 254 -1899 0
-1898 -254 -1899 0
1898 -254 1899 0
-1898 254 1899 0
1899 255 -1900 0
-1899 -255 -1900 0
1899 -255 1900 0
-1899 255 1900 0
1900 256 -1901 0
-1900 -256 -1901 0
1900 -256 1901 0
-1900 256 1901 0
1901 257 -1902 0
-1901 -257 -1902 0
1901 -257 1902 0
-1901 257 1902 0
1902 258 -1903 0
-1902 -258 -1903 0
1902 -258 1903 0
-1902 258 1903 0
1903 259 -1904 0
-1903 -259 -1904 0
1903 -259 1904 0
-1903 259 1904 0
1904 260 -1905 0
-1904 -260 -1905 0
1904 -260 1905 0
-1904 260 1905 0
1905 261 -1906 0
-1905 -261 -1906 0
1905 -261 1906 0
-1905 261 1906 0
1906 262 -1907 0
-1906 -262 -1907 0
1906 -262 1907 0
-1906 262 1907 0
1907 263 -1908 0
-1907 -263 -1908 0
1907 -263 1908 0
-1907 263 1908 0
1908 264 -1909 0
-1908 -264 -1909 0
1908 -264 1909 0
-1908 264 1909 0
1909 265 -1910 0
-1909 -265 -1910 0
1909 -265 1910 0
-1909 265 1910 0
1910 266 -1911 0
-1910 -266 -1911 0
1910 -266 1911 0
-1910 266 1911 0
1911 267 -1912 0
-1911 -267 -1912 0
1911 -267 1912 0
-1911 267 1912 0
1912 268 -1913 0
-1912 -268 -1913 0
1912 -268 1913 0
-1912 268 1913 0
1913 269 -1914 0
-1913 -269 -1914 0
1913 -269 1914 0
-1913 269 1914 0
1914 270 -1915 0
-1914 -270 -1915 0
1914 -270 1915 0
-1914 270 1915 0
1915 271 -1916 0
-1915 -271 -1916 0
1915 -271 1916 0
-1915 271 1916 0
1916 272 -1917 0
-1916 -272 -1917 0
1916 -272 1917 0
-1916 272 1917 0
1917 273 -1918 0
-1917 -273 -1918 0
1917 -273 1918 0
-1917 273 1918 0
1918 274 -1919 0
-1918 -274 -1919 0
1918 -274 1919 0
-1918 274 1919 0
1919 275 -1920 0
-1919 -275 -1920 0
1919 -275 1920 0
-1919 275 1920 0
1920 276 -1921 0
-1920 -276 -1921 0
1920 -276 1921 0
-1920 276 1921 0
1921 277 -1922 0
-1921 -277 -1922 0
1921 -277 1922 0
-1921 277 1922 0
1922 278 -1923 0
-1922 -278 -1923 0
1922 -278 1923 0
-1922 278 1923 0
1923 279 -1924 0
-1923 -279 -1924 0
1923 -279 1924 0
-1923 279 1924 0
1924 280 -1925 0
-1924 -280 -1925 0
1924 -280 1925 0
-1924 280 1925 0
1925 281 -1926 0
-1925 -281 -1926 0
1925 -281 1926 0
-1925 281 1926 0
1926 282 -1927 0
-1926 -282 -1927 0
1926 -282 1927 0
-1926 282 1927 0
1927 283 -1928 0
-1927 -283 -1928 0
1927 -283 1928 0
-1927 283 1928 0
1928 284 -1929 0
-1928 -284 -1929 0
1928 -284 1929 0
-1928 284 1929 0
1929 285 -1930 0
-1929 -285 -1930 0
1929 -285 1930 0
-1929 285 1930 0
1930 286 -1931 0
-1930 -286 -1931 0
1930 -286 1931 0
-1930 286 1931 0
1931 287 -1932 0
-1931 -287 -1932 0
1931 -287 1932 0
-1931 287 1932 0
1932 288 -1933 0
-1932 -288 -1933 0
1932 -288 1933 0
-1932 288 1933 0
1933 289 -1934 0
-1933 -289 -1934 0
1933 -289 1934 0
-1933 289 1934 0
1934 290 -1935 0
-1934 -290 -1935 0
1934 -290 1935 0
-1934 290 1935 0
1935 291 -1936 0
-1935 -291 -1936 0
1935 -291 1936 0
-1935 291 1936 0
1936 292 -1937 0
-1936 -292 -1937 0
1936 -292 1937 0
-1936 292 1937 0
1937 293 -1938 0
-1937 -293 -1938 0
1937 -293 1938 0
-1937 293 1938 0
1938 294 -1939 0
-1938 -294 -1939 0
1938 -294 1939 0
-1938 294 1939 0
1939 295 -1940 0
-1939 -295 -1940 0
1939 -295 1940 0
-1939 295 1940 0
1940 296 -1941 0
-1940 -296 -1941 0
1940 -296 1941 0
-1940 296 1941 0
1941 297 -1942 0
-1941 -297 -1942 0
1941 -297 1942 0
-1941 297 1942 0
1942 298 -1943 0
-1942 -298 -1943 0
1942 -298 1943 0
-1942 298 1943 0
1943 299 -1944 0
-1943 -299 -1944 0
1943 -299 1944 0
-1943 299 1944 0
1944 300 -1945 0
-1944 -300 -1945 0
1944 -300 1945 0
-1944 300 1945 0
1945 301 -1946 0
-1945 -301 -1946 0
1945 -301 1946 0
-1945 301 1946 0
1946 302 -1947 0
-1946 -302 -1947 0
1946 -302 1947 0
-1946 302 1947 0
1947 303 -1948 0
-1947 -303 -1948 0
1947 -303 1948 0
-1947 303 1948 0
1948 304 -1949 0
-1948 -304 -1949 0
1948 -304 1949 0
-1948 304 1949 0
1949 305 -1950 0
-1949 -305 -1950 0
1949 -305 1950 0
-1949 305 1950 0
1950 306 -1951 0
-1950 -306 -1951 0
1950 -306 1951 0
-1950 306 1951 0
1951 307 -1952 0
-1951 -307 -1952 0
1951 -307 1952 0
-1951 307 1952 0
1952 308 -1953 0
-1952 -308 -1953 0
1952 -308 1953 0
-1952 308 1953 0
1953 309 -1954 0
-1953 -309 -1954 0
1953 -309 1954 0
-1953 309 1954 0
1954 310 -1955 0
-1954 -310 -1955 0
1954 -310 1955 0
-1954 310 1955 0
1955 311 -1956 0
-1955 -311 -1956 0
1955 -311 1956 0
-1955 311 1956 0
1956 312 -1957 0
-1956 -312 -1957 0
1956 -312 1957 0
-1956 312 1957 0
1957 313 -1958 0
-1957 -313 -1958 0
1957 -313 1958 0
-1957 313 1958 0
1958 314 -1959 0
-1958 -314 -1959 0
1958 -314 1959 0
-1958 314 1959 0
1959 315 -1960 0
-1959 -315 -1960 0
1959 -315 1960 0
-1959 315 1960 0
1960 321 -1961 0
-1960 -321 -1961 0
1960 -321 1961 0
-1960 321 1961 0
1961 322 -1962 0
-1961 -322 -1962 0
1961 -322 1962 0
-1961 322 1962 0
1962 323 -1963 0
-1962 -323 -1963 0
1962 -323 1963 0
-1962 323 1963 0
1963 324 -1964 0
-1963 -324 -1964 0
1963 -324 1964 0
-1963 324 1964 0
1964 325 -1965 0
-1964 -325 -1965 0
1964 -325 1965 0
-1964 325 1965 0
1965 326 -1966 0
-1965 -326 -1966 0
1965 -326 1966 0
-1965 326 1966 0
1966 327 -1967 0
-1966 -327 -1967 0
1966 -327 1967 0
-1966 327 1967 0
1967 328 -1968 0
-1967 -328 -1968 0
1967 -328 1968 0
-1967 328 1968 0
1968 329 -1969 0
-1968 -329 -1969 0
1968 -329 1969 0
-1968 329 1969 0
1969 330 -1970 0
-1969 -330 -1970 0
1969 -330 1970 0
-1969 330 1970 0
6 171 -1971 0
-6 -171 -1971 0
6 -171 1971 0
-6 171 1971 0
1971 172 -1972 0
-1971 -172 -1972 0
1971 -172 1972 0
-1971 172 1972 0
1972 173 -1973 0
-1972 -173 -1973 0
1972 -173 1973 0
-1972 173 1973 0
1973 174 -1974 0
-1973 -174 -1974 0
1973 -174 1974 0
-1973 174 1974 0
1974 175 -1975 0
-1974 -175 -1975 0
1974 -175 1975 0
-1974 175 1975 0
1975 177 -1976 0
-1975 -177 -1976 0
1975 -177 1976 0
-1975 177 1976 0
1976 178 -1977 0
-1976 -178 -1977 0
1976 -178 1977 0
-1976 178 1977 0
1977 179 -1978 0
-1977 -179 -1978 0
1977 -179 1978 0
-1977 179 1978 0
1978 180 -1979 0
-1978 -180 -1979 0
1978 -180 1979 0
-1978 180 1979 0
1979 182 -1980 0
-1979 -182 -1980 0
1979 -182 1980 0
-1979 182 1980 0
1980 183 -1981 0
-1980 -183 -1981 0
1980 -183 1981 0
-1980 183 1981 0
1981 184 -1982 0
-1981 -184 -1982 0
1981 -184 1982 0
-1981 184 1982 0
1982 185 -1983 0
-1982 -185 -1983 0
1982 -185 1983 0
-1982 185 1983 0
1983 187 -1984 0
-1983 -187 -1984 0
1983 -187 1984 0
-1983 187 1984 0
1984 188 -1985 0
-1984 -188 -1985 0
1984 -188 1985 0
-1984 188 1985 0
1985 189 -1986 0
-1985 -189 -1986 0
1985 -189 1986 0
-1985 189 1986 0
1986 190 -1987 0
-1986 -190 -1987 0
1986 -190 1987 0
-1986 190 1987 0
1987 192 -1988 0
-1987 -192 -1988 0
1987 -192 1988 0
-1987 192 1988 0
1988 193 -1989 0
-1988 -193 -1989 0
1988 -193 1989 0
-1988 193 1989 0
1989 194 -1990 0
-1989 -194 -1990 0
1989 -194 1990 0
-1989 194 1990 0
1990 195 -1991 0
-1990 -195 -1991 0
1990 -195 1991 0
-1990 195 1991 0
1991 197 -1992 0
-1991 -197 -1992 0
1991 -197 1992 0
-1991 197 1992 0
1992 198 -1993 0
-1992 -198 -1993 0
1992 -198 1993 0
-1992 198 1993 0
1993 199 -1994 0
-1993 -199 -1994 0
1993 -199 1994 0
-1993 199 1994 0
1994 200 -1995 0
-1994 -200 -1995 0
1994 -200 1995 0
-1994 200 1995 0
1995 202 -1996 0
-1995 -202 -1996 0
1995 -202 1996 0
-1995 202 1996 0
1996 203 -1997 0
-1996 -203 -1997 0
1996 -203 1997 0
-1996 203 1997 0
1997 204 -1998 0
-1997 -204 -1998 0
1997 -204 1998 0
-1997 204 1998 0
1998 205 -1999 0
-1998 -205 -1999 0
1998 -205 1999 0
-1998 205 1999 0
1999 207 -2000 0
-1999 -207 -2000 0
1999 -207 2000 0
-1999 207 2000 0
2000 208 -2001 0
-2000 -208 -2001 0
2000 -208 2001 0
-2000 208 2001 0
2001 209 -2002 0
-2001 -209 -2002 0
2001 -209 2002 0
-2001 209 2002 0
2002 210 -2003 0
-2002 -210 -2003 0
2002 -210 2003 0
-2002 210 2003 0
2003 212 -2004 0
-2003 -212 -2004 0
2003 -212 2004 0
-2003 212 2004 0
2004 213 -2005 0
-2004 -213 -2005 0
2004 -213 2005 0
-2004 213 2005 0
2005 214 -2006 0
-2005 -214 -2006 0
2005 -214 2006 0
-2005 214 2006 0
2006 215 -2007 0
-2006 -215 -2007 0
2006 -215 2007 0
-2006 215 2007 0
2007 217 -2008 0
-2007 -217 -2008 0
2007 -217 2008 0
-2007 217 2008 0
2008 218 -2009 0
-2008 -218 -2009 0
2008 -218 2009 0
-2008 218 2009 0
2009 219 -2010 0
-2009 -219 -2010 0
2009 -219 2010 0
-2009 219 2010 0
2010 220 -2011 0
-2010 -220 -2011 0
2010 -220 2011 0
-2010 220 2011 0
2011 222 -2012 0
-2011 -222 -2012 0
2011 -222 2012 0
-2011 222 2012 0
2012 223 -2013 0
-2012 -223 -2013 0
2012 -223 2013 0
-2012 223 2013 0
2013 224 -2014 0
-2013 -224 -2014 0
2013 -224 2014 0
-2013 224 2014 0
2014 225 -2015 0
-2014 -225 -2015 0
2014 -225 2015 0
-2014 225 2015 0
2015 227 -2016 0
-2015 -227 -2016 0
2015 -227 2016 0
-2015 227 2016 0
2016 228 -2017 0
-2016 -228 -2017 0
2016 -228 2017 0
-2016 228 2017 0
2017 229 -2018 0
-2017 -229 -2018 0
2017 -229 2018 0
-2017 229 2018 0
2018 230 -2019 0
-2018 -230 -2019 0
2018 -230 2019 0
-2018 230 2019 0
2019 232 -2020 0
-2019 -232 -2020 0
2019 -232 2020 0
-2019 232 2020 0
2020 233 -2021 0
-2020 -233 -2021 0
2020 -233 2021 0
-2020 233 2021 0
2021 234 -2022 0
-2021 -234 -2022 0
2021 -234 2022 0
-2021 234 2022 0
2022 235 -2023 0
-2022 -235 -2023 0
2022 -235 2023 0
-2022 235 2023 0
2023 237 -2024 0
-2023 -237 -2024 0
2023 -237 2024 0
-2023 237 2024 0
2024 238 -2025 0
-2024 -238 -2025 0
2024 -238 2025 0
-2024 238 2025 0
2025 239 -2026 0
-2025 -239 -2026 0
2025 -239 2026 0
-2025 239 2026 0
2026 240 -2027 0
-2026 -240 -2027 0
2026 -240 2027 0
-2026 240 2027 0
2027 242 -2028 0
-2027 -242 -2028 0
2027 -242 2028 0
-2027 242 2028 0
2028 243 -2029 0
-2028 -243 -2029 0
2028 -243 2029 0
-2028 243 2029 0
2029 244 -2030 0
-2029 -244 -2030 0
2029 -244 2030 0
-2029 244 2030 0
2030 245 -2031 0
-2030 -245 -2031 0
2030 -245 2031 0
-2030 245 2031 0
2031 247 -2032 0
-2031 -247 -2032 0
2031 -247 2032 0
-2031 247 2032 0
2032 248 -2033 0
-2032 -248 -2033 0
2032 -248 2033 0
-2032 248 2033 0
2033 249 -2034 0
-2033 -249 -2034 0
2033 -249 2034 0
-2033 249 2034 0
2034 250 -2035 0
-2034 -250 -2035 0
2034 -250 2035 0
-2034 250 2035 0
2035 252 -2036 0
-2035 -252 -2036 0
2035 -252 2036 0
-2035 252 2036 0
2036 253 -2037 0
-2036 -253 -2037 0
2036 -253 2037 0
-2036 253 2037 0
2037 254 -2038 0
-2037 -254 -2038 0
2037 -254 2038 0
-2037 254 2038 0
2038 255 -2039 0
-2038 -255 -2039 0
2038 -255 2039 0
-2038 255 2039 0
2039 257 -2040 0
-2039 -257 -2040 0
2039 -257 2040 0
-2039 257 2040 0
2040 258 -2041 0
-2040 -258 -2041 0
2040 -258 2041 0
-2040 258 2041 0
2041 259 -2042 0
-2041 -259 -2042 0
2041 -259 2042 0
-2041 259 2042 0
2042 260 -2043 0
-2042 -260 -2043 0
2042 -260 2043 0
-2042 260 2043 0
2043 262 -2044 0
-2043 -262 -2044 0
2043 -262 2044 0
-2043 262 2044 0
2044 263 -2045 0
-2044 -263 -2045 0
2044 -263 2045 0
-2044 263 2045 0
2045 264 -2046 0
-2045 -264 -2046 0
2045 -264 2046 0
-2045 264 2046 0
2046 265 -2047 0
-2046 -265 -2047 0
2046 -265 2047 0
-2046 265 2047 0
2047 267 -2048 0
-2047 -267 -2048 0
2047 -267 2048 0
-2047 267 2048 0
2048 268 -2049 0
-2048 -268 -2049 0
2048 -268 2049 0
-2048 268 2049 0
2049 269 -2050 0
-2049 -269 -2050 0
2049 -269 2050 0
-2049 269 2050 0
2050 270 -2051 0
-2050 -270 -2051 0
2050 -270 2051 0
-2050 270 2051 0
2051 272 -2052 0
-2051 -272 -2052 0
2051 -272 2052 0
-2051 272 2052 0
2052 273 -2053 0
-2052 -273 -2053 0
2052 -273 2053 0
-2052 273 2053 0
2053 274 -2054 0
-2053 -274 -2054 0
2053 -274 2054 0
-2053 274 2054 0
2054 275 -2055 0
-2054 -275 -2055 0
2054 -275 2055 0
-2054 275 2055 0
2055 277 -2056 0
-2055 -277 -2056 0
2055 -277 2056 0
-2055 277 2056 0
2056 278 -2057 0
-2056 -278 -2057 0
2056 -278 2057 0
-2056 278 2057 0
2057 279 -2058 0
-2057 -279 -2058 0
2057 -279 2058 0
-2057 279 2058 0
2058 280 -2059 0
-2058 -280 -2059 0
2058 -280 2059 0
-2058 280 2059 0
2059 282 -2060 0
-2059 -282 -2060 0
2059 -282 2060 0
-2059 282 2060 0
2060 283 -2061 0
-2060 -283 -2061 0
2060 -283 2061 0
-2060 283 2061 0
2061 284 -2062 0
-2061 -284 -2062 0
2061 -284 2062 0
-2061 284 2062 0
2062 285 -2063 0
-2062 -285 -2063 0
2062 -285 2063 0
-2062 285 2063 0
2063 287 -2064 0
-2063 -287 -2064 0
2063 -287 2064 0
-2063 287 2064 0
2064 288 -2065 0
-2064 -288 -2065 0
2064 -288 2065 0
-2064 288 2065 0
2065 289 -2066 0
-2065 -289 -2066 0
2065 -289 2066 0
-2065 289 2066 0
2066 290 -2067 0
-2066 -290 -2067 0
2066 -290 2067 0
-2066 290 2067 0
2067 292 -2068 0
-2067 -292 -2068 0
2067 -292 2068 0
-2067 292 2068 0
2068 293 -2069 0
-2068 -293 -2069 0
2068 -293 2069 0
-2068 293 2069 0
2069 294 -2070 0
-2069 -294 -2070 0
2069 -294 2070 0
-2069 294 2070 0
2070 295 -2071 0
-2070 -295 -2071 0
2070 -295 2071 0
-2070 295 2071 0
2071 297 -2072 0
-2071 -297 -2072 0
2071 -297 2072 0
-2071 297 2072 0
2072 298 -2073 0
-2072 -298 -2073 0
2072 -298 2073 0
-2072 298 2073 0
2073 299 -2074 0
-2073 -299 -2074 0
2073 -299 2074 0
-2073 299 2074 0
2074 300 -2075 0
-2074 -300 -2075 0
2074 -300 2075 0
-2074 300 2075 0
2075 302 -2076 0
-2075 -302 -2076 0
2075 -302 2076 0
-2075 302 2076 0
2076 303 -2077 0
-2076 -303 -2077 0
2076 -303 2077 0
-2076 303 2077 0
2077 304 -2078 0
-2077 -304 -2078 0
2077 -304 2078 0
-2077 304 2078 0
2078 305 -2079 0
-2078 -305 -2079 0
2078 -305 2079 0
-2078 305 2079 0
2079 307 -2080 0
-2079 -307 -2080 0
2079 -307 2080 0
-2079 307 2080 0
2080 308 -2081 0
-2080 -308 -2081 0
2080 -308 2081 0
-2080 308 2081 0
2081 309 -2082 0
-2081 -309 -2082 0
2081 -309 2082 0
-2081 309 2082 0
2082 310 -2083 0
-2082 -310 -2083 0
2082 -310 2083 0
-2082 310 2083 0
2083 312 -2084 0
-2083 -312 -2084 0
2083 -312 2084 0
-2083 312 2084 0
2084 313 -2085 0
-2084 -313 -2085 0
2084 -313 2085 0
-2084 313 2085 0
2085 314 -2086 0
-2085 -314 -2086 0
2085 -314 2086 0
-2085 314 2086 0
2086 315 -2087 0
-2086 -315 -2087 0
2086 -315 2087 0
-2086 315 2087 0
2087 321 -2088 0
-2087 -321 -2088 0
2087 -321 2088 0
-2087 321 2088 0
2088 322 -2089 0
-2088 -322 -2089 0
2088 -322 2089 0
-2088 322 2089 0
2089 323 -2090 0
-2089 -323 -2090 0
2089 -323 2090 0
-2089 323 2090 0
2090 324 -2091 0
-2090 -324 -2091 0
2090 -324 2091 0
-2090 324 2091 0
2091 325 -2092 0
-2091 -325 -2092 0
2091 -325 2092 0
-2091 325 2092 0
2092 327 -2093 0
-2092 -327 -2093 0
2092 -327 2093 0
-2092 327 2093 0
2093 328 -2094 0
-2093 -328 -2094 0
2093 -328 2094 0
-2093 328 2094 0
2094 329 -2095 0
-2094 -329 -2095 0
2094 -329 2095 0
-2094 329 2095 0
2095 330 -2096 0
-2095 -330 -2096 0
2095 -330 2096 0
-2095 330 2096 0
11 172 -2097 0
-11 -172 -2097 0
11 -172 2097 0
-11 172 2097 0
2097 173 -2098 0
-2097 -173 -2098 0
2097 -173 2098 0
-2097 173 2098 0
2098 174 -2099 0
-2098 -174 -2099 0
2098 -174 2099 0
-2098 174 2099 0
2099 175 -2100 0
-2099 -175 -2100 0
2099 -175 2100 0
-2099 175 2100 0
2100 176 -2101 0
-2100 -176 -2101 0
2100 -176 2101 0
-2100 176 2101 0
2101 322 -2102 0
-2101 -322 -2102 0
2101 -322 2102 0
-2101 322 2102 0
2102 323 -2103 0
-2102 -323 -2103 0
2102 -323 2103 0
-2102 323 2103 0
2103 324 -2104 0
-2103 -324 -2104 0
2103 -324 2104 0
-2103 324 2104 0
2104 325 -2105 0
-2104 -325 -2105 0
2104 -325 2105 0
-2104 325 2105 0
2105 326 -2106 0
-2105 -326 -2106 0
2105 -326 2106 0
-2105 326 2106 0
12 173 -2107 0
-12 -173 -2107 0
12 -173 2107 0
-12 173 2107 0
2107 174 -2108 0
-2107 -174 -2108 0
2107 -174 2108 0
-2107 174 2108 0
2108 175 -2109 0
-2108 -175 -2109 0
2108 -175 2109 0
-2108 175 2109 0
2109 176 -2110 0
-2109 -176 -2110 0
2109 -176 2110 0
-2109 176 2110 0
2110 177 -2111 0
-2110 -177 -2111 0
2110 -177 2111 0
-2110 177 2111 0
2111 323 -2112 0
-2111 -323 -2112 0
2111 -323 2112 0
-2111 323 2112 0
2112 324 -2113 0
-2112 -324 -2113 0
2112 -324 2113 0
-2112 324 2113 0
2113 325 -2114 0
-2113 -325 -2114 0
2113 -325 2114 0
-2113 325 2114 0
2114 326 -2115 0
-2114 -326 -2115 0
2114 -326 2115 0
-2114 326 2115 0
2115 327 -2116 0
-2115 -327 -2116 0
2115 -327 2116 0
-2115 327 2116 0
13 174 -2117 0
-13 -174 -2117 0
13 -174 2117 0
-13 174 2117 0
2117 175 -2118 0
-2117 -175 -2118 0
2117 -175 2118 0
-2117 175 2118 0
2118 176 -2119 0
-2118 -176 -2119 0
2118 -176 2119 0
-2118 176 2119 0
2119 177 -2120 0
-2119 -177 -2120 0
2119 -177 2120 0
-2119 177 2120 0
2120 178 -2121 0
-2120 -178 -2121 0
2120 -178 2121 0
-2120 178 2121 0
2121 324 -2122 0
-2121 -324 -2122 0
2121 -324 2122 0
-2121 324 2122 0
2122 325 -2123 0
-2122 -325 -2123 0
2122 -325 2123 0
-2122 325 2123 0
2123 326 -2124 0
-2123 -326 -2124 0
2123 -326 2124 0
-2123 326 2124 0
2124 327 -2125 0
-2124 -327 -2125 0
2124 -327 2125 0
-2124 327 2125 0
2125 328 -2126 0
-2125 -328 -2126 0
2125 -328 2126 0
-2125 328 2126 0
14 175 -2127 0
-14 -175 -2127 0
14 -175 2127 0
-14 175 2127 0
2127 176 -2128 0
-2127 -176 -2128 0
2127 -176 2128 0
-2127 176 2128 0
2128 177 -2129 0
-2128 -177 -2129 0
2128 -177 2129 0
-2128 177 2129 0
2129 178 -2130 0
-2129 -178 -2130 0
2129 -178 2130 0
-2129 178 2130 0
2130 179 -2131 0
-2130 -179 -2131 0
2130 -179 2131 0
-2130 179 2131 0
2131 325 -2132 0
-2131 -325 -2132 0
2131 -325 2132 0
-2131 325 2132 0
2132 326 -2133 0
-2132 -326 -2133 0
2132 -326 2133 0
-2132 326 2133 0
2133 327 -2134 0
-2133 -327 -2134 0
2133 -327 2134 0
-2133 327 2134 0
2134 328 -2135 0
-2134 -328 -2135 0
2134 -328 2135 0
-2134 328 2135 0
2135 329 -2136 0
-2135 -329 -2136 0
2135 -329 2136 0
-2135 329 2136 0
1524 1592 1689 1815 1970 2096 2106 2116 2126 2136 0
-1 0
-2 0
-3 0
-4 0
-5 0
-6 0
-7 0
-8 0
-9 0
-10 0
-11 0
-12 0
-13 0
-14 0
-15 0
-16 0
-17 0
-18 0
-19 0
-20 0
-21 0
-22 0
-23 0
-24 0
-25 0
-26 0
-27 0
-28 0
-29 0
-30 0
-31 0
-32 0
-33 0
-34 0
-35 0
-36 0
-37 0
-38 0
-39 0
-40 0
-41 0
-42 0
-43 0
-44 0
-45 0
-46 0
-47 0
-48 0
-49 0
-50 0
-51 0
-52 0
-53 0
-54 0
-55 0
-56 0
-57 0
-58 0
-59 0
-60 0
-61 0
-62 0
-63 0
-64 0
-65 0
-66 0
-67 0
-68 0
-69 0
-70 0
-71 0
-72 0
-73 0
-74 0
-75 0
-76 0
-77 0
-78 0
-79 0
-80 0
-81 0
-82 0
-83 0
-84 0
-85 0
-86 0
-87 0
-88 0
-89 0
-90 0
-91 0
-92 0
-93 0
-94 0
-95 0
-96 0
-97 0
-98 0
-99 0
-100 0
-101 0
-102 0
-103 0
-104 0
-105 0
-106 0
-107 0
-108 0
-109 0
-110 0
-111 0
-112 0
-113 0
-114 0
-115 0
-116 0
-117 0
-118 0
-119 0
-120 0
-121 0
-122 0
-123 0
-124 0
-125 0
-126 0
-127 0
-128 0
-129 0
-130 0
-131 0
-132 0
-133 0
-134 0
-135 0
-136 0
-137 0
-138 0
-139 0
-140 0
-141 0
-142 0
-143 0
-144 0
-145 0
-146 0
-147 0
-148 0
-149 0
-150 0
-151 0
-152 0
-153 0
-154 0
-155 0
-156 0
-157 0
-158 0
-159 0
-160 0
-161 0
-162 0
-163 0
-164 0
-165 0
166 0
-2145 2139 2146 0
-2142 2139 2146 0
-2142 -2145 2146 0
-2146 2137 0
-2143 2137 0
-2146 -2143 2138 0
-2144 2138 0
-2146 -2144 0
-2140 2137 0
-2146 -2140 2138 0
-2141 2138 0
-2146 -2141 0
-2140 -2143 2138 0
-2146 -2140 -2143 0
-2140 -2144 0
-2146 -2140 -2144 0
-2141 -2143 0
-2146 -2141 -2143 0
-2141 -2144 0
-2146 -2141 -2144 0
-2152 2145 2153 0
-2149 2145 2153 0
-2149 -2152 2153 0
-2153 2143 0
-2150 2143 0
-2153 -2150 2144 0
-2151 2144 0
-2153 -2151 0
-2147 2143 0
-2153 -2147 2144 0
-2148 2144 0
-2153 -2148 0
-2147 -2150 2144 0
-2153 -2147 -2150 0
-2147 -2151 0
-2153 -2147 -2151 0
-2148 -2150 0
-2153 -2148 -2150 0
-2148 -2151 0
-2153 -2148 -2151 0
-2159 2152 2160 0
-2156 2152 2160 0
-2156 -2159 2160 0
-2160 2150 0
-2157 2150 0
-2160 -2157 2151 0
-2158 2151 0
-2160 -2158 0
-2154 2150 0
-2160 -2154 2151 0
-2155 2151 0
-2160 -2155 0
-2154 -2157 2151 0
-2160 -2154 -2157 0
-2154 -2158 0
-2160 -2154 -2158 0
-2155 -2157 0
-2160 -2155 -2157 0
-2155 -2158 0
-2160 -2155 -2158 0
-2166 2159 2167 0
-2163 2159 2167 0
-2163 -2166 2167 0
-2167 2157 0
-2164 2157 0
-2167 -2164 2158 0
-2165 2158 0
-2167 -2165 0
-2161 2157 0
-2167 -2161 2158 0
-2162 2158 0
-2167 -2162 0
-2161 -2164 2158 0
-2167 -2161 -2164 0
-2161 -2165 0
-2167 -2161 -2165 0
-2162 -2164 0
-2167 -2162 -2164 0
-2162 -2165 0
-2167 -2162 -2165 0
-2173 2166 2174 0
-2170 2166 2174 0
-2170 -2173 2174 0
-2174 2164 0
-2171 2164 0
-2174 -2171 2165 0
-2172 2165 0
-2174 -2172 0
-2168 2164 0
-2174 -2168 2165 0
-2169 2165 0
-2174 -2169 0
-2168 -2171 2165 0
-2174 -2168 -2171 0
-2168 -2172 0
-2174 -2168 -2172 0
-2169 -2171 0
-2174 -2169 -2171 0
-2169 -2172 0
-2174 -2169 -2172 0
-2180 2173 2181 0
-2177 2173 2181 0
-2177 -2180 2181 0
-2181 2171 0
-2178 2171 0
-2181 -2178 2172 0
-2179 2172 0
-2181 -2179 0
-2175 2171 0
-2181 -2175 2172 0
-2176 2172 0
-2181 -2176 0
-2175 -2178 2172 0
-2181 -2175 -2178 0
-2175 -2179 0
-2181 -2175 -2179 0
-2176 -2178 0
-2181 -2176 -2178 0
-2176 -2179 0
-2181 -2176 -2179 0
-2185 2180 2186 0
-2183 2180 2186 0
-2183 -2185 2186 0
-2186 2178 0
-2184 2178 0
-2186 -2184 2179 0
-2182 2178 0
-2186 -2182 2179 0
-2182 -2184 2179 0
-2186 -2182 -2184 0
-330 2185 2187 0
-329 2185 2187 0
-329 -330 2187 0
-2187 2184 0
-328 2183 2190 0
-2189 2183 2190 0
-2189 -328 2190 0
-2190 2182 0
-2188 2182 0
-2190 -2188 0
-327 2189 2191 0
-326 2189 2191 0
-326 -327 2191 0
-2191 2188 0
-2195 2177 2196 0
-2193 2177 2196 0
-2193 -2195 2196 0
-2196 2175 0
-2194 2175 0
-2196 -2194 2176 0
-2192 2175 0
-2196 -2192 2176 0
-2192 -2194 2176 0
-2196 -2192 -2194 0
-325 2195 2197 0
-324 2195 2197 0
-324 -325 2197 0
-2197 2194 0
-323 2193 2200 0
-2199 2193 2200 0
-2199 -323 2200 0
-2200 2192 0
-2198 2192 0
-2200 -2198 0
-322 2199 2201 0
-321 2199 2201 0
-321 -322 2201 0
-2201 2198 0
-2207 2170 2208 0
-2204 2170 2208 0
-2204 -2207 2208 0
-2208 2168 0
-2205 2168 0
-2208 -2205 2169 0
-2206 2169 0
-2208 -2206 0
-2202 2168 0
-2208 -2202 2169 0
-2203 2169 0
-2208 -2203 0
-2202 -2205 2169 0
-2208 -2202 -2205 0
-2202 -2206 0
-2208 -2202 -2206 0
-2203 -2205 0
-2208 -2203 -2205 0
-2203 -2206 0
-2208 -2203 -2206 0
-2212 2207 2213 0
-2210 2207 2213 0
-2210 -2212 2213 0
-2213 2205 0
-2211 2205 0
-2213 -2211 2206 0
-2209 2205 0
-2213 -2209 2206 0
-2209 -2211 2206 0
-2213 -2209 -2211 0
-320 2212 2214 0
-319 2212 2214 0
-319 -320 2214 0
-2214 2211 0
-318 2210 2217 0
-2216 2210 2217 0
-2216 -318 2217 0
-2217 2209 0
-2215 2209 0
-2217 -2215 0
-317 2216 2218 0
-316 2216 2218 0
-316 -317 2218 0
-2218 2215 0
-2222 2204 2223 0
-2220 2204 2223 0
-2220 -2222 2223 0
-2223 2202 0
-2221 2202 0
-2223 -2221 2203 0
-2219 2202 0
-2223 -2219 2203 0
-2219 -2221 2203 0
-2223 -2219 -2221 0
-315 2222 2224 0
-314 2222 2224 0
-314 -315 2224 0
-2224 2221 0
-313 2220 2227 0
-2226 2220 2227 0
-2226 -313 2227 0
-2227 2219 0
-2225 2219 0
-2227 -2225 0
-312 2226 2228 0
-311 2226 2228 0
-311 -312 2228 0
-2228 2225 0
-2234 2163 2235 0
-2231 2163 2235 0
-2231 -2234 2235 0
-2235 2161 0
-2232 2161 0
-2235 -2232 2162 0
-2233 2162 0
-2235 -2233 0
-2229 2161 0
-2235 -2229 2162 0
-2230 2162 0
-2235 -2230 0
-2229 -2232 2162 0
-2235 -2229 -2232 0
-2229 -2233 0
-2235 -2229 -2233 0
-2230 -2232 0
-2235 -2230 -2232 0
-2230 -2233 0
-2235 -2230 -2233 0
-2241 2234 2242 0
-2238 2234 2242 0
-2238 -2241 2242 0
-2242 2232 0
-2239 2232 0
-2242 -2239 2233 0
-2240 2233 0
-2242 -2240 0
-2236 2232 0
-2242 -2236 2233 0
-2237 2233 0
-2242 -2237 0
-2236 -2239 2233 0
-2242 -2236 -2239 0
-2236 -2240 0
-2242 -2236 -2240 0
-2237 -2239 0
-2242 -2237 -2239 0
-2237 -2240 0
-2242 -2237 -2240 0
-2246 2241 2247 0
-2244 2241 2247 0
-2244 -2246 2247 0
-2247 2239 0
-2245 2239 0
-2247 -2245 2240 0
-2243 2239 0
-2247 -2243 2240 0
-2243 -2245 2240 0
-2247 -2243 -2245 0
-310 2246 2248 0
-309 2246 2248 0
-309 -310 2248 0
-2248 2245 0
-308 2244 2251 0
-2250 2244 2251 0
-2250 -308 2251 0
-2251 2243 0
-2249 2243 0
-2251 -2249 0
-307 2250 2252 0
-306 2250 2252 0
-306 -307 2252 0
-2252 2249 0
-2256 2238 2257 0
-2254 2238 2257 0
-2254 -2256 2257 0
-2257 2236 0
-2255 2236 0
-2257 -2255 2237 0
-2253 2236 0
-2257 -2253 2237 0
-2253 -2255 2237 0
-2257 -2253 -2255 0
-305 2256 2258 0
-304 2256 2258 0
-304 -305 2258 0
-2258 2255 0
-303 2254 2261 0
-2260 2254 2261 0
-2260 -303 2261 0
-2261 2253 0
-2259 2253 0
-2261 -2259 0
-302 2260 2262 0
-301 2260 2262 0
-301 -302 2262 0
-2262 2259 0
-2268 2231 2269 0
-2265 2231 2269 0
-2265 -2268 2269 0
-2269 2229 0
-2266 2229 0
-2269 -2266 2230 0
-2267 2230 0
-2269 -2267 0
-2263 2229 0
-2269 -2263 2230 0
-2264 2230 0
-2269 -2264 0
-2263 -2266 2230 0
-2269 -2263 -2266 0
-2263 -2267 0
-2269 -2263 -2267 0
-2264 -2266 0
-2269 -2264 -2266 0
-2264 -2267 0
-2269 -2264 -2267 0
-2273 2268 2274 0
-2271 2268 2274 0
-2271 -2273 2274 0
-2274 2266 0
-2272 2266 0
-2274 -2272 2267 0
-2270 2266 0
-2274 -2270 2267 0
-2270 -2272 2267 0
-2274 -2270 -2272 0
-300 2273 2275 0
-299 2273 2275 0
-299 -300 2275 0
-2275 2272 0
-298 2271 2278 0
-2277 2271 2278 0
-2277 -298 2278 0
-2278 2270 0
-2276 2270 0
-2278 -2276 0
-297 2277 2279 0
-296 2277 2279 0
-296 -297 2279 0
-2279 2276 0
-2283 2265 2284 0
-2281 2265 2284 0
-2281 -2283 2284 0
-2284 2263 0
-2282 2263 0
-2284 -2282 2264 0
-2280 2263 0
-2284 -2280 2264 0
-2280 -2282 2264 0
-2284 -2280 -2282 0
-295 2283 2287 0
-2286 2283 2287 0
-2286 -295 2287 0
-2287 2282 0
-2285 2282 0
-2287 -2285 0
-294 2286 2288 0
-293 2286 2288 0
-293 -294 2288 0
-2288 2285 0
-292 2281 2291 0
-2290 2281 2291 0
-2290 -292 2291 0
-2291 2280 0
-2289 2280 0
-2291 -2289 0
-291 2290 2292 0
-290 2290 2292 0
-290 -291 2292 0
-2292 2289 0
-2298 2156 2299 0
-2295 2156 2299 0
-2295 -2298 2299 0
-2299 2154 0
-2296 2154 0
-2299 -2296 2155 0
-2297 2155 0
-2299 -2297 0
-2293 2154 0
-2299 -2293 2155 0
-2294 2155 0
-2299 -2294 0
-2293 -2296 2155 0
-2299 -2293 -2296 0
-2293 -2297 0
-2299 -2293 -2297 0
-2294 -2296 0
-2299 -2294 -2296 0
-2294 -2297 0
-2299 -2294 -2297 0
-2305 2298 2306 0
-2302 2298 2306 0
-2302 -2305 2306 0
-2306 2296 0
-2303 2296 0
-2306 -2303 2297 0
-2304 2297 0
-2306 -2304 0
-2300 2296 0
-2306 -2300 2297 0
-2301 2297 0
-2306 -2301 0
-2300 -2303 2297 0
-2306 -2300 -2303 0
-2300 -2304 0
-2306 -2300 -2304 0
-2301 -2303 0
-2306 -2301 -2303 0
-2301 -2304 0
-2306 -2301 -2304 0
-2312 2305 2313 0
-2309 2305 2313 0
-2309 -2312 2313 0
-2313 2303 0
-2310 2303 0
-2313 -2310 2304 0
-2311 2304 0
-2313 -2311 0
-2307 2303 0
-2313 -2307 2304 0
-2308 2304 0
-2313 -2308 0
-2307 -2310 2304 0
-2313 -2307 -2310 0
-2307 -2311 0
-2313 -2307 -2311 0
-2308 -2310 0
-2313 -2308 -2310 0
-2308 -2311 0
-2313 -2308 -2311 0
-2317 2312 2318 0
-2315 2312 2318 0
-2315 -2317 2318 0
-2318 2310 0
-2316 2310 0
-2318 -2316 2311 0
-2314 2310 0
-2318 -2314 2311 0
-2314 -2316 2311 0
-2318 -2314 -2316 0
-289 2317 2319 0
-288 2317 2319 0
-288 -289 2319 0
-2319 2316 0
-287 2315 2322 0
-2321 2315 2322 0
-2321 -287 2322 0
-2322 2314 0
-2320 2314 0
-2322 -2320 0
-286 2321 2323 0
-285 2321 2323 0
-285 -286 2323 0
-2323 2320 0
-2327 2309 2328 0
-2325 2309 2328 0
-2325 -2327 2328 0
-2328 2307 0
-2326 2307 0
-2328 -2326 2308 0
-2324 2307 0
-2328 -2324 2308 0
-2324 -2326 2308 0
-2328 -2324 -2326 0
-284 2327 2329 0
-283 2327 2329 0
-283 -284 2329 0
-2329 2326 0
-282 2325 2332 0
-2331 2325 2332 0
-2331 -282 2332 0
-2332 2324 0
-2330 2324 0
-2332 -2330 0
-281 2331 2333 0
-280 2331 2333 0
-280 -281 2333 0
-2333 2330 0
-2339 2302 2340 0
-2336 2302 2340 0
-2336 -2339 2340 0
-2340 2300 0
-2337 2300 0
-2340 -2337 2301 0
-2338 2301 0
-2340 -2338 0
-2334 2300 0
-2340 -2334 2301 0
-2335 2301 0
-2340 -2335 0
-2334 -2337 2301 0
-2340 -2334 -2337 0
-2334 -2338 0
-2340 -2334 -2338 0
-2335 -2337 0
-2340 -2335 -2337 0
-2335 -2338 0
-2340 -2335 -2338 0
-2344 2339 2345 0
-2342 2339 2345 0
-2342 -2344 2345 0
-2345 2337 0
-2343 2337 0
-2345 -2343 2338 0
-2341 2337 0
-2345 -2341 2338 0
-2341 -2343 2338 0
-2345 -2341 -2343 0
-279 2344 2346 0
-278 2344 2346 0
-278 -279 2346 0
-2346 2343 0
-277 2342 2349 0
-2348 2342 2349 0
-2348 -277 2349 0
-2349 2341 0
-2347 2341 0
-2349 -2347 0
-276 2348 2350 0
-275 2348 2350 0
-275 -276 2350 0
-2350 2347 0
-2354 2336 2355 0
-2352 2336 2355 0
-2352 -2354 2355 0
-2355 2334 0
-2353 2334 0
-2355 -2353 2335 0
-2351 2334 0
-2355 -2351 2335 0
-2351 -2353 2335 0
-2355 -2351 -2353 0
-274 2354 2356 0
-273 2354 2356 0
-273 -274 2356 0
-2356 2353 0
-272 2352 2359 0
-2358 2352 2359 0
-2358 -272 2359 0
-2359 2351 0
-2357 2351 0
-2359 -2357 0
-271 2358 2360 0
-270 2358 2360 0
-270 -271 2360 0
-2360 2357 0
-2366 2295 2367 0
-2363 2295 2367 0
-2363 -2366 2367 0
-2367 2293 0
-2364 2293 0
-2367 -2364 2294 0
-2365 2294 0
-2367 -2365 0
-2361 2293 0
-2367 -2361 2294 0
-2362 2294 0
-2367 -2362 0
-2361 -2364 2294 0
-2367 -2361 -2364 0
-2361 -2365 0
-2367 -2361 -2365 0
-2362 -2364 0
-2367 -2362 -2364 0
-2362 -2365 0
-2367 -2362 -2365 0
-2373 2366 2374 0
-2370 2366 2374 0
-2370 -2373 2374 0
-2374 2364 0
-2371 2364 0
-2374 -2371 2365 0
-2372 2365 0
-2374 -2372 0
-2368 2364 0
-2374 -2368 2365 0
-2369 2365 0
-2374 -2369 0
-2368 -2371 2365 0
-2374 -2368 -2371 0
-2368 -2372 0
-2374 -2368 -2372 0
-2369 -2371 0
-2374 -2369 -2371 0
-2369 -2372 0
-2374 -2369 -2372 0
-2378 2373 2379 0
-2376 2373 2379 0
-2376 -2378 2379 0
-2379 2371 0
-2377 2371 0
-2379 -2377 2372 0
-2375 2371 0
-2379 -2375 2372 0
-2375 -2377 2372 0
-2379 -2375 -2377 0
-269 2378 2380 0
-268 2378 2380 0
-268 -269 2380 0
-2380 2377 0
-267 2376 2383 0
-2382 2376 2383 0
-2382 -267 2383 0
-2383 2375 0
-2381 2375 0
-2383 -2381 0
-266 2382 2384 0
-265 2382 2384 0
-265 -266 2384 0
-2384 2381 0
-2388 2370 2389 0
-2386 2370 2389 0
-2386 -2388 2389 0
-2389 2368 0
-2387 2368 0
-2389 -2387 2369 0
-2385 2368 0
-2389 -2385 2369 0
-2385 -2387 2369 0
-2389 -2385 -2387 0
-264 2388 2390 0
-263 2388 2390 0
-263 -264 2390 0
-2390 2387 0
-262 2386 2393 0
-2392 2386 2393 0
-2392 -262 2393 0
-2393 2385 0
-2391 2385 0
-2393 -2391 0
-261 2392 2394 0
-260 2392 2394 0
-260 -261 2394 0
-2394 2391 0
-2400 2363 2401 0
-2397 2363 2401 0
-2397 -2400 2401 0
-2401 2361 0
-2398 2361 0
-2401 -2398 2362 0
-2399 2362 0
-2401 -2399 0
-2395 2361 0
-2401 -2395 2362 0
-2396 2362 0
-2401 -2396 0
-2395 -2398 2362 0
-2401 -2395 -2398 0
-2395 -2399 0
-2401 -2395 -2399 0
-2396 -2398 0
-2401 -2396 -2398 0
-2396 -2399 0
-2401 -2396 -2399 0
-2405 2400 2406 0
-2403 2400 2406 0
-2403 -2405 2406 0
-2406 2398 0
-2404 2398 0
-2406 -2404 2399 0
-2402 2398 0
-2406 -2402 2399 0
-2402 -2404 2399 0
-2406 -2402 -2404 0
-259 2405 2407 0
-258 2405 2407 0
-258 -259 2407 0
-2407 2404 0
-257 2403 2410 0
-2409 2403 2410 0
-2409 -257 2410 0
-2410 2402 0
-2408 2402 0
-2410 -2408 0
-256 2409 2411 0
-255 2409 2411 0
-255 -256 2411 0
-2411 2408 0
-2415 2397 2416 0
-2413 2397 2416 0
-2413 -2415 2416 0
-2416 2395 0
-2414 2395 0
-2416 -2414 2396 0
-2412 2395 0
-2416 -2412 2396 0
-2412 -2414 2396 0
-2416 -2412 -2414 0
-254 2415 2419 0
-2418 2415 2419 0
-2418 -254 2419 0
-2419 2414 0
-2417 2414 0
-2419 -2417 0
-253 2418 2420 0
-252 2418 2420 0
-252 -253 2420 0
-2420 2417 0
-251 2413 2423 0
-2422 2413 2423 0
-2422 -251 2423 0
-2423 2412 0
-2421 2412 0
-2423 -2421 0
-250 2422 2424 0
-249 2422 2424 0
-249 -250 2424 0
-2424 2421 0
-2430 2149 2431 0
-2427 2149 2431 0
-2427 -2430 2431 0
-2431 2147 0
-2428 2147 0
-2431 -2428 2148 0
-2429 2148 0
-2431 -2429 0
-2425 2147 0
-2431 -2425 2148 0
-2426 2148 0
-2431 -2426 0
-2425 -2428 2148 0
-2431 -2425 -2428 0
-2425 -2429 0
-2431 -2425 -2429 0
-2426 -2428 0
-2431 -2426 -2428 0
-2426 -2429 0
-2431 -2426 -2429 0
-2437 2430 2438 0
-2434 2430 2438 0
-2434 -2437 2438 0
-2438 2428 0
-2435 2428 0
-2438 -2435 2429 0
-2436 2429 0
-2438 -2436 0
-2432 2428 0
-2438 -2432 2429 0
-2433 2429 0
-2438 -2433 0
-2432 -2435 2429 0
-2438 -2432 -2435 0
-2432 -2436 0
-2438 -2432 -2436 0
-2433 -2435 0
-2438 -2433 -2435 0
-2433 -2436 0
-2438 -2433 -2436 0
-2444 2437 2445 0
-2441 2437 2445 0
-2441 -2444 2445 0
-2445 2435 0
-2442 2435 0
-2445 -2442 2436 0
-2443 2436 0
-2445 -2443 0
-2439 2435 0
-2445 -2439 2436 0
-2440 2436 0
-2445 -2440 0
-2439 -2442 2436 0
-2445 -2439 -2442 0
-2439 -2443 0
-2445 -2439 -2443 0
-2440 -2442 0
-2445 -2440 -2442 0
-2440 -2443 0
-2445 -2440 -2443 0
-2451 2444 2452 0
-2448 2444 2452 0
-2448 -2451 2452 0
-2452 2442 0
-2449 2442 0
-2452 -2449 2443 0
-2450 2443 0
-2452 -2450 0
-2446 2442 0
-2452 -2446 2443 0
-2447 2443 0
-2452 -2447 0
-2446 -2449 2443 0
-2452 -2446 -2449 0
-2446 -2450 0
-2452 -2446 -2450 0
-2447 -2449 0
-2452 -2447 -2449 0
-2447 -2450 0
-2452 -2447 -2450 0
-2456 2451 2457 0
-2454 2451 2457 0
-2454 -2456 2457 0
-2457 2449 0
-2455 2449 0
-2457 -2455 2450 0
-2453 2449 0
-2457 -2453 2450 0
-2453 -2455 2450 0
-2457 -2453 -2455 0
-248 2456 2458 0
-247 2456 2458 0
-247 -248 2458 0
-2458 2455 0
-246 2454 2461 0
-2460 2454 2461 0
-2460 -246 2461 0
-2461 2453 0
-2459 2453 0
-2461 -2459 0
-245 2460 2462 0
-244 2460 2462 0
-244 -245 2462 0
-2462 2459 0
-2466 2448 2467 0
-2464 2448 2467 0
-2464 -2466 2467 0
-2467 2446 0
-2465 2446 0
-2467 -2465 2447 0
-2463 2446 0
-2467 -2463 2447 0
-2463 -2465 2447 0
-2467 -2463 -2465 0
-243 2466 2468 0
-242 2466 2468 0
-242 -243 2468 0
-2468 2465 0
-241 2464 2471 0
-2470 2464 2471 0
-2470 -241 2471 0
-2471 2463 0
-2469 2463 0
-2471 -2469 0
-240 2470 2472 0
-239 2470 2472 0
-239 -240 2472 0
-2472 2469 0
-2478 2441 2479 0
-2475 2441 2479 0
-2475 -2478 2479 0
-2479 2439 0
-2476 2439 0
-2479 -2476 2440 0
-2477 2440 0
-2479 -2477 0
-2473 2439 0
-2479 -2473 2440 0
-2474 2440 0
-2479 -2474 0
-2473 -2476 2440 0
-2479 -2473 -2476 0
-2473 -2477 0
-2479 -2473 -2477 0
-2474 -2476 0
-2479 -2474 -2476 0
-2474 -2477 0
-2479 -2474 -2477 0
-2483 2478 2484 0
-2481 2478 2484 0
-2481 -2483 2484 0
-2484 2476 0
-2482 2476 0
-2484 -2482 2477 0
-2480 2476 0
-2484 -2480 2477 0
-2480 -2482 2477 0
-2484 -2480 -2482 0
-238 2483 2485 0
-237 2483 2485 0
-237 -238 2485 0
-2485 2482 0
-236 2481 2488 0
-2487 2481 2488 0
-2487 -236 2488 0
-2488 2480 0
-2486 2480 0
-2488 -2486 0
-235 2487 2489 0
-234 2487 2489 0
-234 -235 2489 0
-2489 2486 0
-2493 2475 2494 0
-2491 2475 2494 0
-2491 -2493 2494 0
-2494 2473 0
-2492 2473 0
-2494 -2492 2474 0
-2490 2473 0
-2494 -2490 2474 0
-2490 -2492 2474 0
-2494 -2490 -2492 0
-233 2493 2495 0
-232 2493 2495 0
-232 -233 2495 0
-2495 2492 0
-231 2491 2498 0
-2497 2491 2498 0
-2497 -231 2498 0
-2498 2490 0
-2496 2490 0
-2498 -2496 0
-230 2497 2499 0
-229 2497 2499 0
-229 -230 2499 0
-2499 2496 0
-2505 2434 2506 0
-2502 2434 2506 0
-2502 -2505 2506 0
-2506 2432 0
-2503 2432 0
-2506 -2503 2433 0
-2504 2433 0
-2506 -2504 0
-2500 2432 0
-2506 -2500 2433 0
-2501 2433 0
-2506 -2501 0
-2500 -2503 2433 0
-2506 -2500 -2503 0
-2500 -2504 0
-2506 -2500 -2504 0
-2501 -2503 0
-2506 -2501 -2503 0
-2501 -2504 0
-2506 -2501 -2504 0
-2512 2505 2513 0
-2509 2505 2513 0
-2509 -2512 2513 0
-2513 2503 0
-2510 2503 0
-2513 -2510 2504 0
-2511 2504 0
-2513 -2511 0
-2507 2503 0
-2513 -2507 2504 0
-2508 2504 0
-2513 -2508 0
-2507 -2510 2504 0
-2513 -2507 -2510 0
-2507 -2511 0
-2513 -2507 -2511 0
-2508 -2510 0
-2513 -2508 -2510 0
-2508 -2511 0
-2513 -2508 -2511 0
-2517 2512 2518 0
-2515 2512 2518 0
-2515 -2517 2518 0
-2518 2510 0
-2516 2510 0
-2518 -2516 2511 0
-2514 2510 0
-2518 -2514 2511 0
-2514 -2516 2511 0
-2518 -2514 -2516 0
-228 2517 2519 0
-227 2517 2519 0
-227 -228 2519 0
-2519 2516 0
-226 2515 2522 0
-2521 2515 2522 0
-2521 -226 2522 0
-2522 2514 0
-2520 2514 0
-2522 -2520 0
-225 2521 2523 0
-224 2521 2523 0
-224 -225 2523 0
-2523 2520 0
-2527 2509 2528 0
-2525 2509 2528 0
-2525 -2527 2528 0
-2528 2507 0
-2526 2507 0
-2528 -2526 2508 0
-2524 2507 0
-2528 -2524 2508 0
-2524 -2526 2508 0
-2528 -2524 -2526 0
-223 2527 2529 0
-222 2527 2529 0
-222 -223 2529 0
-2529 2526 0
-221 2525 2532 0
-2531 2525 2532 0
-2531 -221 2532 0
-2532 2524 0
-2530 2524 0
-2532 -2530 0
-220 2531 2533 0
-219 2531 2533 0
-219 -220 2533 0
-2533 2530 0
-2539 2502 2540 0
-2536 2502 2540 0
-2536 -2539 2540 0
-2540 2500 0
-2537 2500 0
-2540 -2537 2501 0
-2538 2501 0
-2540 -2538 0
-2534 2500 0
-2540 -2534 2501 0
-2535 2501 0
-2540 -2535 0
-2534 -2537 2501 0
-2540 -2534 -2537 0
-2534 -2538 0
-2540 -2534 -2538 0
-2535 -2537 0
-2540 -2535 -2537 0
-2535 -2538 0
-2540 -2535 -2538 0
-2544 2539 2545 0
-2542 2539 2545 0
-2542 -2544 2545 0
-2545 2537 0
-2543 2537 0
-2545 -2543 2538 0
-2541 2537 0
-2545 -2541 2538 0
-2541 -2543 2538 0
-2545 -2541 -2543 0
-218 2544 2546 0
-217 2544 2546 0
-217 -218 2546 0
-2546 2543 0
-216 2542 2549 0
-2548 2542 2549 0
-2548 -216 2549 0
-2549 2541 0
-2547 2541 0
-2549 -2547 0
-215 2548 2550 0
-214 2548 2550 0
-214 -215 2550 0
-2550 2547 0
-2554 2536 2555 0
-2552 2536 2555 0
-2552 -2554 2555 0
-2555 2534 0
-2553 2534 0
-2555 -2553 2535 0
-2551 2534 0
-2555 -2551 2535 0
-2551 -2553 2535 0
-2555 -2551 -2553 0
-213 2554 2558 0
-2557 2554 2558 0
-2557 -213 2558 0
-2558 2553 0
-2556 2553 0
-2558 -2556 0
-212 2557 2559 0
-211 2557 2559 0
-211 -212 2559 0
-2559 2556 0
-210 2552 2562 0
-2561 2552 2562 0
-2561 -210 2562 0
-2562 2551 0
-2560 2551 0
-2562 -2560 0
-209 2561 2563 0
-208 2561 2563 0
-208 -209 2563 0
-2563 2560 0
-2569 2427 2570 0
-2566 2427 2570 0
-2566 -2569 2570 0
-2570 2425 0
-2567 2425 0
-2570 -2567 2426 0
-2568 2426 0
-2570 -2568 0
-2564 2425 0
-2570 -2564 2426 0
-2565 2426 0
-2570 -2565 0
-2564 -2567 2426 0
-2570 -2564 -2567 0
-2564 -2568 0
-2570 -2564 -2568 0
-2565 -2567 0
-2570 -2565 -2567 0
-2565 -2568 0
-2570 -2565 -2568 0
-2576 2569 2577 0
-2573 2569 2577 0
-2573 -2576 2577 0
-2577 2567 0
-2574 2567 0
-2577 -2574 2568 0
-2575 2568 0
-2577 -2575 0
-2571 2567 0
-2577 -2571 2568 0
-2572 2568 0
-2577 -2572 0
-2571 -2574 2568 0
-2577 -2571 -2574 0
-2571 -2575 0
-2577 -2571 -2575 0
-2572 -2574 0
-2577 -2572 -2574 0
-2572 -2575 0
-2577 -2572 -2575 0
-2583 2576 2584 0
-2580 2576 2584 0
-2580 -2583 2584 0
-2584 2574 0
-2581 2574 0
-2584 -2581 2575 0
-2582 2575 0
-2584 -2582 0
-2578 2574 0
-2584 -2578 2575 0
-2579 2575 0
-2584 -2579 0
-2578 -2581 2575 0
-2584 -2578 -2581 0
-2578 -2582 0
-2584 -2578 -2582 0
-2579 -2581 0
-2584 -2579 -2581 0
-2579 -2582 0
-2584 -2579 -2582 0
-2588 2583 2589 0
-2586 2583 2589 0
-2586 -2588 2589 0
-2589 2581 0
-2587 2581 0
-2589 -2587 2582 0
-2585 2581 0
-2589 -2585 2582 0
-2585 -2587 2582 0
-2589 -2585 -2587 0
-207 2588 2590 0
-206 2588 2590 0
-206 -207 2590 0
-2590 2587 0
-205 2586 2593 0
-2592 2586 2593 0
-2592 -205 2593 0
-2593 2585 0
-2591 2585 0
-2593 -2591 0
-204 2592 2594 0
-203 2592 2594 0
-203 -204 2594 0
-2594 2591 0
-2598 2580 2599 0
-2596 2580 2599 0
-2596 -2598 2599 0
-2599 2578 0
-2597 2578 0
-2599 -2597 2579 0
-2595 2578 0
-2599 -2595 2579 0
-2595 -2597 2579 0
-2599 -2595 -2597 0
-202 2598 2600 0
-201 2598 2600 0
-201 -202 2600 0
-2600 2597 0
-200 2596 2603 0
-2602 2596 2603 0
-2602 -200 2603 0
-2603 2595 0
-2601 2595 0
-2603 -2601 0
-199 2602 2604 0
-198 2602 2604 0
-198 -199 2604 0
-2604 2601 0
-2610 2573 2611 0
-2607 2573 2611 0
-2607 -2610 2611 0
-2611 2571 0
-2608 2571 0
-2611 -2608 2572 0
-2609 2572 0
-2611 -2609 0
-2605 2571 0
-2611 -2605 2572 0
-2606 2572 0
-2611 -2606 0
-2605 -2608 2572 0
-2611 -2605 -2608 0
-2605 -2609 0
-2611 -2605 -2609 0
-2606 -2608 0
-2611 -2606 -2608 0
-2606 -2609 0
-2611 -2606 -2609 0
-2615 2610 2616 0
-2613 2610 2616 0
-2613 -2615 2616 0
-2616 2608 0
-2614 2608 0
-2616 -2614 2609 0
-2612 2608 0
-2616 -2612 2609 0
-2612 -2614 2609 0
-2616 -2612 -2614 0
-197 2615 2617 0
-196 2615 2617 0
-196 -197 2617 0
-2617 2614 0
-195 2613 2620 0
-2619 2613 2620 0
-2619 -195 2620 0
-2620 2612 0
-2618 2612 0
-2620 -2618 0
-194 2619 2621 0
-193 2619 2621 0
-193 -194 2621 0
-2621 2618 0
-2625 2607 2626 0
-2623 2607 2626 0
-2623 -2625 2626 0
-2626 2605 0
-2624 2605 0
-2626 -2624 2606 0
-2622 2605 0
-2626 -2622 2606 0
-2622 -2624 2606 0
-2626 -2622 -2624 0
-192 2625 2629 0
-2628 2625 2629 0
-2628 -192 2629 0
-2629 2624 0
-2627 2624 0
-2629 -2627 0
-191 2628 2630 0
-190 2628 2630 0
-190 -191 2630 0
-2630 2627 0
-189 2623 2633 0
-2632 2623 2633 0
-2632 -189 2633 0
-2633 2622 0
-2631 2622 0
-2633 -2631 0
-188 2632 2634 0
-187 2632 2634 0
-187 -188 2634 0
-2634 2631 0
-2640 2566 2641 0
-2637 2566 2641 0
-2637 -2640 2641 0
-2641 2564 0
-2638 2564 0
-2641 -2638 2565 0
-2639 2565 0
-2641 -2639 0
-2635 2564 0
-2641 -2635 2565 0
-2636 2565 0
-2641 -2636 0
-2635 -2638 2565 0
-2641 -2635 -2638 0
-2635 -2639 0
-2641 -2635 -2639 0
-2636 -2638 0
-2641 -2636 -2638 0
-2636 -2639 0
-2641 -2636 -2639 0
-2647 2640 2648 0
-2644 2640 2648 0
-2644 -2647 2648 0
-2648 2638 0
-2645 2638 0
-2648 -2645 2639 0
-2646 2639 0
-2648 -2646 0
-2642 2638 0
-2648 -2642 2639 0
-2643 2639 0
-2648 -2643 0
-2642 -2645 2639 0
-2648 -2642 -2645 0
-2642 -2646 0
-2648 -2642 -2646 0
-2643 -2645 0
-2648 -2643 -2645 0
-2643 -2646 0
-2648 -2643 -2646 0
-2652 2647 2653 0
-2650 2647 2653 0
-2650 -2652 2653 0
-2653 2645 0
-2651 2645 0
-2653 -2651 2646 0
-2649 2645 0
-2653 -2649 2646 0
-2649 -2651 2646 0
-2653 -2649 -2651 0
-186 2652 2654 0
-185 2652 2654 0
-185 -186 2654 0
-2654 2651 0
-184 2650 2657 0
-2656 2650 2657 0
-2656 -184 2657 0
-2657 2649 0
-2655 2649 0
-2657 -2655 0
-183 2656 2658 0
-182 2656 2658 0
-182 -183 2658 0
-2658 2655 0
-2662 2644 2663 0
-2660 2644 2663 0
-2660 -2662 2663 0
-2663 2642 0
-2661 2642 0
-2663 -2661 2643 0
-2659 2642 0
-2663 -2659 2643 0
-2659 -2661 2643 0
-2663 -2659 -2661 0
-181 2662 2664 0
-180 2662 2664 0
-180 -181 2664 0
-2664 2661 0
-179 2660 2667 0
-2666 2660 2667 0
-2666 -179 2667 0
-2667 2659 0
-2665 2659 0
-2667 -2665 0
-178 2666 2668 0
-177 2666 2668 0
-177 -178 2668 0
-2668 2665 0
-2674 2637 2675 0
-2671 2637 2675 0
-2671 -2674 2675 0
-2675 2635 0
-2672 2635 0
-2675 -2672 2636 0
-2673 2636 0
-2675 -2673 0
-2669 2635 0
-2675 -2669 2636 0
-2670 2636 0
-2675 -2670 0
-2669 -2672 2636 0
-2675 -2669 -2672 0
-2669 -2673 0
-2675 -2669 -2673 0
-2670 -2672 0
-2675 -2670 -2672 0
-2670 -2673 0
-2675 -2670 -2673 0
-2679 2674 2680 0
-2677 2674 2680 0
-2677 -2679 2680 0
-2680 2672 0
-2678 2672 0
-2680 -2678 2673 0
-2676 2672 0
-2680 -2676 2673 0
-2676 -2678 2673 0
-2680 -2676 -2678 0
-176 2679 2681 0
-175 2679 2681 0
-175 -176 2681 0
-2681 2678 0
-174 2677 2684 0
-2683 2677 2684 0
-2683 -174 2684 0
-2684 2676 0
-2682 2676 0
-2684 -2682 0
-173 2683 2685 0
-172 2683 2685 0
-172 -173 2685 0
-2685 2682 0
-2689 2671 2690 0
-2687 2671 2690 0
-2687 -2689 2690 0
-2690 2669 0
-2688 2669 0
-2690 -2688 2670 0
-2686 2669 0
-2690 -2686 2670 0
-2686 -2688 2670 0
-2690 -2686 -2688 0
-171 2689 2693 0
-2692 2689 2693 0
-2692 -171 2693 0
-2693 2688 0
-2691 2688 0
-2693 -2691 0
-170 2692 2694 0
-169 2692 2694 0
-169 -170 2694 0
-2694 2691 0
-168 2687 2697 0
-2696 2687 2697 0
-2696 -168 2697 0
-2697 2686 0
-2695 2686 0
-2697 -2695 0
-167 2696 2698 0
-166 2696 2698 0
-166 -167 2698 0
-2698 2695 0
-2704 2142 2705 0
-2701 2142 2705 0
-2701 -2704 2705 0
-2705 2140 0
-2702 2140 0
-2705 -2702 2141 0
-2703 2141 0
-2705 -2703 0
-2699 2140 0
-2705 -2699 2141 0
-2700 2141 0
-2705 -2700 0
-2699 -2702 2141 0
-2705 -2699 -2702 0
-2699 -2703 0
-2705 -2699 -2703 0
-2700 -2702 0
-2705 -2700 -2702 0
-2700 -2703 0
-2705 -2700 -2703 0
-2711 2704 2712 0
-2708 2704 2712 0
-2708 -2711 2712 0
-2712 2702 0
-2709 2702 0
-2712 -2709 2703 0
-2710 2703 0
-2712 -2710 0
-2706 2702 0
-2712 -2706 2703 0
-2707 2703 0
-2712 -2707 0
-2706 -2709 2703 0
-2712 -2706 -2709 0
-2706 -2710 0
-2712 -2706 -2710 0
-2707 -2709 0
-2712 -2707 -2709 0
-2707 -2710 0
-2712 -2707 -2710 0
-2718 2711 2719 0
-2715 2711 2719 0
-2715 -2718 2719 0
-2719 2709 0
-2716 2709 0
-2719 -2716 2710 0
-2717 2710 0
-2719 -2717 0
-2713 2709 0
-2719 -2713 2710 0
-2714 2710 0
-2719 -2714 0
-2713 -2716 2710 0
-2719 -2713 -2716 0
-2713 -2717 0
-2719 -2713 -2717 0
-2714 -2716 0
-2719 -2714 -2716 0
-2714 -2717 0
-2719 -2714 -2717 0
-2725 2718 2726 0
-2722 2718 2726 0
-2722 -2725 2726 0
-2726 2716 0
-2723 2716 0
-2726 -2723 2717 0
-2724 2717 0
-2726 -2724 0
-2720 2716 0
-2726 -2720 2717 0
-2721 2717 0
-2726 -2721 0
-2720 -2723 2717 0
-2726 -2720 -2723 0
-2720 -2724 0
-2726 -2720 -2724 0
-2721 -2723 0
-2726 -2721 -2723 0
-2721 -2724 0
-2726 -2721 -2724 0
-2732 2725 2733 0
-2729 2725 2733 0
-2729 -2732 2733 0
-2733 2723 0
-2730 2723 0
-2733 -2730 2724 0
-2731 2724 0
-2733 -2731 0
-2727 2723 0
-2733 -2727 2724 0
-2728 2724 0
-2733 -2728 0
-2727 -2730 2724 0
-2733 -2727 -2730 0
-2727 -2731 0
-2733 -2727 -2731 0
-2728 -2730 0
-2733 -2728 -2730 0
-2728 -2731 0
-2733 -2728 -2731 0
-2737 2732 2738 0
-2735 2732 2738 0
-2735 -2737 2738 0
-2738 2730 0
-2736 2730 0
-2738 -2736 2731 0
-2734 2730 0
-2738 -2734 2731 0
-2734 -2736 2731 0
-2738 -2734 -2736 0
-165 2737 2739 0
-164 2737 2739 0
-164 -165 2739 0
-2739 2736 0
-163 2735 2742 0
-2741 2735 2742 0
-2741 -163 2742 0
-2742 2734 0
-2740 2734 0
-2742 -2740 0
-162 2741 2743 0
-161 2741 2743 0
-161 -162 2743 0
-2743 2740 0
-2747 2729 2748 0
-2745 2729 2748 0
-2745 -2747 2748 0
-2748 2727 0
-2746 2727 0
-2748 -2746 2728 0
-2744 2727 0
-2748 -2744 2728 0
-2744 -2746 2728 0
-2748 -2744 -2746 0
-160 2747 2749 0
-159 2747 2749 0
-159 -160 2749 0
-2749 2746 0
-158 2745 2752 0
-2751 2745 2752 0
-2751 -158 2752 0
-2752 2744 0
-2750 2744 0
-2752 -2750 0
-157 2751 2753 0
-156 2751 2753 0
-156 -157 2753 0
-2753 2750 0
-2759 2722 2760 0
-2756 2722 2760 0
-2756 -2759 2760 0
-2760 2720 0
-2757 2720 0
-2760 -2757 2721 0
-2758 2721 0
-2760 -2758 0
-2754 2720 0
-2760 -2754 2721 0
-2755 2721 0
-2760 -2755 0
-2754 -2757 2721 0
-2760 -2754 -2757 0
-2754 -2758 0
-2760 -2754 -2758 0
-2755 -2757 0
-2760 -2755 -2757 0
-2755 -2758 0
-2760 -2755 -2758 0
-2764 2759 2765 0
-2762 2759 2765 0
-2762 -2764 2765 0
-2765 2757 0
-2763 2757 0
-2765 -2763 2758 0
-2761 2757 0
-2765 -2761 2758 0
-2761 -2763 2758 0
-2765 -2761 -2763 0
-155 2764 2766 0
-154 2764 2766 0
-154 -155 2766 0
-2766 2763 0
-153 2762 2769 0
-2768 2762 2769 0
-2768 -153 2769 0
-2769 2761 0
-2767 2761 0
-2769 -2767 0
-152 2768 2770 0
-151 2768 2770 0
-151 -152 2770 0
-2770 2767 0
-2774 2756 2775 0
-2772 2756 2775 0
-2772 -2774 2775 0
-2775 2754 0
-2773 2754 0
-2775 -2773 2755 0
-2771 2754 0
-2775 -2771 2755 0
-2771 -2773 2755 0
-2775 -2771 -2773 0
-150 2774 2776 0
-149 2774 2776 0
-149 -150 2776 0
-2776 2773 0
-148 2772 2779 0
-2778 2772 2779 0
-2778 -148 2779 0
-2779 2771 0
-2777 2771 0
-2779 -2777 0
-147 2778 2780 0
-146 2778 2780 0
-146 -147 2780 0
-2780 2777 0
-2786 2715 2787 0
-2783 2715 2787 0
-2783 -2786 2787 0
-2787 2713 0
-2784 2713 0
-2787 -2784 2714 0
-2785 2714 0
-2787 -2785 0
-2781 2713 0
-2787 -2781 2714 0
-2782 2714 0
-2787 -2782 0
-2781 -2784 2714 0
-2787 -2781 -2784 0
-2781 -2785 0
-2787 -2781 -2785 0
-2782 -2784 0
-2787 -2782 -2784 0
-2782 -2785 0
-2787 -2782 -2785 0
-2793 2786 2794 0
-2790 2786 2794 0
-2790 -2793 2794 0
-2794 2784 0
-2791 2784 0
-2794 -2791 2785 0
-2792 2785 0
-2794 -2792 0
-2788 2784 0
-2794 -2788 2785 0
-2789 2785 0
-2794 -2789 0
-2788 -2791 2785 0
-2794 -2788 -2791 0
-2788 -2792 0
-2794 -2788 -2792 0
-2789 -2791 0
-2794 -2789 -2791 0
-2789 -2792 0
-2794 -2789 -2792 0
-2798 2793 2799 0
-2796 2793 2799 0
-2796 -2798 2799 0
-2799 2791 0
-2797 2791 0
-2799 -2797 2792 0
-2795 2791 0
-2799 -2795 2792 0
-2795 -2797 2792 0
-2799 -2795 -2797 0
-145 2798 2800 0
-144 2798 2800 0
-144 -145 2800 0
-2800 2797 0
-143 2796 2803 0
-2802 2796 2803 0
-2802 -143 2803 0
-2803 2795 0
-2801 2795 0
-2803 -2801 0
-142 2802 2804 0
-141 2802 2804 0
-141 -142 2804 0
-2804 2801 0
-2808 2790 2809 0
-2806 2790 2809 0
-2806 -2808 2809 0
-2809 2788 0
-2807 2788 0
-2809 -2807 2789 0
-2805 2788 0
-2809 -2805 2789 0
-2805 -2807 2789 0
-2809 -2805 -2807 0
-140 2808 2810 0
-139 2808 2810 0
-139 -140 2810 0
-2810 2807 0
-138 2806 2813 0
-2812 2806 2813 0
-2812 -138 2813 0
-2813 2805 0
-2811 2805 0
-2813 -2811 0
-137 2812 2814 0
-136 2812 2814 0
-136 -137 2814 0
-2814 2811 0
-2820 2783 2821 0
-2817 2783 2821 0
-2817 -2820 2821 0
-2821 2781 0
-2818 2781 0
-2821 -2818 2782 0
-2819 2782 0
-2821 -2819 0
-2815 2781 0
-2821 -2815 2782 0
-2816 2782 0
-2821 -2816 0
-2815 -2818 2782 0
-2821 -2815 -2818 0
-2815 -2819 0
-2821 -2815 -2819 0
-2816 -2818 0
-2821 -2816 -2818 0
-2816 -2819 0
-2821 -2816 -2819 0
-2825 2820 2826 0
-2823 2820 2826 0
-2823 -2825 2826 0
-2826 2818 0
-2824 2818 0
-2826 -2824 2819 0
-2822 2818 0
-2826 -2822 2819 0
-2822 -2824 2819 0
-2826 -2822 -2824 0
-135 2825 2827 0
-134 2825 2827 0
-134 -135 2827 0
-2827 2824 0
-133 2823 2830 0
-2829 2823 2830 0
-2829 -133 2830 0
-2830 2822 0
-2828 2822 0
-2830 -2828 0
-132 2829 2831 0
-131 2829 2831 0
-131 -132 2831 0
-2831 2828 0
-2835 2817 2836 0
-2833 2817 2836 0
-2833 -2835 2836 0
-2836 2815 0
-2834 2815 0
-2836 -2834 2816 0
-2832 2815 0
-2836 -2832 2816 0
-2832 -2834 2816 0
-2836 -2832 -2834 0
-130 2835 2839 0
-2838 2835 2839 0
-2838 -130 2839 0
-2839 2834 0
-2837 2834 0
-2839 -2837 0
-129 2838 2840 0
-128 2838 2840 0
-128 -129 2840 0
-2840 2837 0
-127 2833 2843 0
-2842 2833 2843 0
-2842 -127 2843 0
-2843 2832 0
-2841 2832 0
-2843 -2841 0
-126 2842 2844 0
-125 2842 2844 0
-125 -126 2844 0
-2844 2841 0
-2850 2708 2851 0
-2847 2708 2851 0
-2847 -2850 2851 0
-2851 2706 0
-2848 2706 0
-2851 -2848 2707 0
-2849 2707 0
-2851 -2849 0
-2845 2706 0
-2851 -2845 2707 0
-2846 2707 0
-2851 -2846 0
-2845 -2848 2707 0
-2851 -2845 -2848 0
-2845 -2849 0
-2851 -2845 -2849 0
-2846 -2848 0
-2851 -2846 -2848 0
-2846 -2849 0
-2851 -2846 -2849 0
-2857 2850 2858 0
-2854 2850 2858 0
-2854 -2857 2858 0
-2858 2848 0
-2855 2848 0
-2858 -2855 2849 0
-2856 2849 0
-2858 -2856 0
-2852 2848 0
-2858 -2852 2849 0
-2853 2849 0
-2858 -2853 0
-2852 -2855 2849 0
-2858 -2852 -2855 0
-2852 -2856 0
-2858 -2852 -2856 0
-2853 -2855 0
-2858 -2853 -2855 0
-2853 -2856 0
-2858 -2853 -2856 0
-2864 2857 2865 0
-2861 2857 2865 0
-2861 -2864 2865 0
-2865 2855 0
-2862 2855 0
-2865 -2862 2856 0
-2863 2856 0
-2865 -2863 0
-2859 2855 0
-2865 -2859 2856 0
-2860 2856 0
-2865 -2860 0
-2859 -2862 2856 0
-2865 -2859 -2862 0
-2859 -2863 0
-2865 -2859 -2863 0
-2860 -2862 0
-2865 -2860 -2862 0
-2860 -2863 0
-2865 -2860 -2863 0
-2869 2864 2870 0
-2867 2864 2870 0
-2867 -2869 2870 0
-2870 2862 0
-2868 2862 0
-2870 -2868 2863 0
-2866 2862 0
-2870 -2866 2863 0
-2866 -2868 2863 0
-2870 -2866 -2868 0
-124 2869 2871 0
-123 2869 2871 0
-123 -124 2871 0
-2871 2868 0
-122 2867 2874 0
-2873 2867 2874 0
-2873 -122 2874 0
-2874 2866 0
-2872 2866 0
-2874 -2872 0
-121 2873 2875 0
-120 2873 2875 0
-120 -121 2875 0
-2875 2872 0
-2879 2861 2880 0
-2877 2861 2880 0
-2877 -2879 2880 0
-2880 2859 0
-2878 2859 0
-2880 -2878 2860 0
-2876 2859 0
-2880 -2876 2860 0
-2876 -2878 2860 0
-2880 -2876 -2878 0
-119 2879 2881 0
-118 2879 2881 0
-118 -119 2881 0
-2881 2878 0
-117 2877 2884 0
-2883 2877 2884 0
-2883 -117 2884 0
-2884 2876 0
-2882 2876 0
-2884 -2882 0
-116 2883 2885 0
-115 2883 2885 0
-115 -116 2885 0
-2885 2882 0
-2891 2854 2892 0
-2888 2854 2892 0
-2888 -2891 2892 0
-2892 2852 0
-2889 2852 0
-2892 -2889 2853 0
-2890 2853 0
-2892 -2890 0
-2886 2852 0
-2892 -2886 2853 0
-2887 2853 0
-2892 -2887 0
-2886 -2889 2853 0
-2892 -2886 -2889 0
-2886 -2890 0
-2892 -2886 -2890 0
-2887 -2889 0
-2892 -2887 -2889 0
-2887 -2890 0
-2892 -2887 -2890 0
-2896 2891 2897 0
-2894 2891 2897 0
-2894 -2896 2897 0
-2897 2889 0
-2895 2889 0
-2897 -2895 2890 0
-2893 2889 0
-2897 -2893 2890 0
-2893 -2895 2890 0
-2897 -2893 -2895 0
-114 2896 2898 0
-113 2896 2898 0
-113 -114 2898 0
-2898 2895 0
-112 2894 2901 0
-2900 2894 2901 0
-2900 -112 2901 0
-2901 2893 0
-2899 2893 0
-2901 -2899 0
-111 2900 2902 0
-110 2900 2902 0
-110 -111 2902 0
-2902 2899 0
-2906 2888 2907 0
-2904 2888 2907 0
-2904 -2906 2907 0
-2907 2886 0
-2905 2886 0
-2907 -2905 2887 0
-2903 2886 0
-2907 -2903 2887 0
-2903 -2905 2887 0
-2907 -2903 -2905 0
-109 2906 2908 0
-108 2906 2908 0
-108 -109 2908 0
-2908 2905 0
-107 2904 2911 0
-2910 2904 2911 0
-2910 -107 2911 0
-2911 2903 0
-2909 2903 0
-2911 -2909 0
-106 2910 2912 0
-105 2910 2912 0
-105 -106 2912 0
-2912 2909 0
-2918 2847 2919 0
-2915 2847 2919 0
-2915 -2918 2919 0
-2919 2845 0
-2916 2845 0
-2919 -2916 2846 0
-2917 2846 0
-2919 -2917 0
-2913 2845 0
-2919 -2913 2846 0
-2914 2846 0
-2919 -2914 0
-2913 -2916 2846 0
-2919 -2913 -2916 0
-2913 -2917 0
-2919 -2913 -2917 0
-2914 -2916 0
-2919 -2914 -2916 0
-2914 -2917 0
-2919 -2914 -2917 0
-2925 2918 2926 0
-2922 2918 2926 0
-2922 -2925 2926 0
-2926 2916 0
-2923 2916 0
-2926 -2923 2917 0
-2924 2917 0
-2926 -2924 0
-2920 2916 0
-2926 -2920 2917 0
-2921 2917 0
-2926 -2921 0
-2920 -2923 2917 0
-2926 -2920 -2923 0
-2920 -2924 0
-2926 -2920 -2924 0
-2921 -2923 0
-2926 -2921 -2923 0
-2921 -2924 0
-2926 -2921 -2924 0
-2930 2925 2931 0
-2928 2925 2931 0
-2928 -2930 2931 0
-2931 2923 0
-2929 2923 0
-2931 -2929 2924 0
-2927 2923 0
-2931 -2927 2924 0
-2927 -2929 2924 0
-2931 -2927 -2929 0
-104 2930 2932 0
-103 2930 2932 0
-103 -104 2932 0
-2932 2929 0
-102 2928 2935 0
-2934 2928 2935 0
-2934 -102 2935 0
-2935 2927 0
-2933 2927 0
-2935 -2933 0
-101 2934 2936 0
-100 2934 2936 0
-100 -101 2936 0
-2936 2933 0
-2940 2922 2941 0
-2938 2922 2941 0
-2938 -2940 2941 0
-2941 2920 0
-2939 2920 0
-2941 -2939 2921 0
-2937 2920 0
-2941 -2937 2921 0
-2937 -2939 2921 0
-2941 -2937 -2939 0
-99 2940 2942 0
-98 2940 2942 0
-98 -99 2942 0
-2942 2939 0
-97 2938 2945 0
-2944 2938 2945 0
-2944 -97 2945 0
-2945 2937 0
-2943 2937 0
-2945 -2943 0
-96 2944 2946 0
-95 2944 2946 0
-95 -96 2946 0
-2946 2943 0
-2952 2915 2953 0
-2949 2915 2953 0
-2949 -2952 2953 0
-2953 2913 0
-2950 2913 0
-2953 -2950 2914 0
-2951 2914 0
-2953 -2951 0
-2947 2913 0
-2953 -2947 2914 0
-2948 2914 0
-2953 -2948 0
-2947 -2950 2914 0
-2953 -2947 -2950 0
-2947 -2951 0
-2953 -2947 -2951 0
-2948 -2950 0
-2953 -2948 -2950 0
-2948 -2951 0
-2953 -2948 -2951 0
-2957 2952 2958 0
-2955 2952 2958 0
-2955 -2957 2958 0
-2958 2950 0
-2956 2950 0
-2958 -2956 2951 0
-2954 2950 0
-2958 -2954 2951 0
-2954 -2956 2951 0
-2958 -2954 -2956 0
-94 2957 2959 0
-93 2957 2959 0
-93 -94 2959 0
-2959 2956 0
-92 2955 2962 0
-2961 2955 2962 0
-2961 -92 2962 0
-2962 2954 0
-2960 2954 0
-2962 -2960 0
-91 2961 2963 0
-90 2961 2963 0
-90 -91 2963 0
-2963 2960 0
-2967 2949 2968 0
-2965 2949 2968 0
-2965 -2967 2968 0
-2968 2947 0
-2966 2947 0
-2968 -2966 2948 0
-2964 2947 0
-2968 -2964 2948 0
-2964 -2966 2948 0
-2968 -2964 -2966 0
-89 2967 2971 0
-2970 2967 2971 0
-2970 -89 2971 0
-2971 2966 0
-2969 2966 0
-2971 -2969 0
-88 2970 2972 0
-87 2970 2972 0
-87 -88 2972 0
-2972 2969 0
-86 2965 2975 0
-2974 2965 2975 0
-2974 -86 2975 0
-2975 2964 0
-2973 2964 0
-2975 -2973 0
-85 2974 2976 0
-84 2974 2976 0
-84 -85 2976 0
-2976 2973 0
-2982 2701 2983 0
-2979 2701 2983 0
-2979 -2982 2983 0
-2983 2699 0
-2980 2699 0
-2983 -2980 2700 0
-2981 2700 0
-2983 -2981 0
-2977 2699 0
-2983 -2977 2700 0
-2978 2700 0
-2983 -2978 0
-2977 -2980 2700 0
-2983 -2977 -2980 0
-2977 -2981 0
-2983 -2977 -2981 0
-2978 -2980 0
-2983 -2978 -2980 0
-2978 -2981 0
-2983 -2978 -2981 0
-2989 2982 2990 0
-2986 2982 2990 0
-2986 -2989 2990 0
-2990 2980 0
-2987 2980 0
-2990 -2987 2981 0
-2988 2981 0
-2990 -2988 0
-2984 2980 0
-2990 -2984 2981 0
-2985 2981 0
-2990 -2985 0
-2984 -2987 2981 0
-2990 -2984 -2987 0
-2984 -2988 0
-2990 -2984 -2988 0
-2985 -2987 0
-2990 -2985 -2987 0
-2985 -2988 0
-2990 -2985 -2988 0
-2996 2989 2997 0
-2993 2989 2997 0
-2993 -2996 2997 0
-2997 2987 0
-2994 2987 0
-2997 -2994 2988 0
-2995 2988 0
-2997 -2995 0
-2991 2987 0
-2997 -2991 2988 0
-2992 2988 0
-2997 -2992 0
-2991 -2994 2988 0
-2997 -2991 -2994 0
-2991 -2995 0
-2997 -2991 -2995 0
-2992 -2994 0
-2997 -2992 -2994 0
-2992 -2995 0
-2997 -2992 -2995 0
-3003 2996 3004 0
-3000 2996 3004 0
-3000 -3003 3004 0
-3004 2994 0
-3001 2994 0
-3004 -3001 2995 0
-3002 2995 0
-3004 -3002 0
-2998 2994 0
-3004 -2998 2995 0
-2999 2995 0
-3004 -2999 0
-2998 -3001 2995 0
-3004 -2998 -3001 0
-2998 -3002 0
-3004 -2998 -3002 0
-2999 -3001 0
-3004 -2999 -3001 0
-2999 -3002 0
-3004 -2999 -3002 0
-3008 3003 3009 0
-3006 3003 3009 0
-3006 -3008 3009 0
-3009 3001 0
-3007 3001 0
-3009 -3007 3002 0
-3005 3001 0
-3009 -3005 3002 0
-3005 -3007 3002 0
-3009 -3005 -3007 0
-83 3008 3010 0
-82 3008 3010 0
-82 -83 3010 0
-3010 3007 0
-81 3006 3013 0
-3012 3006 3013 0
-3012 -81 3013 0
-3013 3005 0
-3011 3005 0
-3013 -3011 0
-80 3012 3014 0
-79 3012 3014 0
-79 -80 3014 0
-3014 3011 0
-3018 3000 3019 0
-3016 3000 3019 0
-3016 -3018 3019 0
-3019 2998 0
-3017 2998 0
-3019 -3017 2999 0
-3015 2998 0
-3019 -3015 2999 0
-3015 -3017 2999 0
-3019 -3015 -3017 0
-78 3018 3020 0
-77 3018 3020 0
-77 -78 3020 0
-3020 3017 0
-76 3016 3023 0
-3022 3016 3023 0
-3022 -76 3023 0
-3023 3015 0
-3021 3015 0
-3023 -3021 0
-75 3022 3024 0
-74 3022 3024 0
-74 -75 3024 0
-3024 3021 0
-3030 2993 3031 0
-3027 2993 3031 0
-3027 -3030 3031 0
-3031 2991 0
-3028 2991 0
-3031 -3028 2992 0
-3029 2992 0
-3031 -3029 0
-3025 2991 0
-3031 -3025 2992 0
-3026 2992 0
-3031 -3026 0
-3025 -3028 2992 0
-3031 -3025 -3028 0
-3025 -3029 0
-3031 -3025 -3029 0
-3026 -3028 0
-3031 -3026 -3028 0
-3026 -3029 0
-3031 -3026 -3029 0
-3035 3030 3036 0
-3033 3030 3036 0
-3033 -3035 3036 0
-3036 3028 0
-3034 3028 0
-3036 -3034 3029 0
-3032 3028 0
-3036 -3032 3029 0
-3032 -3034 3029 0
-3036 -3032 -3034 0
-73 3035 3037 0
-72 3035 3037 0
-72 -73 3037 0
-3037 3034 0
-71 3033 3040 0
-3039 3033 3040 0
-3039 -71 3040 0
-3040 3032 0
-3038 3032 0
-3040 -3038 0
-70 3039 3041 0
-69 3039 3041 0
-69 -70 3041 0
-3041 3038 0
-3045 3027 3046 0
-3043 3027 3046 0
-3043 -3045 3046 0
-3046 3025 0
-3044 3025 0
-3046 -3044 3026 0
-3042 3025 0
-3046 -3042 3026 0
-3042 -3044 3026 0
-3046 -3042 -3044 0
-68 3045 3047 0
-67 3045 3047 0
-67 -68 3047 0
-3047 3044 0
-66 3043 3050 0
-3049 3043 3050 0
-3049 -66 3050 0
-3050 3042 0
-3048 3042 0
-3050 -3048 0
-65 3049 3051 0
-64 3049 3051 0
-64 -65 3051 0
-3051 3048 0
-3057 2986 3058 0
-3054 2986 3058 0
-3054 -3057 3058 0
-3058 2984 0
-3055 2984 0
-3058 -3055 2985 0
-3056 2985 0
-3058 -3056 0
-3052 2984 0
-3058 -3052 2985 0
-3053 2985 0
-3058 -3053 0
-3052 -3055 2985 0
-3058 -3052 -3055 0
-3052 -3056 0
-3058 -3052 -3056 0
-3053 -3055 0
-3058 -3053 -3055 0
-3053 -3056 0
-3058 -3053 -3056 0
-3064 3057 3065 0
-3061 3057 3065 0
-3061 -3064 3065 0
-3065 3055 0
-3062 3055 0
-3065 -3062 3056 0
-3063 3056 0
-3065 -3063 0
-3059 3055 0
-3065 -3059 3056 0
-3060 3056 0
-3065 -3060 0
-3059 -3062 3056 0
-3065 -3059 -3062 0
-3059 -3063 0
-3065 -3059 -3063 0
-3060 -3062 0
-3065 -3060 -3062 0
-3060 -3063 0
-3065 -3060 -3063 0
-3069 3064 3070 0
-3067 3064 3070 0
-3067 -3069 3070 0
-3070 3062 0
-3068 3062 0
-3070 -3068 3063 0
-3066 3062 0
-3070 -3066 3063 0
-3066 -3068 3063 0
-3070 -3066 -3068 0
-63 3069 3071 0
-62 3069 3071 0
-62 -63 3071 0
-3071 3068 0
-61 3067 3074 0
-3073 3067 3074 0
-3073 -61 3074 0
-3074 3066 0
-3072 3066 0
-3074 -3072 0
-60 3073 3075 0
-59 3073 3075 0
-59 -60 3075 0
-3075 3072 0
-3079 3061 3080 0
-3077 3061 3080 0
-3077 -3079 3080 0
-3080 3059 0
-3078 3059 0
-3080 -3078 3060 0
-3076 3059 0
-3080 -3076 3060 0
-3076 -3078 3060 0
-3080 -3076 -3078 0
-58 3079 3081 0
-57 3079 3081 0
-57 -58 3081 0
-3081 3078 0
-56 3077 3084 0
-3083 3077 3084 0
-3083 -56 3084 0
-3084 3076 0
-3082 3076 0
-3084 -3082 0
-55 3083 3085 0
-54 3083 3085 0
-54 -55 3085 0
-3085 3082 0
-3091 3054 3092 0
-3088 3054 3092 0
-3088 -3091 3092 0
-3092 3052 0
-3089 3052 0
-3092 -3089 3053 0
-3090 3053 0
-3092 -3090 0
-3086 3052 0
-3092 -3086 3053 0
-3087 3053 0
-3092 -3087 0
-3086 -3089 3053 0
-3092 -3086 -3089 0
-3086 -3090 0
-3092 -3086 -3090 0
-3087 -3089 0
-3092 -3087 -3089 0
-3087 -3090 0
-3092 -3087 -3090 0
-3096 3091 3097 0
-3094 3091 3097 0
-3094 -3096 3097 0
-3097 3089 0
-3095 3089 0
-3097 -3095 3090 0
-3093 3089 0
-3097 -3093 3090 0
-3093 -3095 3090 0
-3097 -3093 -3095 0
-53 3096 3098 0
-52 3096 3098 0
-52 -53 3098 0
-3098 3095 0
-51 3094 3101 0
-3100 3094 3101 0
-3100 -51 3101 0
-3101 3093 0
-3099 3093 0
-3101 -3099 0
-50 3100 3102 0
-49 3100 3102 0
-49 -50 3102 0
-3102 3099 0
-3106 3088 3107 0
-3104 3088 3107 0
-3104 -3106 3107 0
-3107 3086 0
-3105 3086 0
-3107 -3105 3087 0
-3103 3086 0
-3107 -3103 3087 0
-3103 -3105 3087 0
-3107 -3103 -3105 0
-48 3106 3110 0
-3109 3106 3110 0
-3109 -48 3110 0
-3110 3105 0
-3108 3105 0
-3110 -3108 0
-47 3109 3111 0
-46 3109 3111 0
-46 -47 3111 0
-3111 3108 0
-45 3104 3114 0
-3113 3104 3114 0
-3113 -45 3114 0
-3114 3103 0
-3112 3103 0
-3114 -3112 0
-44 3113 3115 0
-43 3113 3115 0
-43 -44 3115 0
-3115 3112 0
-3121 2979 3122 0
-3118 2979 3122 0
-3118 -3121 3122 0
-3122 2977 0
-3119 2977 0
-3122 -3119 2978 0
-3120 2978 0
-3122 -3120 0
-3116 2977 0
-3122 -3116 2978 0
-3117 2978 0
-3122 -3117 0
-3116 -3119 2978 0
-3122 -3116 -3119 0
-3116 -3120 0
-3122 -3116 -3120 0
-3117 -3119 0
-3122 -3117 -3119 0
-3117 -3120 0
-3122 -3117 -3120 0
-3128 3121 3129 0
-3125 3121 3129 0
-3125 -3128 3129 0
-3129 3119 0
-3126 3119 0
-3129 -3126 3120 0
-3127 3120 0
-3129 -3127 0
-3123 3119 0
-3129 -3123 3120 0
-3124 3120 0
-3129 -3124 0
-3123 -3126 3120 0
-3129 -3123 -3126 0
-3123 -3127 0
-3129 -3123 -3127 0
-3124 -3126 0
-3129 -3124 -3126 0
-3124 -3127 0
-3129 -3124 -3127 0
-3135 3128 3136 0
-3132 3128 3136 0
-3132 -3135 3136 0
-3136 3126 0
-3133 3126 0
-3136 -3133 3127 0
-3134 3127 0
-3136 -3134 0
-3130 3126 0
-3136 -3130 3127 0
-3131 3127 0
-3136 -3131 0
-3130 -3133 3127 0
-3136 -3130 -3133 0
-3130 -3134 0
-3136 -3130 -3134 0
-3131 -3133 0
-3136 -3131 -3133 0
-3131 -3134 0
-3136 -3131 -3134 0
-3140 3135 3141 0
-3138 3135 3141 0
-3138 -3140 3141 0
-3141 3133 0
-3139 3133 0
-3141 -3139 3134 0
-3137 3133 0
-3141 -3137 3134 0
-3137 -3139 3134 0
-3141 -3137 -3139 0
-42 3140 3142 0
-41 3140 3142 0
-41 -42 3142 0
-3142 3139 0
-40 3138 3145 0
-3144 3138 3145 0
-3144 -40 3145 0
-3145 3137 0
-3143 3137 0
-3145 -3143 0
-39 3144 3146 0
-38 3144 3146 0
-38 -39 3146 0
-3146 3143 0
-3150 3132 3151 0
-3148 3132 3151 0
-3148 -3150 3151 0
-3151 3130 0
-3149 3130 0
-3151 -3149 3131 0
-3147 3130 0
-3151 -3147 3131 0
-3147 -3149 3131 0
-3151 -3147 -3149 0
-37 3150 3152 0
-36 3150 3152 0
-36 -37 3152 0
-3152 3149 0
-35 3148 3155 0
-3154 3148 3155 0
-3154 -35 3155 0
-3155 3147 0
-3153 3147 0
-3155 -3153 0
-34 3154 3156 0
-33 3154 3156 0
-33 -34 3156 0
-3156 3153 0
-3162 3125 3163 0
-3159 3125 3163 0
-3159 -3162 3163 0
-3163 3123 0
-3160 3123 0
-3163 -3160 3124 0
-3161 3124 0
-3163 -3161 0
-3157 3123 0
-3163 -3157 3124 0
-3158 3124 0
-3163 -3158 0
-3157 -3160 3124 0
-3163 -3157 -3160 0
-3157 -3161 0
-3163 -3157 -3161 0
-3158 -3160 0
-3163 -3158 -3160 0
-3158 -3161 0
-3163 -3158 -3161 0
-3167 3162 3168 0
-3165 3162 3168 0
-3165 -3167 3168 0
-3168 3160 0
-3166 3160 0
-3168 -3166 3161 0
-3164 3160 0
-3168 -3164 3161 0
-3164 -3166 3161 0
-3168 -3164 -3166 0
-32 3167 3169 0
-31 3167 3169 0
-31 -32 3169 0
-3169 3166 0
-30 3165 3172 0
-3171 3165 3172 0
-3171 -30 3172 0
-3172 3164 0
-3170 3164 0
-3172 -3170 0
-29 3171 3173 0
-28 3171 3173 0
-28 -29 3173 0
-3173 3170 0
-3177 3159 3178 0
-3175 3159 3178 0
-3175 -3177 3178 0
-3178 3157 0
-3176 3157 0
-3178 -3176 3158 0
-3174 3157 0
-3178 -3174 3158 0
-3174 -3176 3158 0
-3178 -3174 -3176 0
-27 3177 3181 0
-3180 3177 3181 0
-3180 -27 3181 0
-3181 3176 0
-3179 3176 0
-3181 -3179 0
-26 3180 3182 0
-25 3180 3182 0
-25 -26 3182 0
-3182 3179 0
-24 3175 3185 0
-3184 3175 3185 0
-3184 -24 3185 0
-3185 3174 0
-3183 3174 0
-3185 -3183 0
-23 3184 3186 0
-22 3184 3186 0
-22 -23 3186 0
-3186 3183 0
-3192 3118 3193 0
-3189 3118 3193 0
-3189 -3192 3193 0
-3193 3116 0
-3190 3116 0
-3193 -3190 3117 0
-3191 3117 0
-3193 -3191 0
-3187 3116 0
-3193 -3187 3117 0
-3188 3117 0
-3193 -3188 0
-3187 -3190 3117 0
-3193 -3187 -3190 0
-3187 -3191 0
-3193 -3187 -3191 0
-3188 -3190 0
-3193 -3188 -3190 0
-3188 -3191 0
-3193 -3188 -3191 0
-3199 3192 3200 0
-3196 3192 3200 0
-3196 -3199 3200 0
-3200 3190 0
-3197 3190 0
-3200 -3197 3191 0
-3198 3191 0
-3200 -3198 0
-3194 3190 0
-3200 -3194 3191 0
-3195 3191 0
-3200 -3195 0
-3194 -3197 3191 0
-3200 -3194 -3197 0
-3194 -3198 0
-3200 -3194 -3198 0
-3195 -3197 0
-3200 -3195 -3197 0
-3195 -3198 0
-3200 -3195 -3198 0
-3204 3199 3205 0
-3202 3199 3205 0
-3202 -3204 3205 0
-3205 3197 0
-3203 3197 0
-3205 -3203 3198 0
-3201 3197 0
-3205 -3201 3198 0
-3201 -3203 3198 0
-3205 -3201 -3203 0
-21 3204 3206 0
-20 3204 3206 0
-20 -21 3206 0
-3206 3203 0
-19 3202 3209 0
-3208 3202 3209 0
-3208 -19 3209 0
-3209 3201 0
-3207 3201 0
-3209 -3207 0
-18 3208 3210 0
-17 3208 3210 0
-17 -18 3210 0
-3210 3207 0
-3214 3196 3215 0
-3212 3196 3215 0
-3212 -3214 3215 0
-3215 3194 0
-3213 3194 0
-3215 -3213 3195 0
-3211 3194 0
-3215 -3211 3195 0
-3211 -3213 3195 0
-3215 -3211 -3213 0
-16 3214 3216 0
-15 3214 3216 0
-15 -16 3216 0
-3216 3213 0
-14 3212 3219 0
-3218 3212 3219 0
-3218 -14 3219 0
-3219 3211 0
-3217 3211 0
-3219 -3217 0
-13 3218 3220 0
-12 3218 3220 0
-12 -13 3220 0
-3220 3217 0
-3226 3189 3227 0
-3223 3189 3227 0
-3223 -3226 3227 0
-3227 3187 0
-3224 3187 0
-3227 -3224 3188 0
-3225 3188 0
-3227 -3225 0
-3221 3187 0
-3227 -3221 3188 0
-3222 3188 0
-3227 -3222 0
-3221 -3224 3188 0
-3227 -3221 -3224 0
-3221 -3225 0
-3227 -3221 -3225 0
-3222 -3224 0
-3227 -3222 -3224 0
-3222 -3225 0
-3227 -3222 -3225 0
-3231 3226 3232 0
-3229 3226 3232 0
-3229 -3231 3232 0
-3232 3224 0
-3230 3224 0
-3232 -3230 3225 0
-3228 3224 0
-3232 -3228 3225 0
-3228 -3230 3225 0
-3232 -3228 -3230 0
-11 3231 3233 0
-10 3231 3233 0
-10 -11 3233 0
-3233 3230 0
-9 3229 3236 0
-3235 3229 3236 0
-3235 -9 3236 0
-3236 3228 0
-3234 3228 0
-3236 -3234 0
-8 3235 3237 0
-7 3235 3237 0
-7 -8 3237 0
-3237 3234 0
-3241 3223 3242 0
-3239 3223 3242 0
-3239 -3241 3242 0
-3242 3221 0
-3240 3221 0
-3242 -3240 3222 0
-3238 3221 0
-3242 -3238 3222 0
-3238 -3240 3222 0
-3242 -3238 -3240 0
-6 3241 3245 0
-3244 3241 3245 0
-3244 -6 3245 0
-3245 3240 0
-3243 3240 0
-3245 -3243 0
-5 3244 3246 0
-4 3244 3246 0
-4 -5 3246 0
-3246 3243 0
-3 3239 3249 0
-3248 3239 3249 0
-3248 -3 3249 0
-3249 3238 0
-3247 3238 0
-3249 -3247 0
-2 3248 3250 0
-1 3248 3250 0
-1 -2 3250 0
-3250 3247 0
