p cnf 799 2464
1 47 -97 0
-1 -47 -97 0
1 -47 97 0
-1 47 97 0
97 48 -98 0
-97 -48 -98 0
97 -48 98 0
-97 48 98 0
98 49 -99 0
-98 -49 -99 0
98 -49 99 0
-98 49 99 0
99 87 -100 0
-99 -87 -100 0
99 -87 100 0
-99 87 100 0
100 95 -101 0
-100 -95 -101 0
100 -95 101 0
-100 95 101 0
-101 0
1 2 -102 0
-1 -2 -102 0
1 -2 102 0
-1 2 102 0
102 48 -103 0
-102 -48 -103 0
102 -48 103 0
-102 48 103 0
103 50 -104 0
-103 -50 -104 0
103 -50 104 0
-103 50 104 0
104 88 -105 0
-104 -88 -105 0
104 -88 105 0
-104 88 105 0
105 96 -106 0
-105 -96 -106 0
105 -96 106 0
-105 96 106 0
-106 0
1 2 -107 0
-1 -2 -107 0
1 -2 107 0
-1 2 107 0
107 3 -108 0
-107 -3 -108 0
107 -3 108 0
-107 3 108 0
108 49 -109 0
-108 -49 -109 0
108 -49 109 0
-108 49 109 0
109 51 -110 0
-109 -51 -110 0
109 -51 110 0
-109 51 110 0
110 89 -111 0
-110 -89 -111 0
110 -89 111 0
-110 89 111 0
-111 0
2 3 -112 0
-2 -3 -112 0
2 -3 112 0
-2 3 112 0
112 4 -113 0
-112 -4 -113 0
112 -4 113 0
-112 4 113 0
113 50 -114 0
-113 -50 -114 0
113 -50 114 0
-113 50 114 0
114 52 -115 0
-114 -52 -115 0
114 -52 115 0
-114 52 115 0
115 90 -116 0
-115 -90 -116 0
115 -90 116 0
-115 90 116 0
-116 0
3 4 -117 0
-3 -4 -117 0
3 -4 117 0
-3 4 117 0
117 5 -118 0
-117 -5 -118 0
117 -5 118 0
-117 5 118 0
118 51 -119 0
-118 -51 -119 0
118 -51 119 0
-118 51 119 0
119 53 -120 0
-119 -53 -120 0
119 -53 120 0
-119 53 120 0
120 91 -121 0
-120 -91 -121 0
120 -91 121 0
-120 91 121 0
-121 0
4 5 -122 0
-4 -5 -122 0
4 -5 122 0
-4 5 122 0
122 6 -123 0
-122 -6 -123 0
122 -6 123 0
-122 6 123 0
123 52 -124 0
-123 -52 -124 0
123 -52 124 0
-123 52 124 0
124 54 -125 0
-124 -54 -125 0
124 -54 125 0
-124 54 125 0
125 92 -126 0
-125 -92 -126 0
125 -92 126 0
-125 92 126 0
-126 0
5 6 -127 0
-5 -6 -127 0
5 -6 127 0
-5 6 127 0
127 7 -128 0
-127 -7 -128 0
127 -7 128 0
-127 7 128 0
128 53 -129 0
-128 -53 -129 0
128 -53 129 0
-128 53 129 0
129 55 -130 0
-129 -55 -130 0
129 -55 130 0
-129 55 130 0
130 93 -131 0
-130 -93 -131 0
130 -93 131 0
-130 93 131 0
-131 0
6 7 -132 0
-6 -7 -132 0
6 -7 132 0
-6 7 132 0
132 8 -133 0
-132 -8 -133 0
132 -8 133 0
-132 8 133 0
133 54 -134 0
-133 -54 -134 0
133 -54 134 0
-133 54 134 0
134 56 -135 0
-134 -56 -135 0
134 -56 135 0
-134 56 135 0
135 94 -136 0
-135 -94 -136 0
135 -94 136 0
-135 94 136 0
-136 0
7 8 -137 0
-7 -8 -137 0
7 -8 137 0
-7 8 137 0
137 9 -138 0
-137 -9 -138 0
137 -9 138 0
-137 9 138 0
138 55 -139 0
-138 -55 -139 0
138 -55 139 0
-138 55 139 0
139 57 -140 0
-139 -57 -140 0
139 -57 140 0
-139 57 140 0
140 95 -141 0
-140 -95 -141 0
140 -95 141 0
-140 95 141 0
-141 0
8 9 -142 0
-8 -9 -142 0
8 -9 142 0
-8 9 142 0
142 10 -143 0
-142 -10 -143 0
142 -10 143 0
-142 10 143 0
143 56 -144 0
-143 -56 -144 0
143 -56 144 0
-143 56 144 0
144 58 -145 0
-144 -58 -145 0
144 -58 145 0
-144 58 145 0
145 96 -146 0
-145 -96 -146 0
145 -96 146 0
-145 96 146 0
-146 0
9 10 -147 0
-9 -10 -147 0
9 -10 147 0
-9 10 147 0
147 11 -148 0
-147 -11 -148 0
147 -11 148 0
-147 11 148 0
148 49 -149 0
-148 -49 -149 0
148 -49 149 0
-148 49 149 0
149 57 -150 0
-149 -57 -150 0
149 -57 150 0
-149 57 150 0
150 59 -151 0
-150 -59 -151 0
150 -59 151 0
-150 59 151 0
-151 0
10 11 -152 0
-10 -11 -152 0
10 -11 152 0
-10 11 152 0
152 12 -153 0
-152 -12 -153 0
152 -12 153 0
-152 12 153 0
153 50 -154 0
-153 -50 -154 0
153 -50 154 0
-153 50 154 0
154 58 -155 0
-154 -58 -155 0
154 -58 155 0
-154 58 155 0
155 60 -156 0
-155 -60 -156 0
155 -60 156 0
-155 60 156 0
-156 0
11 12 -157 0
-11 -12 -157 0
11 -12 157 0
-11 12 157 0
157 13 -158 0
-157 -13 -158 0
157 -13 158 0
-157 13 158 0
158 51 -159 0
-158 -51 -159 0
158 -51 159 0
-158 51 159 0
159 59 -160 0
-159 -59 -160 0
159 -59 160 0
-159 59 160 0
160 61 -161 0
-160 -61 -161 0
160 -61 161 0
-160 61 161 0
-161 0
12 13 -162 0
-12 -13 -162 0
12 -13 162 0
-12 13 162 0
162 14 -163 0
-162 -14 -163 0
162 -14 163 0
-162 14 163 0
163 52 -164 0
-163 -52 -164 0
163 -52 164 0
-163 52 164 0
164 60 -165 0
-164 -60 -165 0
164 -60 165 0
-164 60 165 0
165 62 -166 0
-165 -62 -166 0
165 -62 166 0
-165 62 166 0
-166 0
13 14 -167 0
-13 -14 -167 0
13 -14 167 0
-13 14 167 0
167 15 -168 0
-167 -15 -168 0
167 -15 168 0
-167 15 168 0
168 53 -169 0
-168 -53 -169 0
168 -53 169 0
-168 53 169 0
169 61 -170 0
-169 -61 -170 0
169 -61 170 0
-169 61 170 0
170 63 -171 0
-170 -63 -171 0
170 -63 171 0
-170 63 171 0
-171 0
14 15 -172 0
-14 -15 -172 0
14 -15 172 0
-14 15 172 0
172 16 -173 0
-172 -16 -173 0
172 -16 173 0
-172 16 173 0
173 54 -174 0
-173 -54 -174 0
173 -54 174 0
-173 54 174 0
174 62 -175 0
-174 -62 -175 0
174 -62 175 0
-174 62 175 0
175 64 -176 0
-175 -64 -176 0
175 -64 176 0
-175 64 176 0
-176 0
15 16 -177 0
-15 -16 -177 0
15 -16 177 0
-15 16 177 0
177 17 -178 0
-177 -17 -178 0
177 -17 178 0
-177 17 178 0
178 55 -179 0
-178 -55 -179 0
178 -55 179 0
-178 55 179 0
179 63 -180 0
-179 -63 -180 0
179 -63 180 0
-179 63 180 0
180 65 -181 0
-180 -65 -181 0
180 -65 181 0
-180 65 181 0
-181 0
16 17 -182 0
-16 -17 -182 0
16 -17 182 0
-16 17 182 0
182 18 -183 0
-182 -18 -183 0
182 -18 183 0
-182 18 183 0
183 56 -184 0
-183 -56 -184 0
183 -56 184 0
-183 56 184 0
184 64 -185 0
-184 -64 -185 0
184 -64 185 0
-184 64 185 0
185 66 -186 0
-185 -66 -186 0
185 -66 186 0
-185 66 186 0
-186 0
17 18 -187 0
-17 -18 -187 0
17 -18 187 0
-17 18 187 0
187 19 -188 0
-187 -19 -188 0
187 -19 188 0
-187 19 188 0
188 57 -189 0
-188 -57 -189 0
188 -57 189 0
-188 57 189 0
189 65 -190 0
-189 -65 -190 0
189 -65 190 0
-189 65 190 0
190 67 -191 0
-190 -67 -191 0
190 -67 191 0
-190 67 191 0
-191 0
18 19 -192 0
-18 -19 -192 0
18 -19 192 0
-18 19 192 0
192 20 -193 0
-192 -20 -193 0
192 -20 193 0
-192 20 193 0
193 58 -194 0
-193 -58 -194 0
193 -58 194 0
-193 58 194 0
194 66 -195 0
-194 -66 -195 0
194 -66 195 0
-194 66 195 0
195 68 -196 0
-195 -68 -196 0
195 -68 196 0
-195 68 196 0
-196 0
19 20 -197 0
-19 -20 -197 0
19 -20 197 0
-19 20 197 0
197 21 -198 0
-197 -21 -198 0
197 -21 198 0
-197 21 198 0
198 59 -199 0
-198 -59 -199 0
198 -59 199 0
-198 59 199 0
199 67 -200 0
-199 -67 -200 0
199 -67 200 0
-199 67 200 0
200 69 -201 0
-200 -69 -201 0
200 -69 201 0
-200 69 201 0
-201 0
20 21 -202 0
-20 -21 -202 0
20 -21 202 0
-20 21 202 0
202 22 -203 0
-202 -22 -203 0
202 -22 203 0
-202 22 203 0
203 60 -204 0
-203 -60 -204 0
203 -60 204 0
-203 60 204 0
204 68 -205 0
-204 -68 -205 0
204 -68 205 0
-204 68 205 0
205 70 -206 0
-205 -70 -206 0
205 -70 206 0
-205 70 206 0
-206 0
21 22 -207 0
-21 -22 -207 0
21 -22 207 0
-21 22 207 0
207 23 -208 0
-207 -23 -208 0
207 -23 208 0
-207 23 208 0
208 61 -209 0
-208 -61 -209 0
208 -61 209 0
-208 61 209 0
209 69 -210 0
-209 -69 -210 0
209 -69 210 0
-209 69 210 0
210 71 -211 0
-210 -71 -211 0
210 -71 211 0
-210 71 211 0
-211 0
22 23 -212 0
-22 -23 -212 0
22 -23 212 0
-22 23 212 0
212 24 -213 0
-212 -24 -213 0
212 -24 213 0
-212 24 213 0
213 62 -214 0
-213 -62 -214 0
213 -62 214 0
-213 62 214 0
214 70 -215 0
-214 -70 -215 0
214 -70 215 0
-214 70 215 0
215 72 -216 0
-215 -72 -216 0
215 -72 216 0
-215 72 216 0
-216 0
23 24 -217 0
-23 -24 -217 0
23 -24 217 0
-23 24 217 0
217 25 -218 0
-217 -25 -218 0
217 -25 218 0
-217 25 218 0
218 63 -219 0
-218 -63 -219 0
218 -63 219 0
-218 63 219 0
219 71 -220 0
-219 -71 -220 0
219 -71 220 0
-219 71 220 0
220 73 -221 0
-220 -73 -221 0
220 -73 221 0
-220 73 221 0
-221 0
24 25 -222 0
-24 -25 -222 0
24 -25 222 0
-24 25 222 0
222 26 -223 0
-222 -26 -223 0
222 -26 223 0
-222 26 223 0
223 64 -224 0
-223 -64 -224 0
223 -64 224 0
-223 64 224 0
224 72 -225 0
-224 -72 -225 0
224 -72 225 0
-224 72 225 0
225 74 -226 0
-225 -74 -226 0
225 -74 226 0
-225 74 226 0
-226 0
25 26 -227 0
-25 -26 -227 0
25 -26 227 0
-25 26 227 0
227 27 -228 0
-227 -27 -228 0
227 -27 228 0
-227 27 228 0
228 65 -229 0
-228 -65 -229 0
228 -65 229 0
-228 65 229 0
229 73 -230 0
-229 -73 -230 0
229 -73 230 0
-229 73 230 0
230 75 -231 0
-230 -75 -231 0
230 -75 231 0
-230 75 231 0
-231 0
26 27 -232 0
-26 -27 -232 0
26 -27 232 0
-26 27 232 0
232 28 -233 0
-232 -28 -233 0
232 -28 233 0
-232 28 233 0
233 66 -234 0
-233 -66 -234 0
233 -66 234 0
-233 66 234 0
234 74 -235 0
-234 -74 -235 0
234 -74 235 0
-234 74 235 0
235 76 -236 0
-235 -76 -236 0
235 -76 236 0
-235 76 236 0
-236 0
27 28 -237 0
-27 -28 -237 0
27 -28 237 0
-27 28 237 0
237 29 -238 0
-237 -29 -238 0
237 -29 238 0
-237 29 238 0
238 67 -239 0
-238 -67 -239 0
238 -67 239 0
-238 67 239 0
239 75 -240 0
-239 -75 -240 0
239 -75 240 0
-239 75 240 0
240 77 -241 0
-240 -77 -241 0
240 -77 241 0
-240 77 241 0
-241 0
28 29 -242 0
-28 -29 -242 0
28 -29 242 0
-28 29 242 0
242 30 -243 0
-242 -30 -243 0
242 -30 243 0
-242 30 243 0
243 68 -244 0
-243 -68 -244 0
243 -68 244 0
-243 68 244 0
244 76 -245 0
-244 -76 -245 0
244 -76 245 0
-244 76 245 0
245 78 -246 0
-245 -78 -246 0
245 -78 246 0
-245 78 246 0
-246 0
29 30 -247 0
-29 -30 -247 0
29 -30 247 0
-29 30 247 0
247 31 -248 0
-247 -31 -248 0
247 -31 248 0
-247 31 248 0
248 69 -249 0
-248 -69 -249 0
248 -69 249 0
-248 69 249 0
249 77 -250 0
-249 -77 -250 0
249 -77 250 0
-249 77 250 0
250 79 -251 0
-250 -79 -251 0
250 -79 251 0
-250 79 251 0
-251 0
30 31 -252 0
-30 -31 -252 0
30 -31 252 0
-30 31 252 0
252 32 -253 0
-252 -32 -253 0
252 -32 253 0
-252 32 253 0
253 70 -254 0
-253 -70 -254 0
253 -70 254 0
-253 70 254 0
254 78 -255 0
-254 -78 -255 0
254 -78 255 0
-254 78 255 0
255 80 -256 0
-255 -80 -256 0
255 -80 256 0
-255 80 256 0
-256 0
31 32 -257 0
-31 -32 -257 0
31 -32 257 0
-31 32 257 0
257 33 -258 0
-257 -33 -258 0
257 -33 258 0
-257 33 258 0
258 71 -259 0
-258 -71 -259 0
258 -71 259 0
-258 71 259 0
259 79 -260 0
-259 -79 -260 0
259 -79 260 0
-259 79 260 0
260 81 -261 0
-260 -81 -261 0
260 -81 261 0
-260 81 261 0
-261 0
32 33 -262 0
-32 -33 -262 0
32 -33 262 0
-32 33 262 0
262 34 -263 0
-262 -34 -263 0
262 -34 263 0
-262 34 263 0
263 72 -264 0
-263 -72 -264 0
263 -72 264 0
-263 72 264 0
264 80 -265 0
-264 -80 -265 0
264 -80 265 0
-264 80 265 0
265 82 -266 0
-265 -82 -266 0
265 -82 266 0
-265 82 266 0
-266 0
33 34 -267 0
-33 -34 -267 0
33 -34 267 0
-33 34 267 0
267 35 -268 0
-267 -35 -268 0
267 -35 268 0
-267 35 268 0
268 73 -269 0
-268 -73 -269 0
268 -73 269 0
-268 73 269 0
269 81 -270 0
-269 -81 -270 0
269 -81 270 0
-269 81 270 0
270 83 -271 0
-270 -83 -271 0
270 -83 271 0
-270 83 271 0
-271 0
34 35 -272 0
-34 -35 -272 0
34 -35 272 0
-34 35 272 0
272 36 -273 0
-272 -36 -273 0
272 -36 273 0
-272 36 273 0
273 74 -274 0
-273 -74 -274 0
273 -74 274 0
-273 74 274 0
274 82 -275 0
-274 -82 -275 0
274 -82 275 0
-274 82 275 0
275 84 -276 0
-275 -84 -276 0
275 -84 276 0
-275 84 276 0
-276 0
35 36 -277 0
-35 -36 -277 0
35 -36 277 0
-35 36 277 0
277 37 -278 0
-277 -37 -278 0
277 -37 278 0
-277 37 278 0
278 75 -279 0
-278 -75 -279 0
278 -75 279 0
-278 75 279 0
279 83 -280 0
-279 -83 -280 0
279 -83 280 0
-279 83 280 0
280 85 -281 0
-280 -85 -281 0
280 -85 281 0
-280 85 281 0
-281 0
36 37 -282 0
-36 -37 -282 0
36 -37 282 0
-36 37 282 0
282 38 -283 0
-282 -38 -283 0
282 -38 283 0
-282 38 283 0
283 76 -284 0
-283 -76 -284 0
283 -76 284 0
-283 76 284 0
284 84 -285 0
-284 -84 -285 0
284 -84 285 0
-284 84 285 0
285 86 -286 0
-285 -86 -286 0
285 -86 286 0
-285 86 286 0
-286 0
37 38 -287 0
-37 -38 -287 0
37 -38 287 0
-37 38 287 0
287 39 -288 0
-287 -39 -288 0
287 -39 288 0
-287 39 288 0
288 77 -289 0
-288 -77 -289 0
288 -77 289 0
-288 77 289 0
289 85 -290 0
-289 -85 -290 0
289 -85 290 0
-289 85 290 0
290 87 -291 0
-290 -87 -291 0
290 -87 291 0
-290 87 291 0
-291 0
38 39 -292 0
-38 -39 -292 0
38 -39 292 0
-38 39 292 0
292 40 -293 0
-292 -40 -293 0
292 -40 293 0
-292 40 293 0
293 78 -294 0
-293 -78 -294 0
293 -78 294 0
-293 78 294 0
294 86 -295 0
-294 -86 -295 0
294 -86 295 0
-294 86 295 0
295 88 -296 0
-295 -88 -296 0
295 -88 296 0
-295 88 296 0
-296 0
39 40 -297 0
-39 -40 -297 0
39 -40 297 0
-39 40 297 0
297 41 -298 0
-297 -41 -298 0
297 -41 298 0
-297 41 298 0
298 79 -299 0
-298 -79 -299 0
298 -79 299 0
-298 79 299 0
299 87 -300 0
-299 -87 -300 0
299 -87 300 0
-299 87 300 0
300 89 -301 0
-300 -89 -301 0
300 -89 301 0
-300 89 301 0
-301 0
40 41 -302 0
-40 -41 -302 0
40 -41 302 0
-40 41 302 0
302 42 -303 0
-302 -42 -303 0
302 -42 303 0
-302 42 303 0
303 80 -304 0
-303 -80 -304 0
303 -80 304 0
-303 80 304 0
304 88 -305 0
-304 -88 -305 0
304 -88 305 0
-304 88 305 0
305 90 -306 0
-305 -90 -306 0
305 -90 306 0
-305 90 306 0
-306 0
41 42 -307 0
-41 -42 -307 0
41 -42 307 0
-41 42 307 0
307 43 -308 0
-307 -43 -308 0
307 -43 308 0
-307 43 308 0
308 81 -309 0
-308 -81 -309 0
308 -81 309 0
-308 81 309 0
309 89 -310 0
-309 -89 -310 0
309 -89 310 0
-309 89 310 0
310 91 -311 0
-310 -91 -311 0
310 -91 311 0
-310 91 311 0
-311 0
42 43 -312 0
-42 -43 -312 0
42 -43 312 0
-42 43 312 0
312 44 -313 0
-312 -44 -313 0
312 -44 313 0
-312 44 313 0
313 82 -314 0
-313 -82 -314 0
313 -82 314 0
-313 82 314 0
314 90 -315 0
-314 -90 -315 0
314 -90 315 0
-314 90 315 0
315 92 -316 0
-315 -92 -316 0
315 -92 316 0
-315 92 316 0
-316 0
43 44 -317 0
-43 -44 -317 0
43 -44 317 0
-43 44 317 0
317 45 -318 0
-317 -45 -318 0
317 -45 318 0
-317 45 318 0
318 83 -319 0
-318 -83 -319 0
318 -83 319 0
-318 83 319 0
319 91 -320 0
-319 -91 -320 0
319 -91 320 0
-319 91 320 0
320 93 -321 0
-320 -93 -321 0
320 -93 321 0
-320 93 321 0
-321 0
44 45 -322 0
-44 -45 -322 0
44 -45 322 0
-44 45 322 0
322 46 -323 0
-322 -46 -323 0
322 -46 323 0
-322 46 323 0
323 84 -324 0
-323 -84 -324 0
323 -84 324 0
-323 84 324 0
324 92 -325 0
-324 -92 -325 0
324 -92 325 0
-324 92 325 0
325 94 -326 0
-325 -94 -326 0
325 -94 326 0
-325 94 326 0
-326 0
45 46 -327 0
-45 -46 -327 0
45 -46 327 0
-45 46 327 0
327 47 -328 0
-327 -47 -328 0
327 -47 328 0
-327 47 328 0
328 85 -329 0
-328 -85 -329 0
328 -85 329 0
-328 85 329 0
329 93 -330 0
-329 -93 -330 0
329 -93 330 0
-329 93 330 0
330 95 -331 0
-330 -95 -331 0
330 -95 331 0
-330 95 331 0
-331 0
46 47 -332 0
-46 -47 -332 0
46 -47 332 0
-46 47 332 0
332 48 -333 0
-332 -48 -333 0
332 -48 333 0
-332 48 333 0
333 86 -334 0
-333 -86 -334 0
333 -86 334 0
-333 86 334 0
334 94 -335 0
-334 -94 -335 0
334 -94 335 0
-334 94 335 0
335 96 -336 0
-335 -96 -336 0
335 -96 336 0
-335 96 336 0
-336 0
1 51 -337 0
-1 -51 -337 0
1 -51 337 0
-1 51 337 0
337 52 -338 0
-337 -52 -338 0
337 -52 338 0
-337 52 338 0
338 54 -339 0
-338 -54 -339 0
338 -54 339 0
-338 54 339 0
339 55 -340 0
-339 -55 -340 0
339 -55 340 0
-339 55 340 0
340 57 -341 0
-340 -57 -341 0
340 -57 341 0
-340 57 341 0
341 58 -342 0
-341 -58 -342 0
341 -58 342 0
-341 58 342 0
342 60 -343 0
-342 -60 -343 0
342 -60 343 0
-342 60 343 0
343 61 -344 0
-343 -61 -344 0
343 -61 344 0
-343 61 344 0
344 63 -345 0
-344 -63 -345 0
344 -63 345 0
-344 63 345 0
345 64 -346 0
-345 -64 -346 0
345 -64 346 0
-345 64 346 0
346 66 -347 0
-346 -66 -347 0
346 -66 347 0
-346 66 347 0
347 67 -348 0
-347 -67 -348 0
347 -67 348 0
-347 67 348 0
348 69 -349 0
-348 -69 -349 0
348 -69 349 0
-348 69 349 0
349 70 -350 0
-349 -70 -350 0
349 -70 350 0
-349 70 350 0
350 72 -351 0
-350 -72 -351 0
350 -72 351 0
-350 72 351 0
351 73 -352 0
-351 -73 -352 0
351 -73 352 0
-351 73 352 0
352 75 -353 0
-352 -75 -353 0
352 -75 353 0
-352 75 353 0
353 76 -354 0
-353 -76 -354 0
353 -76 354 0
-353 76 354 0
354 78 -355 0
-354 -78 -355 0
354 -78 355 0
-354 78 355 0
355 79 -356 0
-355 -79 -356 0
355 -79 356 0
-355 79 356 0
356 81 -357 0
-356 -81 -357 0
356 -81 357 0
-356 81 357 0
357 82 -358 0
-357 -82 -358 0
357 -82 358 0
-357 82 358 0
358 84 -359 0
-358 -84 -359 0
358 -84 359 0
-358 84 359 0
359 85 -360 0
-359 -85 -360 0
359 -85 360 0
-359 85 360 0
360 87 -361 0
-360 -87 -361 0
360 -87 361 0
-360 87 361 0
361 88 -362 0
-361 -88 -362 0
361 -88 362 0
-361 88 362 0
362 89 -363 0
-362 -89 -363 0
362 -89 363 0
-362 89 363 0
363 91 -364 0
-363 -91 -364 0
363 -91 364 0
-363 91 364 0
364 92 -365 0
-364 -92 -365 0
364 -92 365 0
-364 92 365 0
365 94 -366 0
-365 -94 -366 0
365 -94 366 0
-365 94 366 0
366 95 -367 0
-366 -95 -367 0
366 -95 367 0
-366 95 367 0
2 52 -368 0
-2 -52 -368 0
2 -52 368 0
-2 52 368 0
368 53 -369 0
-368 -53 -369 0
368 -53 369 0
-368 53 369 0
369 55 -370 0
-369 -55 -370 0
369 -55 370 0
-369 55 370 0
370 56 -371 0
-370 -56 -371 0
370 -56 371 0
-370 56 371 0
371 58 -372 0
-371 -58 -372 0
371 -58 372 0
-371 58 372 0
372 59 -373 0
-372 -59 -373 0
372 -59 373 0
-372 59 373 0
373 61 -374 0
-373 -61 -374 0
373 -61 374 0
-373 61 374 0
374 62 -375 0
-374 -62 -375 0
374 -62 375 0
-374 62 375 0
375 64 -376 0
-375 -64 -376 0
375 -64 376 0
-375 64 376 0
376 65 -377 0
-376 -65 -377 0
376 -65 377 0
-376 65 377 0
377 67 -378 0
-377 -67 -378 0
377 -67 378 0
-377 67 378 0
378 68 -379 0
-378 -68 -379 0
378 -68 379 0
-378 68 379 0
379 70 -380 0
-379 -70 -380 0
379 -70 380 0
-379 70 380 0
380 71 -381 0
-380 -71 -381 0
380 -71 381 0
-380 71 381 0
381 73 -382 0
-381 -73 -382 0
381 -73 382 0
-381 73 382 0
382 74 -383 0
-382 -74 -383 0
382 -74 383 0
-382 74 383 0
383 76 -384 0
-383 -76 -384 0
383 -76 384 0
-383 76 384 0
384 77 -385 0
-384 -77 -385 0
384 -77 385 0
-384 77 385 0
385 79 -386 0
-385 -79 -386 0
385 -79 386 0
-385 79 386 0
386 80 -387 0
-386 -80 -387 0
386 -80 387 0
-386 80 387 0
387 82 -388 0
-387 -82 -388 0
387 -82 388 0
-387 82 388 0
388 83 -389 0
-388 -83 -389 0
388 -83 389 0
-388 83 389 0
389 85 -390 0
-389 -85 -390 0
389 -85 390 0
-389 85 390 0
390 86 -391 0
-390 -86 -391 0
390 -86 391 0
-390 86 391 0
391 88 -392 0
-391 -88 -392 0
391 -88 392 0
-391 88 392 0
392 89 -393 0
-392 -89 -393 0
392 -89 393 0
-392 89 393 0
393 90 -394 0
-393 -90 -394 0
393 -90 394 0
-393 90 394 0
394 92 -395 0
-394 -92 -395 0
394 -92 395 0
-394 92 395 0
395 93 -396 0
-395 -93 -396 0
395 -93 396 0
-395 93 396 0
396 95 -397 0
-396 -95 -397 0
396 -95 397 0
-396 95 397 0
397 96 -398 0
-397 -96 -398 0
397 -96 398 0
-397 96 398 0
3 51 -399 0
-3 -51 -399 0
3 -51 399 0
-3 51 399 0
399 52 -400 0
-399 -52 -400 0
399 -52 400 0
-399 52 400 0
400 53 -401 0
-400 -53 -401 0
400 -53 401 0
-400 53 401 0
401 55 -402 0
-401 -55 -402 0
401 -55 402 0
-401 55 402 0
402 56 -403 0
-402 -56 -403 0
402 -56 403 0
-402 56 403 0
403 58 -404 0
-403 -58 -404 0
403 -58 404 0
-403 58 404 0
404 59 -405 0
-404 -59 -405 0
404 -59 405 0
-404 59 405 0
405 61 -406 0
-405 -61 -406 0
405 -61 406 0
-405 61 406 0
406 62 -407 0
-406 -62 -407 0
406 -62 407 0
-406 62 407 0
407 64 -408 0
-407 -64 -408 0
407 -64 408 0
-407 64 408 0
408 65 -409 0
-408 -65 -409 0
408 -65 409 0
-408 65 409 0
409 67 -410 0
-409 -67 -410 0
409 -67 410 0
-409 67 410 0
410 68 -411 0
-410 -68 -411 0
410 -68 411 0
-410 68 411 0
411 70 -412 0
-411 -70 -412 0
411 -70 412 0
-411 70 412 0
412 71 -413 0
-412 -71 -413 0
412 -71 413 0
-412 71 413 0
413 73 -414 0
-413 -73 -414 0
413 -73 414 0
-413 73 414 0
414 74 -415 0
-414 -74 -415 0
414 -74 415 0
-414 74 415 0
415 76 -416 0
-415 -76 -416 0
415 -76 416 0
-415 76 416 0
416 77 -417 0
-416 -77 -417 0
416 -77 417 0
-416 77 417 0
417 79 -418 0
-417 -79 -418 0
417 -79 418 0
-417 79 418 0
418 80 -419 0
-418 -80 -419 0
418 -80 419 0
-418 80 419 0
419 82 -420 0
-419 -82 -420 0
419 -82 420 0
-419 82 420 0
420 83 -421 0
-420 -83 -421 0
420 -83 421 0
-420 83 421 0
421 85 -422 0
-421 -85 -422 0
421 -85 422 0
-421 85 422 0
422 86 -423 0
-422 -86 -423 0
422 -86 423 0
-422 86 423 0
423 88 -424 0
-423 -88 -424 0
423 -88 424 0
-423 88 424 0
424 89 -425 0
-424 -89 -425 0
424 -89 425 0
-424 89 425 0
4 52 -426 0
-4 -52 -426 0
4 -52 426 0
-4 52 426 0
426 53 -427 0
-426 -53 -427 0
426 -53 427 0
-426 53 427 0
427 54 -428 0
-427 -54 -428 0
427 -54 428 0
-427 54 428 0
428 56 -429 0
-428 -56 -429 0
428 -56 429 0
-428 56 429 0
429 57 -430 0
-429 -57 -430 0
429 -57 430 0
-429 57 430 0
430 59 -431 0
-430 -59 -431 0
430 -59 431 0
-430 59 431 0
431 60 -432 0
-431 -60 -432 0
431 -60 432 0
-431 60 432 0
432 62 -433 0
-432 -62 -433 0
432 -62 433 0
-432 62 433 0
433 63 -434 0
-433 -63 -434 0
433 -63 434 0
-433 63 434 0
434 65 -435 0
-434 -65 -435 0
434 -65 435 0
-434 65 435 0
435 66 -436 0
-435 -66 -436 0
435 -66 436 0
-435 66 436 0
436 68 -437 0
-436 -68 -437 0
436 -68 437 0
-436 68 437 0
437 69 -438 0
-437 -69 -438 0
437 -69 438 0
-437 69 438 0
438 71 -439 0
-438 -71 -439 0
438 -71 439 0
-438 71 439 0
439 72 -440 0
-439 -72 -440 0
439 -72 440 0
-439 72 440 0
440 74 -441 0
-440 -74 -441 0
440 -74 441 0
-440 74 441 0
441 75 -442 0
-441 -75 -442 0
441 -75 442 0
-441 75 442 0
442 77 -443 0
-442 -77 -443 0
442 -77 443 0
-442 77 443 0
443 78 -444 0
-443 -78 -444 0
443 -78 444 0
-443 78 444 0
444 80 -445 0
-444 -80 -445 0
444 -80 445 0
-444 80 445 0
445 81 -446 0
-445 -81 -446 0
445 -81 446 0
-445 81 446 0
446 83 -447 0
-446 -83 -447 0
446 -83 447 0
-446 83 447 0
447 84 -448 0
-447 -84 -448 0
447 -84 448 0
-447 84 448 0
448 86 -449 0
-448 -86 -449 0
448 -86 449 0
-448 86 449 0
449 87 -450 0
-449 -87 -450 0
449 -87 450 0
-449 87 450 0
450 89 -451 0
-450 -89 -451 0
450 -89 451 0
-450 89 451 0
451 90 -452 0
-451 -90 -452 0
451 -90 452 0
-451 90 452 0
367 398 425 452 0
1 0
-464 456 465 0
-460 456 465 0
-460 -464 465 0
-465 453 0
-461 453 0
-465 -461 454 0
-462 454 0
-465 -462 455 0
-463 455 0
-465 -463 0
-457 453 0
-465 -457 454 0
-458 454 0
-465 -458 455 0
-459 455 0
-465 -459 0
-457 -461 454 0
-465 -457 -461 455 0
-457 -462 455 0
-465 -457 -462 0
-457 -463 0
-465 -457 -463 0
-458 -461 455 0
-465 -458 -461 0
-458 -462 0
-465 -458 -462 0
-458 -463 0
-465 -458 -463 0
-459 -461 0
-465 -459 -461 0
-459 -462 0
-465 -459 -462 0
-459 -463 0
-465 -459 -463 0
-473 464 474 0
-469 464 474 0
-469 -473 474 0
-474 461 0
-470 461 0
-474 -470 462 0
-471 462 0
-474 -471 463 0
-472 463 0
-474 -472 0
-466 461 0
-474 -466 462 0
-467 462 0
-474 -467 463 0
-468 463 0
-474 -468 0
-466 -470 462 0
-474 -466 -470 463 0
-466 -471 463 0
-474 -466 -471 0
-466 -472 0
-474 -466 -472 0
-467 -470 463 0
-474 -467 -470 0
-467 -471 0
-474 -467 -471 0
-467 -472 0
-474 -467 -472 0
-468 -470 0
-474 -468 -470 0
-468 -471 0
-474 -468 -471 0
-468 -472 0
-474 -468 -472 0
-482 473 483 0
-478 473 483 0
-478 -482 483 0
-483 470 0
-479 470 0
-483 -479 471 0
-480 471 0
-483 -480 472 0
-481 472 0
-483 -481 0
-475 470 0
-483 -475 471 0
-476 471 0
-483 -476 472 0
-477 472 0
-483 -477 0
-475 -479 471 0
-483 -475 -479 472 0
-475 -480 472 0
-483 -475 -480 0
-475 -481 0
-483 -475 -481 0
-476 -479 472 0
-483 -476 -479 0
-476 -480 0
-483 -476 -480 0
-476 -481 0
-483 -476 -481 0
-477 -479 0
-483 -477 -479 0
-477 -480 0
-483 -477 -480 0
-477 -481 0
-483 -477 -481 0
-491 482 492 0
-487 482 492 0
-487 -491 492 0
-492 479 0
-488 479 0
-492 -488 480 0
-489 480 0
-492 -489 481 0
-490 481 0
-492 -490 0
-484 479 0
-492 -484 480 0
-485 480 0
-492 -485 481 0
-486 481 0
-492 -486 0
-484 -488 480 0
-492 -484 -488 481 0
-484 -489 481 0
-492 -484 -489 0
-484 -490 0
-492 -484 -490 0
-485 -488 481 0
-492 -485 -488 0
-485 -489 0
-492 -485 -489 0
-485 -490 0
-492 -485 -490 0
-486 -488 0
-492 -486 -488 0
-486 -489 0
-492 -486 -489 0
-486 -490 0
-492 -486 -490 0
-496 491 497 0
-494 491 497 0
-494 -496 497 0
-497 488 0
-495 488 0
-497 -495 489 0
-493 488 0
-497 -493 489 0
-493 -495 489 0
-497 -493 -495 490 0
-96 496 500 0
-499 496 500 0
-499 -96 500 0
-500 495 0
-498 495 0
-500 -498 0
-95 499 501 0
-94 499 501 0
-94 -95 501 0
-501 498 0
-93 494 504 0
-503 494 504 0
-503 -93 504 0
-504 493 0
-502 493 0
-504 -502 0
-92 503 505 0
-91 503 505 0
-91 -92 505 0
-505 502 0
-509 487 510 0
-507 487 510 0
-507 -509 510 0
-510 484 0
-508 484 0
-510 -508 485 0
-506 484 0
-510 -506 485 0
-506 -508 485 0
-510 -506 -508 486 0
-90 509 513 0
-512 509 513 0
-512 -90 513 0
-513 508 0
-511 508 0
-513 -511 0
-89 512 514 0
-88 512 514 0
-88 -89 514 0
-514 511 0
-87 507 517 0
-516 507 517 0
-516 -87 517 0
-517 506 0
-515 506 0
-517 -515 0
-86 516 518 0
-85 516 518 0
-85 -86 518 0
-518 515 0
-526 478 527 0
-522 478 527 0
-522 -526 527 0
-527 475 0
-523 475 0
-527 -523 476 0
-524 476 0
-527 -524 477 0
-525 477 0
-527 -525 0
-519 475 0
-527 -519 476 0
-520 476 0
-527 -520 477 0
-521 477 0
-527 -521 0
-519 -523 476 0
-527 -519 -523 477 0
-519 -524 477 0
-527 -519 -524 0
-519 -525 0
-527 -519 -525 0
-520 -523 477 0
-527 -520 -523 0
-520 -524 0
-527 -520 -524 0
-520 -525 0
-527 -520 -525 0
-521 -523 0
-527 -521 -523 0
-521 -524 0
-527 -521 -524 0
-521 -525 0
-527 -521 -525 0
-531 526 532 0
-529 526 532 0
-529 -531 532 0
-532 523 0
-530 523 0
-532 -530 524 0
-528 523 0
-532 -528 524 0
-528 -530 524 0
-532 -528 -530 525 0
-84 531 535 0
-534 531 535 0
-534 -84 535 0
-535 530 0
-533 530 0
-535 -533 0
-83 534 536 0
-82 534 536 0
-82 -83 536 0
-536 533 0
-81 529 539 0
-538 529 539 0
-538 -81 539 0
-539 528 0
-537 528 0
-539 -537 0
-80 538 540 0
-79 538 540 0
-79 -80 540 0
-540 537 0
-544 522 545 0
-542 522 545 0
-542 -544 545 0
-545 519 0
-543 519 0
-545 -543 520 0
-541 519 0
-545 -541 520 0
-541 -543 520 0
-545 -541 -543 521 0
-78 544 548 0
-547 544 548 0
-547 -78 548 0
-548 543 0
-546 543 0
-548 -546 0
-77 547 549 0
-76 547 549 0
-76 -77 549 0
-549 546 0
-75 542 552 0
-551 542 552 0
-551 -75 552 0
-552 541 0
-550 541 0
-552 -550 0
-74 551 553 0
-73 551 553 0
-73 -74 553 0
-553 550 0
-561 469 562 0
-557 469 562 0
-557 -561 562 0
-562 466 0
-558 466 0
-562 -558 467 0
-559 467 0
-562 -559 468 0
-560 468 0
-562 -560 0
-554 466 0
-562 -554 467 0
-555 467 0
-562 -555 468 0
-556 468 0
-562 -556 0
-554 -558 467 0
-562 -554 -558 468 0
-554 -559 468 0
-562 -554 -559 0
-554 -560 0
-562 -554 -560 0
-555 -558 468 0
-562 -555 -558 0
-555 -559 0
-562 -555 -559 0
-555 -560 0
-562 -555 -560 0
-556 -558 0
-562 -556 -558 0
-556 -559 0
-562 -556 -559 0
-556 -560 0
-562 -556 -560 0
-570 561 571 0
-566 561 571 0
-566 -570 571 0
-571 558 0
-567 558 0
-571 -567 559 0
-568 559 0
-571 -568 560 0
-569 560 0
-571 -569 0
-563 558 0
-571 -563 559 0
-564 559 0
-571 -564 560 0
-565 560 0
-571 -565 0
-563 -567 559 0
-571 -563 -567 560 0
-563 -568 560 0
-571 -563 -568 0
-563 -569 0
-571 -563 -569 0
-564 -567 560 0
-571 -564 -567 0
-564 -568 0
-571 -564 -568 0
-564 -569 0
-571 -564 -569 0
-565 -567 0
-571 -565 -567 0
-565 -568 0
-571 -565 -568 0
-565 -569 0
-571 -565 -569 0
-575 570 576 0
-573 570 576 0
-573 -575 576 0
-576 567 0
-574 567 0
-576 -574 568 0
-572 567 0
-576 -572 568 0
-572 -574 568 0
-576 -572 -574 569 0
-72 575 579 0
-578 575 579 0
-578 -72 579 0
-579 574 0
-577 574 0
-579 -577 0
-71 578 580 0
-70 578 580 0
-70 -71 580 0
-580 577 0
-69 573 583 0
-582 573 583 0
-582 -69 583 0
-583 572 0
-581 572 0
-583 -581 0
-68 582 584 0
-67 582 584 0
-67 -68 584 0
-584 581 0
-588 566 589 0
-586 566 589 0
-586 -588 589 0
-589 563 0
-587 563 0
-589 -587 564 0
-585 563 0
-589 -585 564 0
-585 -587 564 0
-589 -585 -587 565 0
-66 588 592 0
-591 588 592 0
-591 -66 592 0
-592 587 0
-590 587 0
-592 -590 0
-65 591 593 0
-64 591 593 0
-64 -65 593 0
-593 590 0
-63 586 596 0
-595 586 596 0
-595 -63 596 0
-596 585 0
-594 585 0
-596 -594 0
-62 595 597 0
-61 595 597 0
-61 -62 597 0
-597 594 0
-605 557 606 0
-601 557 606 0
-601 -605 606 0
-606 554 0
-602 554 0
-606 -602 555 0
-603 555 0
-606 -603 556 0
-604 556 0
-606 -604 0
-598 554 0
-606 -598 555 0
-599 555 0
-606 -599 556 0
-600 556 0
-606 -600 0
-598 -602 555 0
-606 -598 -602 556 0
-598 -603 556 0
-606 -598 -603 0
-598 -604 0
-606 -598 -604 0
-599 -602 556 0
-606 -599 -602 0
-599 -603 0
-606 -599 -603 0
-599 -604 0
-606 -599 -604 0
-600 -602 0
-606 -600 -602 0
-600 -603 0
-606 -600 -603 0
-600 -604 0
-606 -600 -604 0
-610 605 611 0
-608 605 611 0
-608 -610 611 0
-611 602 0
-609 602 0
-611 -609 603 0
-607 602 0
-611 -607 603 0
-607 -609 603 0
-611 -607 -609 604 0
-60 610 614 0
-613 610 614 0
-613 -60 614 0
-614 609 0
-612 609 0
-614 -612 0
-59 613 615 0
-58 613 615 0
-58 -59 615 0
-615 612 0
-57 608 618 0
-617 608 618 0
-617 -57 618 0
-618 607 0
-616 607 0
-618 -616 0
-56 617 619 0
-55 617 619 0
-55 -56 619 0
-619 616 0
-623 601 624 0
-621 601 624 0
-621 -623 624 0
-624 598 0
-622 598 0
-624 -622 599 0
-620 598 0
-624 -620 599 0
-620 -622 599 0
-624 -620 -622 600 0
-54 623 627 0
-626 623 627 0
-626 -54 627 0
-627 622 0
-625 622 0
-627 -625 0
-53 626 628 0
-52 626 628 0
-52 -53 628 0
-628 625 0
-51 621 631 0
-630 621 631 0
-630 -51 631 0
-631 620 0
-629 620 0
-631 -629 0
-50 630 632 0
-49 630 632 0
-49 -50 632 0
-632 629 0
-640 460 641 0
-636 460 641 0
-636 -640 641 0
-641 457 0
-637 457 0
-641 -637 458 0
-638 458 0
-641 -638 459 0
-639 459 0
-641 -639 0
-633 457 0
-641 -633 458 0
-634 458 0
-641 -634 459 0
-635 459 0
-641 -635 0
-633 -637 458 0
-641 -633 -637 459 0
-633 -638 459 0
-641 -633 -638 0
-633 -639 0
-641 -633 -639 0
-634 -637 459 0
-641 -634 -637 0
-634 -638 0
-641 -634 -638 0
-634 -639 0
-641 -634 -639 0
-635 -637 0
-641 -635 -637 0
-635 -638 0
-641 -635 -638 0
-635 -639 0
-641 -635 -639 0
-649 640 650 0
-645 640 650 0
-645 -649 650 0
-650 637 0
-646 637 0
-650 -646 638 0
-647 638 0
-650 -647 639 0
-648 639 0
-650 -648 0
-642 637 0
-650 -642 638 0
-643 638 0
-650 -643 639 0
-644 639 0
-650 -644 0
-642 -646 638 0
-650 -642 -646 639 0
-642 -647 639 0
-650 -642 -647 0
-642 -648 0
-650 -642 -648 0
-643 -646 639 0
-650 -643 -646 0
-643 -647 0
-650 -643 -647 0
-643 -648 0
-650 -643 -648 0
-644 -646 0
-650 -644 -646 0
-644 -647 0
-650 -644 -647 0
-644 -648 0
-650 -644 -648 0
-658 649 659 0
-654 649 659 0
-654 -658 659 0
-659 646 0
-655 646 0
-659 -655 647 0
-656 647 0
-659 -656 648 0
-657 648 0
-659 -657 0
-651 646 0
-659 -651 647 0
-652 647 0
-659 -652 648 0
-653 648 0
-659 -653 0
-651 -655 647 0
-659 -651 -655 648 0
-651 -656 648 0
-659 -651 -656 0
-651 -657 0
-659 -651 -657 0
-652 -655 648 0
-659 -652 -655 0
-652 -656 0
-659 -652 -656 0
-652 -657 0
-659 -652 -657 0
-653 -655 0
-659 -653 -655 0
-653 -656 0
-659 -653 -656 0
-653 -657 0
-659 -653 -657 0
-663 658 664 0
-661 658 664 0
-661 -663 664 0
-664 655 0
-662 655 0
-664 -662 656 0
-660 655 0
-664 -660 656 0
-660 -662 656 0
-664 -660 -662 657 0
-48 663 667 0
-666 663 667 0
-666 -48 667 0
-667 662 0
-665 662 0
-667 -665 0
-47 666 668 0
-46 666 668 0
-46 -47 668 0
-668 665 0
-45 661 671 0
-670 661 671 0
-670 -45 671 0
-671 660 0
-669 660 0
-671 -669 0
-44 670 672 0
-43 670 672 0
-43 -44 672 0
-672 669 0
-676 654 677 0
-674 654 677 0
-674 -676 677 0
-677 651 0
-675 651 0
-677 -675 652 0
-673 651 0
-677 -673 652 0
-673 -675 652 0
-677 -673 -675 653 0
-42 676 680 0
-679 676 680 0
-679 -42 680 0
-680 675 0
-678 675 0
-680 -678 0
-41 679 681 0
-40 679 681 0
-40 -41 681 0
-681 678 0
-39 674 684 0
-683 674 684 0
-683 -39 684 0
-684 673 0
-682 673 0
-684 -682 0
-38 683 685 0
-37 683 685 0
-37 -38 685 0
-685 682 0
-693 645 694 0
-689 645 694 0
-689 -693 694 0
-694 642 0
-690 642 0
-694 -690 643 0
-691 643 0
-694 -691 644 0
-692 644 0
-694 -692 0
-686 642 0
-694 -686 643 0
-687 643 0
-694 -687 644 0
-688 644 0
-694 -688 0
-686 -690 643 0
-694 -686 -690 644 0
-686 -691 644 0
-694 -686 -691 0
-686 -692 0
-694 -686 -692 0
-687 -690 644 0
-694 -687 -690 0
-687 -691 0
-694 -687 -691 0
-687 -692 0
-694 -687 -692 0
-688 -690 0
-694 -688 -690 0
-688 -691 0
-694 -688 -691 0
-688 -692 0
-694 -688 -692 0
-698 693 699 0
-696 693 699 0
-696 -698 699 0
-699 690 0
-697 690 0
-699 -697 691 0
-695 690 0
-699 -695 691 0
-695 -697 691 0
-699 -695 -697 692 0
-36 698 702 0
-701 698 702 0
-701 -36 702 0
-702 697 0
-700 697 0
-702 -700 0
-35 701 703 0
-34 701 703 0
-34 -35 703 0
-703 700 0
-33 696 706 0
-705 696 706 0
-705 -33 706 0
-706 695 0
-704 695 0
-706 -704 0
-32 705 707 0
-31 705 707 0
-31 -32 707 0
-707 704 0
-711 689 712 0
-709 689 712 0
-709 -711 712 0
-712 686 0
-710 686 0
-712 -710 687 0
-708 686 0
-712 -708 687 0
-708 -710 687 0
-712 -708 -710 688 0
-30 711 715 0
-714 711 715 0
-714 -30 715 0
-715 710 0
-713 710 0
-715 -713 0
-29 714 716 0
-28 714 716 0
-28 -29 716 0
-716 713 0
-27 709 719 0
-718 709 719 0
-718 -27 719 0
-719 708 0
-717 708 0
-719 -717 0
-26 718 720 0
-25 718 720 0
-25 -26 720 0
-720 717 0
-728 636 729 0
-724 636 729 0
-724 -728 729 0
-729 633 0
-725 633 0
-729 -725 634 0
-726 634 0
-729 -726 635 0
-727 635 0
-729 -727 0
-721 633 0
-729 -721 634 0
-722 634 0
-729 -722 635 0
-723 635 0
-729 -723 0
-721 -725 634 0
-729 -721 -725 635 0
-721 -726 635 0
-729 -721 -726 0
-721 -727 0
-729 -721 -727 0
-722 -725 635 0
-729 -722 -725 0
-722 -726 0
-729 -722 -726 0
-722 -727 0
-729 -722 -727 0
-723 -725 0
-729 -723 -725 0
-723 -726 0
-729 -723 -726 0
-723 -727 0
-729 -723 -727 0
-737 728 738 0
-733 728 738 0
-733 -737 738 0
-738 725 0
-734 725 0
-738 -734 726 0
-735 726 0
-738 -735 727 0
-736 727 0
-738 -736 0
-730 725 0
-738 -730 726 0
-731 726 0
-738 -731 727 0
-732 727 0
-738 -732 0
-730 -734 726 0
-738 -730 -734 727 0
-730 -735 727 0
-738 -730 -735 0
-730 -736 0
-738 -730 -736 0
-731 -734 727 0
-738 -731 -734 0
-731 -735 0
-738 -731 -735 0
-731 -736 0
-738 -731 -736 0
-732 -734 0
-738 -732 -734 0
-732 -735 0
-738 -732 -735 0
-732 -736 0
-738 -732 -736 0
-742 737 743 0
-740 737 743 0
-740 -742 743 0
-743 734 0
-741 734 0
-743 -741 735 0
-739 734 0
-743 -739 735 0
-739 -741 735 0
-743 -739 -741 736 0
-24 742 746 0
-745 742 746 0
-745 -24 746 0
-746 741 0
-744 741 0
-746 -744 0
-23 745 747 0
-22 745 747 0
-22 -23 747 0
-747 744 0
-21 740 750 0
-749 740 750 0
-749 -21 750 0
-750 739 0
-748 739 0
-750 -748 0
-20 749 751 0
-19 749 751 0
-19 -20 751 0
-751 748 0
-755 733 756 0
-753 733 756 0
-753 -755 756 0
-756 730 0
-754 730 0
-756 -754 731 0
-752 730 0
-756 -752 731 0
-752 -754 731 0
-756 -752 -754 732 0
-18 755 759 0
-758 755 759 0
-758 -18 759 0
-759 754 0
-757 754 0
-759 -757 0
-17 758 760 0
-16 758 760 0
-16 -17 760 0
-760 757 0
-15 753 763 0
-762 753 763 0
-762 -15 763 0
-763 752 0
-761 752 0
-763 -761 0
-14 762 764 0
-13 762 764 0
-13 -14 764 0
-764 761 0
-772 724 773 0
-768 724 773 0
-768 -772 773 0
-773 721 0
-769 721 0
-773 -769 722 0
-770 722 0
-773 -770 723 0
-771 723 0
-773 -771 0
-765 721 0
-773 -765 722 0
-766 722 0
-773 -766 723 0
-767 723 0
-773 -767 0
-765 -769 722 0
-773 -765 -769 723 0
-765 -770 723 0
-773 -765 -770 0
-765 -771 0
-773 -765 -771 0
-766 -769 723 0
-773 -766 -769 0
-766 -770 0
-773 -766 -770 0
-766 -771 0
-773 -766 -771 0
-767 -769 0
-773 -767 -769 0
-767 -770 0
-773 -767 -770 0
-767 -771 0
-773 -767 -771 0
-777 772 778 0
-775 772 778 0
-775 -777 778 0
-778 769 0
-776 769 0
-778 -776 770 0
-774 769 0
-778 -774 770 0
-774 -776 770 0
-778 -774 -776 771 0
-12 777 781 0
-780 777 781 0
-780 -12 781 0
-781 776 0
-779 776 0
-781 -779 0
-11 780 782 0
-10 780 782 0
-10 -11 782 0
-782 779 0
-9 775 785 0
-784 775 785 0
-784 -9 785 0
-785 774 0
-783 774 0
-785 -783 0
-8 784 786 0
-7 784 786 0
-7 -8 786 0
-786 783 0
-790 768 791 0
-788 768 791 0
-788 -790 791 0
-791 765 0
-789 765 0
-791 -789 766 0
-787 765 0
-791 -787 766 0
-787 -789 766 0
-791 -787 -789 767 0
-6 790 794 0
-793 790 794 0
-793 -6 794 0
-794 789 0
-792 789 0
-794 -792 0
-5 793 795 0
-4 793 795 0
-4 -5 795 0
-795 792 0
-3 788 798 0
-797 788 798 0
-797 -3 798 0
-798 787 0
-796 787 0
-798 -796 0
-2 797 799 0
-1 797 799 0
-1 -2 799 0
-799 796 0
