p cnf 1855 5849
1 102 -209 0
-1 -102 -209 0
1 -102 209 0
-1 102 209 0
209 103 -210 0
-209 -103 -210 0
209 -103 210 0
-209 103 210 0
210 104 -211 0
-210 -104 -211 0
210 -104 211 0
-210 104 211 0
211 105 -212 0
-211 -105 -212 0
211 -105 212 0
-211 105 212 0
212 189 -213 0
-212 -189 -213 0
212 -189 213 0
-212 189 213 0
213 197 -214 0
-213 -197 -214 0
213 -197 214 0
-213 197 214 0
214 201 -215 0
-214 -201 -215 0
214 -201 215 0
-214 201 215 0
-215 0
1 2 -216 0
-1 -2 -216 0
1 -2 216 0
-1 2 216 0
216 103 -217 0
-216 -103 -217 0
216 -103 217 0
-216 103 217 0
217 104 -218 0
-217 -104 -218 0
217 -104 218 0
-217 104 218 0
218 106 -219 0
-218 -106 -219 0
218 -106 219 0
-218 106 219 0
219 190 -220 0
-219 -190 -220 0
219 -190 220 0
-219 190 220 0
220 198 -221 0
-220 -198 -221 0
220 -198 221 0
-220 198 221 0
221 202 -222 0
-221 -202 -222 0
221 -202 222 0
-221 202 222 0
-222 0
1 2 -223 0
-1 -2 -223 0
1 -2 223 0
-1 2 223 0
223 3 -224 0
-223 -3 -224 0
223 -3 224 0
-223 3 224 0
224 104 -225 0
-224 -104 -225 0
224 -104 225 0
-224 104 225 0
225 107 -226 0
-225 -107 -226 0
225 -107 226 0
-225 107 226 0
226 191 -227 0
-226 -191 -227 0
226 -191 227 0
-226 191 227 0
227 199 -228 0
-227 -199 -228 0
227 -199 228 0
-227 199 228 0
228 203 -229 0
-228 -203 -229 0
228 -203 229 0
-228 203 229 0
-229 0
1 2 -230 0
-1 -2 -230 0
1 -2 230 0
-1 2 230 0
230 3 -231 0
-230 -3 -231 0
230 -3 231 0
-230 3 231 0
231 4 -232 0
-231 -4 -232 0
231 -4 232 0
-231 4 232 0
232 108 -233 0
-232 -108 -233 0
232 -108 233 0
-232 108 233 0
233 192 -234 0
-233 -192 -234 0
233 -192 234 0
-233 192 234 0
234 200 -235 0
-234 -200 -235 0
234 -200 235 0
-234 200 235 0
235 204 -236 0
-235 -204 -236 0
235 -204 236 0
-235 204 236 0
-236 0
2 3 -237 0
-2 -3 -237 0
2 -3 237 0
-2 3 237 0
237 4 -238 0
-237 -4 -238 0
237 -4 238 0
-237 4 238 0
238 5 -239 0
-238 -5 -239 0
238 -5 239 0
-238 5 239 0
239 109 -240 0
-239 -109 -240 0
239 -109 240 0
-239 109 240 0
240 193 -241 0
-240 -193 -241 0
240 -193 241 0
-240 193 241 0
241 201 -242 0
-241 -201 -242 0
241 -201 242 0
-241 201 242 0
242 205 -243 0
-242 -205 -243 0
242 -205 243 0
-242 205 243 0
-243 0
3 4 -244 0
-3 -4 -244 0
3 -4 244 0
-3 4 244 0
244 5 -245 0
-244 -5 -245 0
244 -5 245 0
-244 5 245 0
245 6 -246 0
-245 -6 -246 0
245 -6 246 0
-245 6 246 0
246 110 -247 0
-246 -110 -247 0
246 -110 247 0
-246 110 247 0
247 194 -248 0
-247 -194 -248 0
247 -194 248 0
-247 194 248 0
248 202 -249 0
-248 -202 -249 0
248 -202 249 0
-248 202 249 0
249 206 -250 0
-249 -206 -250 0
249 -206 250 0
-249 206 250 0
-250 0
4 5 -251 0
-4 -5 -251 0
4 -5 251 0
-4 5 251 0
251 6 -252 0
-251 -6 -252 0
251 -6 252 0
-251 6 252 0
252 7 -253 0
-252 -7 -253 0
252 -7 253 0
-252 7 253 0
253 111 -254 0
-253 -111 -254 0
253 -111 254 0
-253 111 254 0
254 195 -255 0
-254 -195 -255 0
254 -195 255 0
-254 195 255 0
255 203 -256 0
-255 -203 -256 0
255 -203 256 0
-255 203 256 0
256 207 -257 0
-256 -207 -257 0
256 -207 257 0
-256 207 257 0
-257 0
5 6 -258 0
-5 -6 -258 0
5 -6 258 0
-5 6 258 0
258 7 -259 0
-258 -7 -259 0
258 -7 259 0
-258 7 259 0
259 8 -260 0
-259 -8 -260 0
259 -8 260 0
-259 8 260 0
260 112 -261 0
-260 -112 -261 0
260 -112 261 0
-260 112 261 0
261 196 -262 0
-261 -196 -262 0
261 -196 262 0
-261 196 262 0
262 204 -263 0
-262 -204 -263 0
262 -204 263 0
-262 204 263 0
263 208 -264 0
-263 -208 -264 0
263 -208 264 0
-263 208 264 0
-264 0
6 7 -265 0
-6 -7 -265 0
6 -7 265 0
-6 7 265 0
265 8 -266 0
-265 -8 -266 0
265 -8 266 0
-265 8 266 0
266 9 -267 0
-266 -9 -267 0
266 -9 267 0
-266 9 267 0
267 105 -268 0
-267 -105 -268 0
267 -105 268 0
-267 105 268 0
268 113 -269 0
-268 -113 -269 0
268 -113 269 0
-268 113 269 0
269 197 -270 0
-269 -197 -270 0
269 -197 270 0
-269 197 270 0
270 205 -271 0
-270 -205 -271 0
270 -205 271 0
-270 205 271 0
-271 0
7 8 -272 0
-7 -8 -272 0
7 -8 272 0
-7 8 272 0
272 9 -273 0
-272 -9 -273 0
272 -9 273 0
-272 9 273 0
273 10 -274 0
-273 -10 -274 0
273 -10 274 0
-273 10 274 0
274 106 -275 0
-274 -106 -275 0
274 -106 275 0
-274 106 275 0
275 114 -276 0
-275 -114 -276 0
275 -114 276 0
-275 114 276 0
276 198 -277 0
-276 -198 -277 0
276 -198 277 0
-276 198 277 0
277 206 -278 0
-277 -206 -278 0
277 -206 278 0
-277 206 278 0
-278 0
8 9 -279 0
-8 -9 -279 0
8 -9 279 0
-8 9 279 0
279 10 -280 0
-279 -10 -280 0
279 -10 280 0
-279 10 280 0
280 11 -281 0
-280 -11 -281 0
280 -11 281 0
-280 11 281 0
281 107 -282 0
-281 -107 -282 0
281 -107 282 0
-281 107 282 0
282 115 -283 0
-282 -115 -283 0
282 -115 283 0
-282 115 283 0
283 199 -284 0
-283 -199 -284 0
283 -199 284 0
-283 199 284 0
284 207 -285 0
-284 -207 -285 0
284 -207 285 0
-284 207 285 0
-285 0
9 10 -286 0
-9 -10 -286 0
9 -10 286 0
-9 10 286 0
286 11 -287 0
-286 -11 -287 0
286 -11 287 0
-286 11 287 0
287 12 -288 0
-287 -12 -288 0
287 -12 288 0
-287 12 288 0
288 108 -289 0
-288 -108 -289 0
288 -108 289 0
-288 108 289 0
289 116 -290 0
-289 -116 -290 0
289 -116 290 0
-289 116 290 0
290 200 -291 0
-290 -200 -291 0
290 -200 291 0
-290 200 291 0
291 208 -292 0
-291 -208 -292 0
291 -208 292 0
-291 208 292 0
-292 0
10 11 -293 0
-10 -11 -293 0
10 -11 293 0
-10 11 293 0
293 12 -294 0
-293 -12 -294 0
293 -12 294 0
-293 12 294 0
294 13 -295 0
-294 -13 -295 0
294 -13 295 0
-294 13 295 0
295 105 -296 0
-295 -105 -296 0
295 -105 296 0
-295 105 296 0
296 109 -297 0
-296 -109 -297 0
296 -109 297 0
-296 109 297 0
297 117 -298 0
-297 -117 -298 0
297 -117 298 0
-297 117 298 0
298 201 -299 0
-298 -201 -299 0
298 -201 299 0
-298 201 299 0
-299 0
11 12 -300 0
-11 -12 -300 0
11 -12 300 0
-11 12 300 0
300 13 -301 0
-300 -13 -301 0
300 -13 301 0
-300 13 301 0
301 14 -302 0
-301 -14 -302 0
301 -14 302 0
-301 14 302 0
302 106 -303 0
-302 -106 -303 0
302 -106 303 0
-302 106 303 0
303 110 -304 0
-303 -110 -304 0
303 -110 304 0
-303 110 304 0
304 118 -305 0
-304 -118 -305 0
304 -118 305 0
-304 118 305 0
305 202 -306 0
-305 -202 -306 0
305 -202 306 0
-305 202 306 0
-306 0
12 13 -307 0
-12 -13 -307 0
12 -13 307 0
-12 13 307 0
307 14 -308 0
-307 -14 -308 0
307 -14 308 0
-307 14 308 0
308 15 -309 0
-308 -15 -309 0
308 -15 309 0
-308 15 309 0
309 107 -310 0
-309 -107 -310 0
309 -107 310 0
-309 107 310 0
310 111 -311 0
-310 -111 -311 0
310 -111 311 0
-310 111 311 0
311 119 -312 0
-311 -119 -312 0
311 -119 312 0
-311 119 312 0
312 203 -313 0
-312 -203 -313 0
312 -203 313 0
-312 203 313 0
-313 0
13 14 -314 0
-13 -14 -314 0
13 -14 314 0
-13 14 314 0
314 15 -315 0
-314 -15 -315 0
314 -15 315 0
-314 15 315 0
315 16 -316 0
-315 -16 -316 0
315 -16 316 0
-315 16 316 0
316 108 -317 0
-316 -108 -317 0
316 -108 317 0
-316 108 317 0
317 112 -318 0
-317 -112 -318 0
317 -112 318 0
-317 112 318 0
318 120 -319 0
-318 -120 -319 0
318 -120 319 0
-318 120 319 0
319 204 -320 0
-319 -204 -320 0
319 -204 320 0
-319 204 320 0
-320 0
14 15 -321 0
-14 -15 -321 0
14 -15 321 0
-14 15 321 0
321 16 -322 0
-321 -16 -322 0
321 -16 322 0
-321 16 322 0
322 17 -323 0
-322 -17 -323 0
322 -17 323 0
-322 17 323 0
323 109 -324 0
-323 -109 -324 0
323 -109 324 0
-323 109 324 0
324 113 -325 0
-324 -113 -325 0
324 -113 325 0
-324 113 325 0
325 121 -326 0
-325 -121 -326 0
325 -121 326 0
-325 121 326 0
326 205 -327 0
-326 -205 -327 0
326 -205 327 0
-326 205 327 0
-327 0
15 16 -328 0
-15 -16 -328 0
15 -16 328 0
-15 16 328 0
328 17 -329 0
-328 -17 -329 0
328 -17 329 0
-328 17 329 0
329 18 -330 0
-329 -18 -330 0
329 -18 330 0
-329 18 330 0
330 110 -331 0
-330 -110 -331 0
330 -110 331 0
-330 110 331 0
331 114 -332 0
-331 -114 -332 0
331 -114 332 0
-331 114 332 0
332 122 -333 0
-332 -122 -333 0
332 -122 333 0
-332 122 333 0
333 206 -334 0
-333 -206 -334 0
333 -206 334 0
-333 206 334 0
-334 0
16 17 -335 0
-16 -17 -335 0
16 -17 335 0
-16 17 335 0
335 18 -336 0
-335 -18 -336 0
335 -18 336 0
-335 18 336 0
336 19 -337 0
-336 -19 -337 0
336 -19 337 0
-336 19 337 0
337 111 -338 0
-337 -111 -338 0
337 -111 338 0
-337 111 338 0
338 115 -339 0
-338 -115 -339 0
338 -115 339 0
-338 115 339 0
339 123 -340 0
-339 -123 -340 0
339 -123 340 0
-339 123 340 0
340 207 -341 0
-340 -207 -341 0
340 -207 341 0
-340 207 341 0
-341 0
17 18 -342 0
-17 -18 -342 0
17 -18 342 0
-17 18 342 0
342 19 -343 0
-342 -19 -343 0
342 -19 343 0
-342 19 343 0
343 20 -344 0
-343 -20 -344 0
343 -20 344 0
-343 20 344 0
344 112 -345 0
-344 -112 -345 0
344 -112 345 0
-344 112 345 0
345 116 -346 0
-345 -116 -346 0
345 -116 346 0
-345 116 346 0
346 124 -347 0
-346 -124 -347 0
346 -124 347 0
-346 124 347 0
347 208 -348 0
-347 -208 -348 0
347 -208 348 0
-347 208 348 0
-348 0
18 19 -349 0
-18 -19 -349 0
18 -19 349 0
-18 19 349 0
349 20 -350 0
-349 -20 -350 0
349 -20 350 0
-349 20 350 0
350 21 -351 0
-350 -21 -351 0
350 -21 351 0
-350 21 351 0
351 105 -352 0
-351 -105 -352 0
351 -105 352 0
-351 105 352 0
352 113 -353 0
-352 -113 -353 0
352 -113 353 0
-352 113 353 0
353 117 -354 0
-353 -117 -354 0
353 -117 354 0
-353 117 354 0
354 125 -355 0
-354 -125 -355 0
354 -125 355 0
-354 125 355 0
-355 0
19 20 -356 0
-19 -20 -356 0
19 -20 356 0
-19 20 356 0
356 21 -357 0
-356 -21 -357 0
356 -21 357 0
-356 21 357 0
357 22 -358 0
-357 -22 -358 0
357 -22 358 0
-357 22 358 0
358 106 -359 0
-358 -106 -359 0
358 -106 359 0
-358 106 359 0
359 114 -360 0
-359 -114 -360 0
359 -114 360 0
-359 114 360 0
360 118 -361 0
-360 -118 -361 0
360 -118 361 0
-360 118 361 0
361 126 -362 0
-361 -126 -362 0
361 -126 362 0
-361 126 362 0
-362 0
20 21 -363 0
-20 -21 -363 0
20 -21 363 0
-20 21 363 0
363 22 -364 0
-363 -22 -364 0
363 -22 364 0
-363 22 364 0
364 23 -365 0
-364 -23 -365 0
364 -23 365 0
-364 23 365 0
365 107 -366 0
-365 -107 -366 0
365 -107 366 0
-365 107 366 0
366 115 -367 0
-366 -115 -367 0
366 -115 367 0
-366 115 367 0
367 119 -368 0
-367 -119 -368 0
367 -119 368 0
-367 119 368 0
368 127 -369 0
-368 -127 -369 0
368 -127 369 0
-368 127 369 0
-369 0
21 22 -370 0
-21 -22 -370 0
21 -22 370 0
-21 22 370 0
370 23 -371 0
-370 -23 -371 0
370 -23 371 0
-370 23 371 0
371 24 -372 0
-371 -24 -372 0
371 -24 372 0
-371 24 372 0
372 108 -373 0
-372 -108 -373 0
372 -108 373 0
-372 108 373 0
373 116 -374 0
-373 -116 -374 0
373 -116 374 0
-373 116 374 0
374 120 -375 0
-374 -120 -375 0
374 -120 375 0
-374 120 375 0
375 128 -376 0
-375 -128 -376 0
375 -128 376 0
-375 128 376 0
-376 0
22 23 -377 0
-22 -23 -377 0
22 -23 377 0
-22 23 377 0
377 24 -378 0
-377 -24 -378 0
377 -24 378 0
-377 24 378 0
378 25 -379 0
-378 -25 -379 0
378 -25 379 0
-378 25 379 0
379 109 -380 0
-379 -109 -380 0
379 -109 380 0
-379 109 380 0
380 117 -381 0
-380 -117 -381 0
380 -117 381 0
-380 117 381 0
381 121 -382 0
-381 -121 -382 0
381 -121 382 0
-381 121 382 0
382 129 -383 0
-382 -129 -383 0
382 -129 383 0
-382 129 383 0
-383 0
23 24 -384 0
-23 -24 -384 0
23 -24 384 0
-23 24 384 0
384 25 -385 0
-384 -25 -385 0
384 -25 385 0
-384 25 385 0
385 26 -386 0
-385 -26 -386 0
385 -26 386 0
-385 26 386 0
386 110 -387 0
-386 -110 -387 0
386 -110 387 0
-386 110 387 0
387 118 -388 0
-387 -118 -388 0
387 -118 388 0
-387 118 388 0
388 122 -389 0
-388 -122 -389 0
388 -122 389 0
-388 122 389 0
389 130 -390 0
-389 -130 -390 0
389 -130 390 0
-389 130 390 0
-390 0
24 25 -391 0
-24 -25 -391 0
24 -25 391 0
-24 25 391 0
391 26 -392 0
-391 -26 -392 0
391 -26 392 0
-391 26 392 0
392 27 -393 0
-392 -27 -393 0
392 -27 393 0
-392 27 393 0
393 111 -394 0
-393 -111 -394 0
393 -111 394 0
-393 111 394 0
394 119 -395 0
-394 -119 -395 0
394 -119 395 0
-394 119 395 0
395 123 -396 0
-395 -123 -396 0
395 -123 396 0
-395 123 396 0
396 131 -397 0
-396 -131 -397 0
396 -131 397 0
-396 131 397 0
-397 0
25 26 -398 0
-25 -26 -398 0
25 -26 398 0
-25 26 398 0
398 27 -399 0
-398 -27 -399 0
398 -27 399 0
-398 27 399 0
399 28 -400 0
-399 -28 -400 0
399 -28 400 0
-399 28 400 0
400 112 -401 0
-400 -112 -401 0
400 -112 401 0
-400 112 401 0
401 120 -402 0
-401 -120 -402 0
401 -120 402 0
-401 120 402 0
402 124 -403 0
-402 -124 -403 0
402 -124 403 0
-402 124 403 0
403 132 -404 0
-403 -132 -404 0
403 -132 404 0
-403 132 404 0
-404 0
26 27 -405 0
-26 -27 -405 0
26 -27 405 0
-26 27 405 0
405 28 -406 0
-405 -28 -406 0
405 -28 406 0
-405 28 406 0
406 29 -407 0
-406 -29 -407 0
406 -29 407 0
-406 29 407 0
407 113 -408 0
-407 -113 -408 0
407 -113 408 0
-407 113 408 0
408 121 -409 0
-408 -121 -409 0
408 -121 409 0
-408 121 409 0
409 125 -410 0
-409 -125 -410 0
409 -125 410 0
-409 125 410 0
410 133 -411 0
-410 -133 -411 0
410 -133 411 0
-410 133 411 0
-411 0
27 28 -412 0
-27 -28 -412 0
27 -28 412 0
-27 28 412 0
412 29 -413 0
-412 -29 -413 0
412 -29 413 0
-412 29 413 0
413 30 -414 0
-413 -30 -414 0
413 -30 414 0
-413 30 414 0
414 114 -415 0
-414 -114 -415 0
414 -114 415 0
-414 114 415 0
415 122 -416 0
-415 -122 -416 0
415 -122 416 0
-415 122 416 0
416 126 -417 0
-416 -126 -417 0
416 -126 417 0
-416 126 417 0
417 134 -418 0
-417 -134 -418 0
417 -134 418 0
-417 134 418 0
-418 0
28 29 -419 0
-28 -29 -419 0
28 -29 419 0
-28 29 419 0
419 30 -420 0
-419 -30 -420 0
419 -30 420 0
-419 30 420 0
420 31 -421 0
-420 -31 -421 0
420 -31 421 0
-420 31 421 0
421 115 -422 0
-421 -115 -422 0
421 -115 422 0
-421 115 422 0
422 123 -423 0
-422 -123 -423 0
422 -123 423 0
-422 123 423 0
423 127 -424 0
-423 -127 -424 0
423 -127 424 0
-423 127 424 0
424 135 -425 0
-424 -135 -425 0
424 -135 425 0
-424 135 425 0
-425 0
29 30 -426 0
-29 -30 -426 0
29 -30 426 0
-29 30 426 0
426 31 -427 0
-426 -31 -427 0
426 -31 427 0
-426 31 427 0
427 32 -428 0
-427 -32 -428 0
427 -32 428 0
-427 32 428 0
428 116 -429 0
-428 -116 -429 0
428 -116 429 0
-428 116 429 0
429 124 -430 0
-429 -124 -430 0
429 -124 430 0
-429 124 430 0
430 128 -431 0
-430 -128 -431 0
430 -128 431 0
-430 128 431 0
431 136 -432 0
-431 -136 -432 0
431 -136 432 0
-431 136 432 0
-432 0
30 31 -433 0
-30 -31 -433 0
30 -31 433 0
-30 31 433 0
433 32 -434 0
-433 -32 -434 0
433 -32 434 0
-433 32 434 0
434 33 -435 0
-434 -33 -435 0
434 -33 435 0
-434 33 435 0
435 117 -436 0
-435 -117 -436 0
435 -117 436 0
-435 117 436 0
436 125 -437 0
-436 -125 -437 0
436 -125 437 0
-436 125 437 0
437 129 -438 0
-437 -129 -438 0
437 -129 438 0
-437 129 438 0
438 137 -439 0
-438 -137 -439 0
438 -137 439 0
-438 137 439 0
-439 0
31 32 -440 0
-31 -32 -440 0
31 -32 440 0
-31 32 440 0
440 33 -441 0
-440 -33 -441 0
440 -33 441 0
-440 33 441 0
441 34 -442 0
-441 -34 -442 0
441 -34 442 0
-441 34 442 0
442 118 -443 0
-442 -118 -443 0
442 -118 443 0
-442 118 443 0
443 126 -444 0
-443 -126 -444 0
443 -126 444 0
-443 126 444 0
444 130 -445 0
-444 -130 -445 0
444 -130 445 0
-444 130 445 0
445 138 -446 0
-445 -138 -446 0
445 -138 446 0
-445 138 446 0
-446 0
32 33 -447 0
-32 -33 -447 0
32 -33 447 0
-32 33 447 0
447 34 -448 0
-447 -34 -448 0
447 -34 448 0
-447 34 448 0
448 35 -449 0
-448 -35 -449 0
448 -35 449 0
-448 35 449 0
449 119 -450 0
-449 -119 -450 0
449 -119 450 0
-449 119 450 0
450 127 -451 0
-450 -127 -451 0
450 -127 451 0
-450 127 451 0
451 131 -452 0
-451 -131 -452 0
451 -131 452 0
-451 131 452 0
452 139 -453 0
-452 -139 -453 0
452 -139 453 0
-452 139 453 0
-453 0
33 34 -454 0
-33 -34 -454 0
33 -34 454 0
-33 34 454 0
454 35 -455 0
-454 -35 -455 0
454 -35 455 0
-454 35 455 0
455 36 -456 0
-455 -36 -456 0
455 -36 456 0
-455 36 456 0
456 120 -457 0
-456 -120 -457 0
456 -120 457 0
-456 120 457 0
457 128 -458 0
-457 -128 -458 0
457 -128 458 0
-457 128 458 0
458 132 -459 0
-458 -132 -459 0
458 -132 459 0
-458 132 459 0
459 140 -460 0
-459 -140 -460 0
459 -140 460 0
-459 140 460 0
-460 0
34 35 -461 0
-34 -35 -461 0
34 -35 461 0
-34 35 461 0
461 36 -462 0
-461 -36 -462 0
461 -36 462 0
-461 36 462 0
462 37 -463 0
-462 -37 -463 0
462 -37 463 0
-462 37 463 0
463 121 -464 0
-463 -121 -464 0
463 -121 464 0
-463 121 464 0
464 129 -465 0
-464 -129 -465 0
464 -129 465 0
-464 129 465 0
465 133 -466 0
-465 -133 -466 0
465 -133 466 0
-465 133 466 0
466 141 -467 0
-466 -141 -467 0
466 -141 467 0
-466 141 467 0
-467 0
35 36 -468 0
-35 -36 -468 0
35 -36 468 0
-35 36 468 0
468 37 -469 0
-468 -37 -469 0
468 -37 469 0
-468 37 469 0
469 38 -470 0
-469 -38 -470 0
469 -38 470 0
-469 38 470 0
470 122 -471 0
-470 -122 -471 0
470 -122 471 0
-470 122 471 0
471 130 -472 0
-471 -130 -472 0
471 -130 472 0
-471 130 472 0
472 134 -473 0
-472 -134 -473 0
472 -134 473 0
-472 134 473 0
473 142 -474 0
-473 -142 -474 0
473 -142 474 0
-473 142 474 0
-474 0
36 37 -475 0
-36 -37 -475 0
36 -37 475 0
-36 37 475 0
475 38 -476 0
-475 -38 -476 0
475 -38 476 0
-475 38 476 0
476 39 -477 0
-476 -39 -477 0
476 -39 477 0
-476 39 477 0
477 123 -478 0
-477 -123 -478 0
477 -123 478 0
-477 123 478 0
478 131 -479 0
-478 -131 -479 0
478 -131 479 0
-478 131 479 0
479 135 -480 0
-479 -135 -480 0
479 -135 480 0
-479 135 480 0
480 143 -481 0
-480 -143 -481 0
480 -143 481 0
-480 143 481 0
-481 0
37 38 -482 0
-37 -38 -482 0
37 -38 482 0
-37 38 482 0
482 39 -483 0
-482 -39 -483 0
482 -39 483 0
-482 39 483 0
483 40 -484 0
-483 -40 -484 0
483 -40 484 0
-483 40 484 0
484 124 -485 0
-484 -124 -485 0
484 -124 485 0
-484 124 485 0
485 132 -486 0
-485 -132 -486 0
485 -132 486 0
-485 132 486 0
486 136 -487 0
-486 -136 -487 0
486 -136 487 0
-486 136 487 0
487 144 -488 0
-487 -144 -488 0
487 -144 488 0
-487 144 488 0
-488 0
38 39 -489 0
-38 -39 -489 0
38 -39 489 0
-38 39 489 0
489 40 -490 0
-489 -40 -490 0
489 -40 490 0
-489 40 490 0
490 41 -491 0
-490 -41 -491 0
490 -41 491 0
-490 41 491 0
491 125 -492 0
-491 -125 -492 0
491 -125 492 0
-491 125 492 0
492 133 -493 0
-492 -133 -493 0
492 -133 493 0
-492 133 493 0
493 137 -494 0
-493 -137 -494 0
493 -137 494 0
-493 137 494 0
494 145 -495 0
-494 -145 -495 0
494 -145 495 0
-494 145 495 0
-495 0
39 40 -496 0
-39 -40 -496 0
39 -40 496 0
-39 40 496 0
496 41 -497 0
-496 -41 -497 0
496 -41 497 0
-496 41 497 0
497 42 -498 0
-497 -42 -498 0
497 -42 498 0
-497 42 498 0
498 126 -499 0
-498 -126 -499 0
498 -126 499 0
-498 126 499 0
499 134 -500 0
-499 -134 -500 0
499 -134 500 0
-499 134 500 0
500 138 -501 0
-500 -138 -501 0
500 -138 501 0
-500 138 501 0
501 146 -502 0
-501 -146 -502 0
501 -146 502 0
-501 146 502 0
-502 0
40 41 -503 0
-40 -41 -503 0
40 -41 503 0
-40 41 503 0
503 42 -504 0
-503 -42 -504 0
503 -42 504 0
-503 42 504 0
504 43 -505 0
-504 -43 -505 0
504 -43 505 0
-504 43 505 0
505 127 -506 0
-505 -127 -506 0
505 -127 506 0
-505 127 506 0
506 135 -507 0
-506 -135 -507 0
506 -135 507 0
-506 135 507 0
507 139 -508 0
-507 -139 -508 0
507 -139 508 0
-507 139 508 0
508 147 -509 0
-508 -147 -509 0
508 -147 509 0
-508 147 509 0
-509 0
41 42 -510 0
-41 -42 -510 0
41 -42 510 0
-41 42 510 0
510 43 -511 0
-510 -43 -511 0
510 -43 511 0
-510 43 511 0
511 44 -512 0
-511 -44 -512 0
511 -44 512 0
-511 44 512 0
512 128 -513 0
-512 -128 -513 0
512 -128 513 0
-512 128 513 0
513 136 -514 0
-513 -136 -514 0
513 -136 514 0
-513 136 514 0
514 140 -515 0
-514 -140 -515 0
514 -140 515 0
-514 140 515 0
515 148 -516 0
-515 -148 -516 0
515 -148 516 0
-515 148 516 0
-516 0
42 43 -517 0
-42 -43 -517 0
42 -43 517 0
-42 43 517 0
517 44 -518 0
-517 -44 -518 0
517 -44 518 0
-517 44 518 0
518 45 -519 0
-518 -45 -519 0
518 -45 519 0
-518 45 519 0
519 129 -520 0
-519 -129 -520 0
519 -129 520 0
-519 129 520 0
520 137 -521 0
-520 -137 -521 0
520 -137 521 0
-520 137 521 0
521 141 -522 0
-521 -141 -522 0
521 -141 522 0
-521 141 522 0
522 149 -523 0
-522 -149 -523 0
522 -149 523 0
-522 149 523 0
-523 0
43 44 -524 0
-43 -44 -524 0
43 -44 524 0
-43 44 524 0
524 45 -525 0
-524 -45 -525 0
524 -45 525 0
-524 45 525 0
525 46 -526 0
-525 -46 -526 0
525 -46 526 0
-525 46 526 0
526 130 -527 0
-526 -130 -527 0
526 -130 527 0
-526 130 527 0
527 138 -528 0
-527 -138 -528 0
527 -138 528 0
-527 138 528 0
528 142 -529 0
-528 -142 -529 0
528 -142 529 0
-528 142 529 0
529 150 -530 0
-529 -150 -530 0
529 -150 530 0
-529 150 530 0
-530 0
44 45 -531 0
-44 -45 -531 0
44 -45 531 0
-44 45 531 0
531 46 -532 0
-531 -46 -532 0
531 -46 532 0
-531 46 532 0
532 47 -533 0
-532 -47 -533 0
532 -47 533 0
-532 47 533 0
533 131 -534 0
-533 -131 -534 0
533 -131 534 0
-533 131 534 0
534 139 -535 0
-534 -139 -535 0
534 -139 535 0
-534 139 535 0
535 143 -536 0
-535 -143 -536 0
535 -143 536 0
-535 143 536 0
536 151 -537 0
-536 -151 -537 0
536 -151 537 0
-536 151 537 0
-537 0
45 46 -538 0
-45 -46 -538 0
45 -46 538 0
-45 46 538 0
538 47 -539 0
-538 -47 -539 0
538 -47 539 0
-538 47 539 0
539 48 -540 0
-539 -48 -540 0
539 -48 540 0
-539 48 540 0
540 132 -541 0
-540 -132 -541 0
540 -132 541 0
-540 132 541 0
541 140 -542 0
-541 -140 -542 0
541 -140 542 0
-541 140 542 0
542 144 -543 0
-542 -144 -543 0
542 -144 543 0
-542 144 543 0
543 152 -544 0
-543 -152 -544 0
543 -152 544 0
-543 152 544 0
-544 0
46 47 -545 0
-46 -47 -545 0
46 -47 545 0
-46 47 545 0
545 48 -546 0
-545 -48 -546 0
545 -48 546 0
-545 48 546 0
546 49 -547 0
-546 -49 -547 0
546 -49 547 0
-546 49 547 0
547 133 -548 0
-547 -133 -548 0
547 -133 548 0
-547 133 548 0
548 141 -549 0
-548 -141 -549 0
548 -141 549 0
-548 141 549 0
549 145 -550 0
-549 -145 -550 0
549 -145 550 0
-549 145 550 0
550 153 -551 0
-550 -153 -551 0
550 -153 551 0
-550 153 551 0
-551 0
47 48 -552 0
-47 -48 -552 0
47 -48 552 0
-47 48 552 0
552 49 -553 0
-552 -49 -553 0
552 -49 553 0
-552 49 553 0
553 50 -554 0
-553 -50 -554 0
553 -50 554 0
-553 50 554 0
554 134 -555 0
-554 -134 -555 0
554 -134 555 0
-554 134 555 0
555 142 -556 0
-555 -142 -556 0
555 -142 556 0
-555 142 556 0
556 146 -557 0
-556 -146 -557 0
556 -146 557 0
-556 146 557 0
557 154 -558 0
-557 -154 -558 0
557 -154 558 0
-557 154 558 0
-558 0
48 49 -559 0
-48 -49 -559 0
48 -49 559 0
-48 49 559 0
559 50 -560 0
-559 -50 -560 0
559 -50 560 0
-559 50 560 0
560 51 -561 0
-560 -51 -561 0
560 -51 561 0
-560 51 561 0
561 135 -562 0
-561 -135 -562 0
561 -135 562 0
-561 135 562 0
562 143 -563 0
-562 -143 -563 0
562 -143 563 0
-562 143 563 0
563 147 -564 0
-563 -147 -564 0
563 -147 564 0
-563 147 564 0
564 155 -565 0
-564 -155 -565 0
564 -155 565 0
-564 155 565 0
-565 0
49 50 -566 0
-49 -50 -566 0
49 -50 566 0
-49 50 566 0
566 51 -567 0
-566 -51 -567 0
566 -51 567 0
-566 51 567 0
567 52 -568 0
-567 -52 -568 0
567 -52 568 0
-567 52 568 0
568 136 -569 0
-568 -136 -569 0
568 -136 569 0
-568 136 569 0
569 144 -570 0
-569 -144 -570 0
569 -144 570 0
-569 144 570 0
570 148 -571 0
-570 -148 -571 0
570 -148 571 0
-570 148 571 0
571 156 -572 0
-571 -156 -572 0
571 -156 572 0
-571 156 572 0
-572 0
50 51 -573 0
-50 -51 -573 0
50 -51 573 0
-50 51 573 0
573 52 -574 0
-573 -52 -574 0
573 -52 574 0
-573 52 574 0
574 53 -575 0
-574 -53 -575 0
574 -53 575 0
-574 53 575 0
575 137 -576 0
-575 -137 -576 0
575 -137 576 0
-575 137 576 0
576 145 -577 0
-576 -145 -577 0
576 -145 577 0
-576 145 577 0
577 149 -578 0
-577 -149 -578 0
577 -149 578 0
-577 149 578 0
578 157 -579 0
-578 -157 -579 0
578 -157 579 0
-578 157 579 0
-579 0
51 52 -580 0
-51 -52 -580 0
51 -52 580 0
-51 52 580 0
580 53 -581 0
-580 -53 -581 0
580 -53 581 0
-580 53 581 0
581 54 -582 0
-581 -54 -582 0
581 -54 582 0
-581 54 582 0
582 138 -583 0
-582 -138 -583 0
582 -138 583 0
-582 138 583 0
583 146 -584 0
-583 -146 -584 0
583 -146 584 0
-583 146 584 0
584 150 -585 0
-584 -150 -585 0
584 -150 585 0
-584 150 585 0
585 158 -586 0
-585 -158 -586 0
585 -158 586 0
-585 158 586 0
-586 0
52 53 -587 0
-52 -53 -587 0
52 -53 587 0
-52 53 587 0
587 54 -588 0
-587 -54 -588 0
587 -54 588 0
-587 54 588 0
588 55 -589 0
-588 -55 -589 0
588 -55 589 0
-588 55 589 0
589 139 -590 0
-589 -139 -590 0
589 -139 590 0
-589 139 590 0
590 147 -591 0
-590 -147 -591 0
590 -147 591 0
-590 147 591 0
591 151 -592 0
-591 -151 -592 0
591 -151 592 0
-591 151 592 0
592 159 -593 0
-592 -159 -593 0
592 -159 593 0
-592 159 593 0
-593 0
53 54 -594 0
-53 -54 -594 0
53 -54 594 0
-53 54 594 0
594 55 -595 0
-594 -55 -595 0
594 -55 595 0
-594 55 595 0
595 56 -596 0
-595 -56 -596 0
595 -56 596 0
-595 56 596 0
596 140 -597 0
-596 -140 -597 0
596 -140 597 0
-596 140 597 0
597 148 -598 0
-597 -148 -598 0
597 -148 598 0
-597 148 598 0
598 152 -599 0
-598 -152 -599 0
598 -152 599 0
-598 152 599 0
599 160 -600 0
-599 -160 -600 0
599 -160 600 0
-599 160 600 0
-600 0
54 55 -601 0
-54 -55 -601 0
54 -55 601 0
-54 55 601 0
601 56 -602 0
-601 -56 -602 0
601 -56 602 0
-601 56 602 0
602 57 -603 0
-602 -57 -603 0
602 -57 603 0
-602 57 603 0
603 141 -604 0
-603 -141 -604 0
603 -141 604 0
-603 141 604 0
604 149 -605 0
-604 -149 -605 0
604 -149 605 0
-604 149 605 0
605 153 -606 0
-605 -153 -606 0
605 -153 606 0
-605 153 606 0
606 161 -607 0
-606 -161 -607 0
606 -161 607 0
-606 161 607 0
-607 0
55 56 -608 0
-55 -56 -608 0
55 -56 608 0
-55 56 608 0
608 57 -609 0
-608 -57 -609 0
608 -57 609 0
-608 57 609 0
609 58 -610 0
-609 -58 -610 0
609 -58 610 0
-609 58 610 0
610 142 -611 0
-610 -142 -611 0
610 -142 611 0
-610 142 611 0
611 150 -612 0
-611 -150 -612 0
611 -150 612 0
-611 150 612 0
612 154 -613 0
-612 -154 -613 0
612 -154 613 0
-612 154 613 0
613 162 -614 0
-613 -162 -614 0
613 -162 614 0
-613 162 614 0
-614 0
56 57 -615 0
-56 -57 -615 0
56 -57 615 0
-56 57 615 0
615 58 -616 0
-615 -58 -616 0
615 -58 616 0
-615 58 616 0
616 59 -617 0
-616 -59 -617 0
616 -59 617 0
-616 59 617 0
617 143 -618 0
-617 -143 -618 0
617 -143 618 0
-617 143 618 0
618 151 -619 0
-618 -151 -619 0
618 -151 619 0
-618 151 619 0
619 155 -620 0
-619 -155 -620 0
619 -155 620 0
-619 155 620 0
620 163 -621 0
-620 -163 -621 0
620 -163 621 0
-620 163 621 0
-621 0
57 58 -622 0
-57 -58 -622 0
57 -58 622 0
-57 58 622 0
622 59 -623 0
-622 -59 -623 0
622 -59 623 0
-622 59 623 0
623 60 -624 0
-623 -60 -624 0
623 -60 624 0
-623 60 624 0
624 144 -625 0
-624 -144 -625 0
624 -144 625 0
-624 144 625 0
625 152 -626 0
-625 -152 -626 0
625 -152 626 0
-625 152 626 0
626 156 -627 0
-626 -156 -627 0
626 -156 627 0
-626 156 627 0
627 164 -628 0
-627 -164 -628 0
627 -164 628 0
-627 164 628 0
-628 0
58 59 -629 0
-58 -59 -629 0
58 -59 629 0
-58 59 629 0
629 60 -630 0
-629 -60 -630 0
629 -60 630 0
-629 60 630 0
630 61 -631 0
-630 -61 -631 0
630 -61 631 0
-630 61 631 0
631 145 -632 0
-631 -145 -632 0
631 -145 632 0
-631 145 632 0
632 153 -633 0
-632 -153 -633 0
632 -153 633 0
-632 153 633 0
633 157 -634 0
-633 -157 -634 0
633 -157 634 0
-633 157 634 0
634 165 -635 0
-634 -165 -635 0
634 -165 635 0
-634 165 635 0
-635 0
59 60 -636 0
-59 -60 -636 0
59 -60 636 0
-59 60 636 0
636 61 -637 0
-636 -61 -637 0
636 -61 637 0
-636 61 637 0
637 62 -638 0
-637 -62 -638 0
637 -62 638 0
-637 62 638 0
638 146 -639 0
-638 -146 -639 0
638 -146 639 0
-638 146 639 0
639 154 -640 0
-639 -154 -640 0
639 -154 640 0
-639 154 640 0
640 158 -641 0
-640 -158 -641 0
640 -158 641 0
-640 158 641 0
641 166 -642 0
-641 -166 -642 0
641 -166 642 0
-641 166 642 0
-642 0
60 61 -643 0
-60 -61 -643 0
60 -61 643 0
-60 61 643 0
643 62 -644 0
-643 -62 -644 0
643 -62 644 0
-643 62 644 0
644 63 -645 0
-644 -63 -645 0
644 -63 645 0
-644 63 645 0
645 147 -646 0
-645 -147 -646 0
645 -147 646 0
-645 147 646 0
646 155 -647 0
-646 -155 -647 0
646 -155 647 0
-646 155 647 0
647 159 -648 0
-647 -159 -648 0
647 -159 648 0
-647 159 648 0
648 167 -649 0
-648 -167 -649 0
648 -167 649 0
-648 167 649 0
-649 0
61 62 -650 0
-61 -62 -650 0
61 -62 650 0
-61 62 650 0
650 63 -651 0
-650 -63 -651 0
650 -63 651 0
-650 63 651 0
651 64 -652 0
-651 -64 -652 0
651 -64 652 0
-651 64 652 0
652 148 -653 0
-652 -148 -653 0
652 -148 653 0
-652 148 653 0
653 156 -654 0
-653 -156 -654 0
653 -156 654 0
-653 156 654 0
654 160 -655 0
-654 -160 -655 0
654 -160 655 0
-654 160 655 0
655 168 -656 0
-655 -168 -656 0
655 -168 656 0
-655 168 656 0
-656 0
62 63 -657 0
-62 -63 -657 0
62 -63 657 0
-62 63 657 0
657 64 -658 0
-657 -64 -658 0
657 -64 658 0
-657 64 658 0
658 65 -659 0
-658 -65 -659 0
658 -65 659 0
-658 65 659 0
659 149 -660 0
-659 -149 -660 0
659 -149 660 0
-659 149 660 0
660 157 -661 0
-660 -157 -661 0
660 -157 661 0
-660 157 661 0
661 161 -662 0
-661 -161 -662 0
661 -161 662 0
-661 161 662 0
662 169 -663 0
-662 -169 -663 0
662 -169 663 0
-662 169 663 0
-663 0
63 64 -664 0
-63 -64 -664 0
63 -64 664 0
-63 64 664 0
664 65 -665 0
-664 -65 -665 0
664 -65 665 0
-664 65 665 0
665 66 -666 0
-665 -66 -666 0
665 -66 666 0
-665 66 666 0
666 150 -667 0
-666 -150 -667 0
666 -150 667 0
-666 150 667 0
667 158 -668 0
-667 -158 -668 0
667 -158 668 0
-667 158 668 0
668 162 -669 0
-668 -162 -669 0
668 -162 669 0
-668 162 669 0
669 170 -670 0
-669 -170 -670 0
669 -170 670 0
-669 170 670 0
-670 0
64 65 -671 0
-64 -65 -671 0
64 -65 671 0
-64 65 671 0
671 66 -672 0
-671 -66 -672 0
671 -66 672 0
-671 66 672 0
672 67 -673 0
-672 -67 -673 0
672 -67 673 0
-672 67 673 0
673 151 -674 0
-673 -151 -674 0
673 -151 674 0
-673 151 674 0
674 159 -675 0
-674 -159 -675 0
674 -159 675 0
-674 159 675 0
675 163 -676 0
-675 -163 -676 0
675 -163 676 0
-675 163 676 0
676 171 -677 0
-676 -171 -677 0
676 -171 677 0
-676 171 677 0
-677 0
65 66 -678 0
-65 -66 -678 0
65 -66 678 0
-65 66 678 0
678 67 -679 0
-678 -67 -679 0
678 -67 679 0
-678 67 679 0
679 68 -680 0
-679 -68 -680 0
679 -68 680 0
-679 68 680 0
680 152 -681 0
-680 -152 -681 0
680 -152 681 0
-680 152 681 0
681 160 -682 0
-681 -160 -682 0
681 -160 682 0
-681 160 682 0
682 164 -683 0
-682 -164 -683 0
682 -164 683 0
-682 164 683 0
683 172 -684 0
-683 -172 -684 0
683 -172 684 0
-683 172 684 0
-684 0
66 67 -685 0
-66 -67 -685 0
66 -67 685 0
-66 67 685 0
685 68 -686 0
-685 -68 -686 0
685 -68 686 0
-685 68 686 0
686 69 -687 0
-686 -69 -687 0
686 -69 687 0
-686 69 687 0
687 153 -688 0
-687 -153 -688 0
687 -153 688 0
-687 153 688 0
688 161 -689 0
-688 -161 -689 0
688 -161 689 0
-688 161 689 0
689 165 -690 0
-689 -165 -690 0
689 -165 690 0
-689 165 690 0
690 173 -691 0
-690 -173 -691 0
690 -173 691 0
-690 173 691 0
-691 0
67 68 -692 0
-67 -68 -692 0
67 -68 692 0
-67 68 692 0
692 69 -693 0
-692 -69 -693 0
692 -69 693 0
-692 69 693 0
693 70 -694 0
-693 -70 -694 0
693 -70 694 0
-693 70 694 0
694 154 -695 0
-694 -154 -695 0
694 -154 695 0
-694 154 695 0
695 162 -696 0
-695 -162 -696 0
695 -162 696 0
-695 162 696 0
696 166 -697 0
-696 -166 -697 0
696 -166 697 0
-696 166 697 0
697 174 -698 0
-697 -174 -698 0
697 -174 698 0
-697 174 698 0
-698 0
68 69 -699 0
-68 -69 -699 0
68 -69 699 0
-68 69 699 0
699 70 -700 0
-699 -70 -700 0
699 -70 700 0
-699 70 700 0
700 71 -701 0
-700 -71 -701 0
700 -71 701 0
-700 71 701 0
701 155 -702 0
-701 -155 -702 0
701 -155 702 0
-701 155 702 0
702 163 -703 0
-702 -163 -703 0
702 -163 703 0
-702 163 703 0
703 167 -704 0
-703 -167 -704 0
703 -167 704 0
-703 167 704 0
704 175 -705 0
-704 -175 -705 0
704 -175 705 0
-704 175 705 0
-705 0
69 70 -706 0
-69 -70 -706 0
69 -70 706 0
-69 70 706 0
706 71 -707 0
-706 -71 -707 0
706 -71 707 0
-706 71 707 0
707 72 -708 0
-707 -72 -708 0
707 -72 708 0
-707 72 708 0
708 156 -709 0
-708 -156 -709 0
708 -156 709 0
-708 156 709 0
709 164 -710 0
-709 -164 -710 0
709 -164 710 0
-709 164 710 0
710 168 -711 0
-710 -168 -711 0
710 -168 711 0
-710 168 711 0
711 176 -712 0
-711 -176 -712 0
711 -176 712 0
-711 176 712 0
-712 0
70 71 -713 0
-70 -71 -713 0
70 -71 713 0
-70 71 713 0
713 72 -714 0
-713 -72 -714 0
713 -72 714 0
-713 72 714 0
714 73 -715 0
-714 -73 -715 0
714 -73 715 0
-714 73 715 0
715 157 -716 0
-715 -157 -716 0
715 -157 716 0
-715 157 716 0
716 165 -717 0
-716 -165 -717 0
716 -165 717 0
-716 165 717 0
717 169 -718 0
-717 -169 -718 0
717 -169 718 0
-717 169 718 0
718 177 -719 0
-718 -177 -719 0
718 -177 719 0
-718 177 719 0
-719 0
71 72 -720 0
-71 -72 -720 0
71 -72 720 0
-71 72 720 0
720 73 -721 0
-720 -73 -721 0
720 -73 721 0
-720 73 721 0
721 74 -722 0
-721 -74 -722 0
721 -74 722 0
-721 74 722 0
722 158 -723 0
-722 -158 -723 0
722 -158 723 0
-722 158 723 0
723 166 -724 0
-723 -166 -724 0
723 -166 724 0
-723 166 724 0
724 170 -725 0
-724 -170 -725 0
724 -170 725 0
-724 170 725 0
725 178 -726 0
-725 -178 -726 0
725 -178 726 0
-725 178 726 0
-726 0
72 73 -727 0
-72 -73 -727 0
72 -73 727 0
-72 73 727 0
727 74 -728 0
-727 -74 -728 0
727 -74 728 0
-727 74 728 0
728 75 -729 0
-728 -75 -729 0
728 -75 729 0
-728 75 729 0
729 159 -730 0
-729 -159 -730 0
729 -159 730 0
-729 159 730 0
730 167 -731 0
-730 -167 -731 0
730 -167 731 0
-730 167 731 0
731 171 -732 0
-731 -171 -732 0
731 -171 732 0
-731 171 732 0
732 179 -733 0
-732 -179 -733 0
732 -179 733 0
-732 179 733 0
-733 0
73 74 -734 0
-73 -74 -734 0
73 -74 734 0
-73 74 734 0
734 75 -735 0
-734 -75 -735 0
734 -75 735 0
-734 75 735 0
735 76 -736 0
-735 -76 -736 0
735 -76 736 0
-735 76 736 0
736 160 -737 0
-736 -160 -737 0
736 -160 737 0
-736 160 737 0
737 168 -738 0
-737 -168 -738 0
737 -168 738 0
-737 168 738 0
738 172 -739 0
-738 -172 -739 0
738 -172 739 0
-738 172 739 0
739 180 -740 0
-739 -180 -740 0
739 -180 740 0
-739 180 740 0
-740 0
74 75 -741 0
-74 -75 -741 0
74 -75 741 0
-74 75 741 0
741 76 -742 0
-741 -76 -742 0
741 -76 742 0
-741 76 742 0
742 77 -743 0
-742 -77 -743 0
742 -77 743 0
-742 77 743 0
743 161 -744 0
-743 -161 -744 0
743 -161 744 0
-743 161 744 0
744 169 -745 0
-744 -169 -745 0
744 -169 745 0
-744 169 745 0
745 173 -746 0
-745 -173 -746 0
745 -173 746 0
-745 173 746 0
746 181 -747 0
-746 -181 -747 0
746 -181 747 0
-746 181 747 0
-747 0
75 76 -748 0
-75 -76 -748 0
75 -76 748 0
-75 76 748 0
748 77 -749 0
-748 -77 -749 0
748 -77 749 0
-748 77 749 0
749 78 -750 0
-749 -78 -750 0
749 -78 750 0
-749 78 750 0
750 162 -751 0
-750 -162 -751 0
750 -162 751 0
-750 162 751 0
751 170 -752 0
-751 -170 -752 0
751 -170 752 0
-751 170 752 0
752 174 -753 0
-752 -174 -753 0
752 -174 753 0
-752 174 753 0
753 182 -754 0
-753 -182 -754 0
753 -182 754 0
-753 182 754 0
-754 0
76 77 -755 0
-76 -77 -755 0
76 -77 755 0
-76 77 755 0
755 78 -756 0
-755 -78 -756 0
755 -78 756 0
-755 78 756 0
756 79 -757 0
-756 -79 -757 0
756 -79 757 0
-756 79 757 0
757 163 -758 0
-757 -163 -758 0
757 -163 758 0
-757 163 758 0
758 171 -759 0
-758 -171 -759 0
758 -171 759 0
-758 171 759 0
759 175 -760 0
-759 -175 -760 0
759 -175 760 0
-759 175 760 0
760 183 -761 0
-760 -183 -761 0
760 -183 761 0
-760 183 761 0
-761 0
77 78 -762 0
-77 -78 -762 0
77 -78 762 0
-77 78 762 0
762 79 -763 0
-762 -79 -763 0
762 -79 763 0
-762 79 763 0
763 80 -764 0
-763 -80 -764 0
763 -80 764 0
-763 80 764 0
764 164 -765 0
-764 -164 -765 0
764 -164 765 0
-764 164 765 0
765 172 -766 0
-765 -172 -766 0
765 -172 766 0
-765 172 766 0
766 176 -767 0
-766 -176 -767 0
766 -176 767 0
-766 176 767 0
767 184 -768 0
-767 -184 -768 0
767 -184 768 0
-767 184 768 0
-768 0
78 79 -769 0
-78 -79 -769 0
78 -79 769 0
-78 79 769 0
769 80 -770 0
-769 -80 -770 0
769 -80 770 0
-769 80 770 0
770 81 -771 0
-770 -81 -771 0
770 -81 771 0
-770 81 771 0
771 165 -772 0
-771 -165 -772 0
771 -165 772 0
-771 165 772 0
772 173 -773 0
-772 -173 -773 0
772 -173 773 0
-772 173 773 0
773 177 -774 0
-773 -177 -774 0
773 -177 774 0
-773 177 774 0
774 185 -775 0
-774 -185 -775 0
774 -185 775 0
-774 185 775 0
-775 0
79 80 -776 0
-79 -80 -776 0
79 -80 776 0
-79 80 776 0
776 81 -777 0
-776 -81 -777 0
776 -81 777 0
-776 81 777 0
777 82 -778 0
-777 -82 -778 0
777 -82 778 0
-777 82 778 0
778 166 -779 0
-778 -166 -779 0
778 -166 779 0
-778 166 779 0
779 174 -780 0
-779 -174 -780 0
779 -174 780 0
-779 174 780 0
780 178 -781 0
-780 -178 -781 0
780 -178 781 0
-780 178 781 0
781 186 -782 0
-781 -186 -782 0
781 -186 782 0
-781 186 782 0
-782 0
80 81 -783 0
-80 -81 -783 0
80 -81 783 0
-80 81 783 0
783 82 -784 0
-783 -82 -784 0
783 -82 784 0
-783 82 784 0
784 83 -785 0
-784 -83 -785 0
784 -83 785 0
-784 83 785 0
785 167 -786 0
-785 -167 -786 0
785 -167 786 0
-785 167 786 0
786 175 -787 0
-786 -175 -787 0
786 -175 787 0
-786 175 787 0
787 179 -788 0
-787 -179 -788 0
787 -179 788 0
-787 179 788 0
788 187 -789 0
-788 -187 -789 0
788 -187 789 0
-788 187 789 0
-789 0
81 82 -790 0
-81 -82 -790 0
81 -82 790 0
-81 82 790 0
790 83 -791 0
-790 -83 -791 0
790 -83 791 0
-790 83 791 0
791 84 -792 0
-791 -84 -792 0
791 -84 792 0
-791 84 792 0
792 168 -793 0
-792 -168 -793 0
792 -168 793 0
-792 168 793 0
793 176 -794 0
-793 -176 -794 0
793 -176 794 0
-793 176 794 0
794 180 -795 0
-794 -180 -795 0
794 -180 795 0
-794 180 795 0
795 188 -796 0
-795 -188 -796 0
795 -188 796 0
-795 188 796 0
-796 0
82 83 -797 0
-82 -83 -797 0
82 -83 797 0
-82 83 797 0
797 84 -798 0
-797 -84 -798 0
797 -84 798 0
-797 84 798 0
798 85 -799 0
-798 -85 -799 0
798 -85 799 0
-798 85 799 0
799 169 -800 0
-799 -169 -800 0
799 -169 800 0
-799 169 800 0
800 177 -801 0
-800 -177 -801 0
800 -177 801 0
-800 177 801 0
801 181 -802 0
-801 -181 -802 0
801 -181 802 0
-801 181 802 0
802 189 -803 0
-802 -189 -803 0
802 -189 803 0
-802 189 803 0
-803 0
83 84 -804 0
-83 -84 -804 0
83 -84 804 0
-83 84 804 0
804 85 -805 0
-804 -85 -805 0
804 -85 805 0
-804 85 805 0
805 86 -806 0
-805 -86 -806 0
805 -86 806 0
-805 86 806 0
806 170 -807 0
-806 -170 -807 0
806 -170 807 0
-806 170 807 0
807 178 -808 0
-807 -178 -808 0
807 -178 808 0
-807 178 808 0
808 182 -809 0
-808 -182 -809 0
808 -182 809 0
-808 182 809 0
809 190 -810 0
-809 -190 -810 0
809 -190 810 0
-809 190 810 0
-810 0
84 85 -811 0
-84 -85 -811 0
84 -85 811 0
-84 85 811 0
811 86 -812 0
-811 -86 -812 0
811 -86 812 0
-811 86 812 0
812 87 -813 0
-812 -87 -813 0
812 -87 813 0
-812 87 813 0
813 171 -814 0
-813 -171 -814 0
813 -171 814 0
-813 171 814 0
814 179 -815 0
-814 -179 -815 0
814 -179 815 0
-814 179 815 0
815 183 -816 0
-815 -183 -816 0
815 -183 816 0
-815 183 816 0
816 191 -817 0
-816 -191 -817 0
816 -191 817 0
-816 191 817 0
-817 0
85 86 -818 0
-85 -86 -818 0
85 -86 818 0
-85 86 818 0
818 87 -819 0
-818 -87 -819 0
818 -87 819 0
-818 87 819 0
819 88 -820 0
-819 -88 -820 0
819 -88 820 0
-819 88 820 0
820 172 -821 0
-820 -172 -821 0
820 -172 821 0
-820 172 821 0
821 180 -822 0
-821 -180 -822 0
821 -180 822 0
-821 180 822 0
822 184 -823 0
-822 -184 -823 0
822 -184 823 0
-822 184 823 0
823 192 -824 0
-823 -192 -824 0
823 -192 824 0
-823 192 824 0
-824 0
86 87 -825 0
-86 -87 -825 0
86 -87 825 0
-86 87 825 0
825 88 -826 0
-825 -88 -826 0
825 -88 826 0
-825 88 826 0
826 89 -827 0
-826 -89 -827 0
826 -89 827 0
-826 89 827 0
827 173 -828 0
-827 -173 -828 0
827 -173 828 0
-827 173 828 0
828 181 -829 0
-828 -181 -829 0
828 -181 829 0
-828 181 829 0
829 185 -830 0
-829 -185 -830 0
829 -185 830 0
-829 185 830 0
830 193 -831 0
-830 -193 -831 0
830 -193 831 0
-830 193 831 0
-831 0
87 88 -832 0
-87 -88 -832 0
87 -88 832 0
-87 88 832 0
832 89 -833 0
-832 -89 -833 0
832 -89 833 0
-832 89 833 0
833 90 -834 0
-833 -90 -834 0
833 -90 834 0
-833 90 834 0
834 174 -835 0
-834 -174 -835 0
834 -174 835 0
-834 174 835 0
835 182 -836 0
-835 -182 -836 0
835 -182 836 0
-835 182 836 0
836 186 -837 0
-836 -186 -837 0
836 -186 837 0
-836 186 837 0
837 194 -838 0
-837 -194 -838 0
837 -194 838 0
-837 194 838 0
-838 0
88 89 -839 0
-88 -89 -839 0
88 -89 839 0
-88 89 839 0
839 90 -840 0
-839 -90 -840 0
839 -90 840 0
-839 90 840 0
840 91 -841 0
-840 -91 -841 0
840 -91 841 0
-840 91 841 0
841 175 -842 0
-841 -175 -842 0
841 -175 842 0
-841 175 842 0
842 183 -843 0
-842 -183 -843 0
842 -183 843 0
-842 183 843 0
843 187 -844 0
-843 -187 -844 0
843 -187 844 0
-843 187 844 0
844 195 -845 0
-844 -195 -845 0
844 -195 845 0
-844 195 845 0
-845 0
89 90 -846 0
-89 -90 -846 0
89 -90 846 0
-89 90 846 0
846 91 -847 0
-846 -91 -847 0
846 -91 847 0
-846 91 847 0
847 92 -848 0
-847 -92 -848 0
847 -92 848 0
-847 92 848 0
848 176 -849 0
-848 -176 -849 0
848 -176 849 0
-848 176 849 0
849 184 -850 0
-849 -184 -850 0
849 -184 850 0
-849 184 850 0
850 188 -851 0
-850 -188 -851 0
850 -188 851 0
-850 188 851 0
851 196 -852 0
-851 -196 -852 0
851 -196 852 0
-851 196 852 0
-852 0
90 91 -853 0
-90 -91 -853 0
90 -91 853 0
-90 91 853 0
853 92 -854 0
-853 -92 -854 0
853 -92 854 0
-853 92 854 0
854 93 -855 0
-854 -93 -855 0
854 -93 855 0
-854 93 855 0
855 177 -856 0
-855 -177 -856 0
855 -177 856 0
-855 177 856 0
856 185 -857 0
-856 -185 -857 0
856 -185 857 0
-856 185 857 0
857 189 -858 0
-857 -189 -858 0
857 -189 858 0
-857 189 858 0
858 197 -859 0
-858 -197 -859 0
858 -197 859 0
-858 197 859 0
-859 0
91 92 -860 0
-91 -92 -860 0
91 -92 860 0
-91 92 860 0
860 93 -861 0
-860 -93 -861 0
860 -93 861 0
-860 93 861 0
861 94 -862 0
-861 -94 -862 0
861 -94 862 0
-861 94 862 0
862 178 -863 0
-862 -178 -863 0
862 -178 863 0
-862 178 863 0
863 186 -864 0
-863 -186 -864 0
863 -186 864 0
-863 186 864 0
864 190 -865 0
-864 -190 -865 0
864 -190 865 0
-864 190 865 0
865 198 -866 0
-865 -198 -866 0
865 -198 866 0
-865 198 866 0
-866 0
92 93 -867 0
-92 -93 -867 0
92 -93 867 0
-92 93 867 0
867 94 -868 0
-867 -94 -868 0
867 -94 868 0
-867 94 868 0
868 95 -869 0
-868 -95 -869 0
868 -95 869 0
-868 95 869 0
869 179 -870 0
-869 -179 -870 0
869 -179 870 0
-869 179 870 0
870 187 -871 0
-870 -187 -871 0
870 -187 871 0
-870 187 871 0
871 191 -872 0
-871 -191 -872 0
871 -191 872 0
-871 191 872 0
872 199 -873 0
-872 -199 -873 0
872 -199 873 0
-872 199 873 0
-873 0
93 94 -874 0
-93 -94 -874 0
93 -94 874 0
-93 94 874 0
874 95 -875 0
-874 -95 -875 0
874 -95 875 0
-874 95 875 0
875 96 -876 0
-875 -96 -876 0
875 -96 876 0
-875 96 876 0
876 180 -877 0
-876 -180 -877 0
876 -180 877 0
-876 180 877 0
877 188 -878 0
-877 -188 -878 0
877 -188 878 0
-877 188 878 0
878 192 -879 0
-878 -192 -879 0
878 -192 879 0
-878 192 879 0
879 200 -880 0
-879 -200 -880 0
879 -200 880 0
-879 200 880 0
-880 0
94 95 -881 0
-94 -95 -881 0
94 -95 881 0
-94 95 881 0
881 96 -882 0
-881 -96 -882 0
881 -96 882 0
-881 96 882 0
882 97 -883 0
-882 -97 -883 0
882 -97 883 0
-882 97 883 0
883 181 -884 0
-883 -181 -884 0
883 -181 884 0
-883 181 884 0
884 189 -885 0
-884 -189 -885 0
884 -189 885 0
-884 189 885 0
885 193 -886 0
-885 -193 -886 0
885 -193 886 0
-885 193 886 0
886 201 -887 0
-886 -201 -887 0
886 -201 887 0
-886 201 887 0
-887 0
95 96 -888 0
-95 -96 -888 0
95 -96 888 0
-95 96 888 0
888 97 -889 0
-888 -97 -889 0
888 -97 889 0
-888 97 889 0
889 98 -890 0
-889 -98 -890 0
889 -98 890 0
-889 98 890 0
890 182 -891 0
-890 -182 -891 0
890 -182 891 0
-890 182 891 0
891 190 -892 0
-891 -190 -892 0
891 -190 892 0
-891 190 892 0
892 194 -893 0
-892 -194 -893 0
892 -194 893 0
-892 194 893 0
893 202 -894 0
-893 -202 -894 0
893 -202 894 0
-893 202 894 0
-894 0
96 97 -895 0
-96 -97 -895 0
96 -97 895 0
-96 97 895 0
895 98 -896 0
-895 -98 -896 0
895 -98 896 0
-895 98 896 0
896 99 -897 0
-896 -99 -897 0
896 -99 897 0
-896 99 897 0
897 183 -898 0
-897 -183 -898 0
897 -183 898 0
-897 183 898 0
898 191 -899 0
-898 -191 -899 0
898 -191 899 0
-898 191 899 0
899 195 -900 0
-899 -195 -900 0
899 -195 900 0
-899 195 900 0
900 203 -901 0
-900 -203 -901 0
900 -203 901 0
-900 203 901 0
-901 0
97 98 -902 0
-97 -98 -902 0
97 -98 902 0
-97 98 902 0
902 99 -903 0
-902 -99 -903 0
902 -99 903 0
-902 99 903 0
903 100 -904 0
-903 -100 -904 0
903 -100 904 0
-903 100 904 0
904 184 -905 0
-904 -184 -905 0
904 -184 905 0
-904 184 905 0
905 192 -906 0
-905 -192 -906 0
905 -192 906 0
-905 192 906 0
906 196 -907 0
-906 -196 -907 0
906 -196 907 0
-906 196 907 0
907 204 -908 0
-907 -204 -908 0
907 -204 908 0
-907 204 908 0
-908 0
98 99 -909 0
-98 -99 -909 0
98 -99 909 0
-98 99 909 0
909 100 -910 0
-909 -100 -910 0
909 -100 910 0
-909 100 910 0
910 101 -911 0
-910 -101 -911 0
910 -101 911 0
-910 101 911 0
911 185 -912 0
-911 -185 -912 0
911 -185 912 0
-911 185 912 0
912 193 -913 0
-912 -193 -913 0
912 -193 913 0
-912 193 913 0
913 197 -914 0
-913 -197 -914 0
913 -197 914 0
-913 197 914 0
914 205 -915 0
-914 -205 -915 0
914 -205 915 0
-914 205 915 0
-915 0
99 100 -916 0
-99 -100 -916 0
99 -100 916 0
-99 100 916 0
916 101 -917 0
-916 -101 -917 0
916 -101 917 0
-916 101 917 0
917 102 -918 0
-917 -102 -918 0
917 -102 918 0
-917 102 918 0
918 186 -919 0
-918 -186 -919 0
918 -186 919 0
-918 186 919 0
919 194 -920 0
-919 -194 -920 0
919 -194 920 0
-919 194 920 0
920 198 -921 0
-920 -198 -921 0
920 -198 921 0
-920 198 921 0
921 206 -922 0
-921 -206 -922 0
921 -206 922 0
-921 206 922 0
-922 0
100 101 -923 0
-100 -101 -923 0
100 -101 923 0
-100 101 923 0
923 102 -924 0
-923 -102 -924 0
923 -102 924 0
-923 102 924 0
924 103 -925 0
-924 -103 -925 0
924 -103 925 0
-924 103 925 0
925 187 -926 0
-925 -187 -926 0
925 -187 926 0
-925 187 926 0
926 195 -927 0
-926 -195 -927 0
926 -195 927 0
-926 195 927 0
927 199 -928 0
-927 -199 -928 0
927 -199 928 0
-927 199 928 0
928 207 -929 0
-928 -207 -929 0
928 -207 929 0
-928 207 929 0
-929 0
101 102 -930 0
-101 -102 -930 0
101 -102 930 0
-101 102 930 0
930 103 -931 0
-930 -103 -931 0
930 -103 931 0
-930 103 931 0
931 104 -932 0
-931 -104 -932 0
931 -104 932 0
-931 104 932 0
932 188 -933 0
-932 -188 -933 0
932 -188 933 0
-932 188 933 0
933 196 -934 0
-933 -196 -934 0
933 -196 934 0
-933 196 934 0
934 200 -935 0
-934 -200 -935 0
934 -200 935 0
-934 200 935 0
935 208 -936 0
-935 -208 -936 0
935 -208 936 0
-935 208 936 0
-936 0
1 108 -937 0
-1 -108 -937 0
1 -108 937 0
-1 108 937 0
937 109 -938 0
-937 -109 -938 0
937 -109 938 0
-937 109 938 0
938 112 -939 0
-938 -112 -939 0
938 -112 939 0
-938 112 939 0
939 113 -940 0
-939 -113 -940 0
939 -113 940 0
-939 113 940 0
940 116 -941 0
-940 -116 -941 0
940 -116 941 0
-940 116 941 0
941 117 -942 0
-941 -117 -942 0
941 -117 942 0
-941 117 942 0
942 120 -943 0
-942 -120 -943 0
942 -120 943 0
-942 120 943 0
943 121 -944 0
-943 -121 -944 0
943 -121 944 0
-943 121 944 0
944 124 -945 0
-944 -124 -945 0
944 -124 945 0
-944 124 945 0
945 125 -946 0
-945 -125 -946 0
945 -125 946 0
-945 125 946 0
946 128 -947 0
-946 -128 -947 0
946 -128 947 0
-946 128 947 0
947 129 -948 0
-947 -129 -948 0
947 -129 948 0
-947 129 948 0
948 132 -949 0
-948 -132 -949 0
948 -132 949 0
-948 132 949 0
949 133 -950 0
-949 -133 -950 0
949 -133 950 0
-949 133 950 0
950 136 -951 0
-950 -136 -951 0
950 -136 951 0
-950 136 951 0
951 137 -952 0
-951 -137 -952 0
951 -137 952 0
-951 137 952 0
952 140 -953 0
-952 -140 -953 0
952 -140 953 0
-952 140 953 0
953 141 -954 0
-953 -141 -954 0
953 -141 954 0
-953 141 954 0
954 144 -955 0
-954 -144 -955 0
954 -144 955 0
-954 144 955 0
955 145 -956 0
-955 -145 -956 0
955 -145 956 0
-955 145 956 0
956 148 -957 0
-956 -148 -957 0
956 -148 957 0
-956 148 957 0
957 149 -958 0
-957 -149 -958 0
957 -149 958 0
-957 149 958 0
958 152 -959 0
-958 -152 -959 0
958 -152 959 0
-958 152 959 0
959 153 -960 0
-959 -153 -960 0
959 -153 960 0
-959 153 960 0
960 156 -961 0
-960 -156 -961 0
960 -156 961 0
-960 156 961 0
961 157 -962 0
-961 -157 -962 0
961 -157 962 0
-961 157 962 0
962 160 -963 0
-962 -160 -963 0
962 -160 963 0
-962 160 963 0
963 161 -964 0
-963 -161 -964 0
963 -161 964 0
-963 161 964 0
964 164 -965 0
-964 -164 -965 0
964 -164 965 0
-964 164 965 0
965 165 -966 0
-965 -165 -966 0
965 -165 966 0
-965 165 966 0
966 168 -967 0
-966 -168 -967 0
966 -168 967 0
-966 168 967 0
967 169 -968 0
-967 -169 -968 0
967 -169 968 0
-967 169 968 0
968 172 -969 0
-968 -172 -969 0
968 -172 969 0
-968 172 969 0
969 173 -970 0
-969 -173 -970 0
969 -173 970 0
-969 173 970 0
970 176 -971 0
-970 -176 -971 0
970 -176 971 0
-970 176 971 0
971 177 -972 0
-971 -177 -972 0
971 -177 972 0
-971 177 972 0
972 180 -973 0
-972 -180 -973 0
972 -180 973 0
-972 180 973 0
973 181 -974 0
-973 -181 -974 0
973 -181 974 0
-973 181 974 0
974 184 -975 0
-974 -184 -975 0
974 -184 975 0
-974 184 975 0
975 185 -976 0
-975 -185 -976 0
975 -185 976 0
-975 185 976 0
976 188 -977 0
-976 -188 -977 0
976 -188 977 0
-976 188 977 0
977 189 -978 0
-977 -189 -978 0
977 -189 978 0
-977 189 978 0
978 200 -979 0
-978 -200 -979 0
978 -200 979 0
-978 200 979 0
979 201 -980 0
-979 -201 -980 0
979 -201 980 0
-979 201 980 0
2 109 -981 0
-2 -109 -981 0
2 -109 981 0
-2 109 981 0
981 110 -982 0
-981 -110 -982 0
981 -110 982 0
-981 110 982 0
982 113 -983 0
-982 -113 -983 0
982 -113 983 0
-982 113 983 0
983 114 -984 0
-983 -114 -984 0
983 -114 984 0
-983 114 984 0
984 117 -985 0
-984 -117 -985 0
984 -117 985 0
-984 117 985 0
985 118 -986 0
-985 -118 -986 0
985 -118 986 0
-985 118 986 0
986 121 -987 0
-986 -121 -987 0
986 -121 987 0
-986 121 987 0
987 122 -988 0
-987 -122 -988 0
987 -122 988 0
-987 122 988 0
988 125 -989 0
-988 -125 -989 0
988 -125 989 0
-988 125 989 0
989 126 -990 0
-989 -126 -990 0
989 -126 990 0
-989 126 990 0
990 129 -991 0
-990 -129 -991 0
990 -129 991 0
-990 129 991 0
991 130 -992 0
-991 -130 -992 0
991 -130 992 0
-991 130 992 0
992 133 -993 0
-992 -133 -993 0
992 -133 993 0
-992 133 993 0
993 134 -994 0
-993 -134 -994 0
993 -134 994 0
-993 134 994 0
994 137 -995 0
-994 -137 -995 0
994 -137 995 0
-994 137 995 0
995 138 -996 0
-995 -138 -996 0
995 -138 996 0
-995 138 996 0
996 141 -997 0
-996 -141 -997 0
996 -141 997 0
-996 141 997 0
997 142 -998 0
-997 -142 -998 0
997 -142 998 0
-997 142 998 0
998 145 -999 0
-998 -145 -999 0
998 -145 999 0
-998 145 999 0
999 146 -1000 0
-999 -146 -1000 0
999 -146 1000 0
-999 146 1000 0
1000 149 -1001 0
-1000 -149 -1001 0
1000 -149 1001 0
-1000 149 1001 0
1001 150 -1002 0
-1001 -150 -1002 0
1001 -150 1002 0
-1001 150 1002 0
1002 153 -1003 0
-1002 -153 -1003 0
1002 -153 1003 0
-1002 153 1003 0
1003 154 -1004 0
-1003 -154 -1004 0
1003 -154 1004 0
-1003 154 1004 0
1004 157 -1005 0
-1004 -157 -1005 0
1004 -157 1005 0
-1004 157 1005 0
1005 158 -1006 0
-1005 -158 -1006 0
1005 -158 1006 0
-1005 158 1006 0
1006 161 -1007 0
-1006 -161 -1007 0
1006 -161 1007 0
-1006 161 1007 0
1007 162 -1008 0
-1007 -162 -1008 0
1007 -162 1008 0
-1007 162 1008 0
1008 165 -1009 0
-1008 -165 -1009 0
1008 -165 1009 0
-1008 165 1009 0
1009 166 -1010 0
-1009 -166 -1010 0
1009 -166 1010 0
-1009 166 1010 0
1010 169 -1011 0
-1010 -169 -1011 0
1010 -169 1011 0
-1010 169 1011 0
1011 170 -1012 0
-1011 -170 -1012 0
1011 -170 1012 0
-1011 170 1012 0
1012 173 -1013 0
-1012 -173 -1013 0
1012 -173 1013 0
-1012 173 1013 0
1013 174 -1014 0
-1013 -174 -1014 0
1013 -174 1014 0
-1013 174 1014 0
1014 177 -1015 0
-1014 -177 -1015 0
1014 -177 1015 0
-1014 177 1015 0
1015 178 -1016 0
-1015 -178 -1016 0
1015 -178 1016 0
-1015 178 1016 0
1016 181 -1017 0
-1016 -181 -1017 0
1016 -181 1017 0
-1016 181 1017 0
1017 182 -1018 0
-1017 -182 -1018 0
1017 -182 1018 0
-1017 182 1018 0
1018 185 -1019 0
-1018 -185 -1019 0
1018 -185 1019 0
-1018 185 1019 0
1019 186 -1020 0
-1019 -186 -1020 0
1019 -186 1020 0
-1019 186 1020 0
1020 189 -1021 0
-1020 -189 -1021 0
1020 -189 1021 0
-1020 189 1021 0
1021 190 -1022 0
-1021 -190 -1022 0
1021 -190 1022 0
-1021 190 1022 0
1022 201 -1023 0
-1022 -201 -1023 0
1022 -201 1023 0
-1022 201 1023 0
1023 202 -1024 0
-1023 -202 -1024 0
1023 -202 1024 0
-1023 202 1024 0
3 110 -1025 0
-3 -110 -1025 0
3 -110 1025 0
-3 110 1025 0
1025 111 -1026 0
-1025 -111 -1026 0
1025 -111 1026 0
-1025 111 1026 0
1026 114 -1027 0
-1026 -114 -1027 0
1026 -114 1027 0
-1026 114 1027 0
1027 115 -1028 0
-1027 -115 -1028 0
1027 -115 1028 0
-1027 115 1028 0
1028 118 -1029 0
-1028 -118 -1029 0
1028 -118 1029 0
-1028 118 1029 0
1029 119 -1030 0
-1029 -119 -1030 0
1029 -119 1030 0
-1029 119 1030 0
1030 122 -1031 0
-1030 -122 -1031 0
1030 -122 1031 0
-1030 122 1031 0
1031 123 -1032 0
-1031 -123 -1032 0
1031 -123 1032 0
-1031 123 1032 0
1032 126 -1033 0
-1032 -126 -1033 0
1032 -126 1033 0
-1032 126 1033 0
1033 127 -1034 0
-1033 -127 -1034 0
1033 -127 1034 0
-1033 127 1034 0
1034 130 -1035 0
-1034 -130 -1035 0
1034 -130 1035 0
-1034 130 1035 0
1035 131 -1036 0
-1035 -131 -1036 0
1035 -131 1036 0
-1035 131 1036 0
1036 134 -1037 0
-1036 -134 -1037 0
1036 -134 1037 0
-1036 134 1037 0
1037 135 -1038 0
-1037 -135 -1038 0
1037 -135 1038 0
-1037 135 1038 0
1038 138 -1039 0
-1038 -138 -1039 0
1038 -138 1039 0
-1038 138 1039 0
1039 139 -1040 0
-1039 -139 -1040 0
1039 -139 1040 0
-1039 139 1040 0
1040 142 -1041 0
-1040 -142 -1041 0
1040 -142 1041 0
-1040 142 1041 0
1041 143 -1042 0
-1041 -143 -1042 0
1041 -143 1042 0
-1041 143 1042 0
1042 146 -1043 0
-1042 -146 -1043 0
1042 -146 1043 0
-1042 146 1043 0
1043 147 -1044 0
-1043 -147 -1044 0
1043 -147 1044 0
-1043 147 1044 0
1044 150 -1045 0
-1044 -150 -1045 0
1044 -150 1045 0
-1044 150 1045 0
1045 151 -1046 0
-1045 -151 -1046 0
1045 -151 1046 0
-1045 151 1046 0
1046 154 -1047 0
-1046 -154 -1047 0
1046 -154 1047 0
-1046 154 1047 0
1047 155 -1048 0
-1047 -155 -1048 0
1047 -155 1048 0
-1047 155 1048 0
1048 158 -1049 0
-1048 -158 -1049 0
1048 -158 1049 0
-1048 158 1049 0
1049 159 -1050 0
-1049 -159 -1050 0
1049 -159 1050 0
-1049 159 1050 0
1050 162 -1051 0
-1050 -162 -1051 0
1050 -162 1051 0
-1050 162 1051 0
1051 163 -1052 0
-1051 -163 -1052 0
1051 -163 1052 0
-1051 163 1052 0
1052 166 -1053 0
-1052 -166 -1053 0
1052 -166 1053 0
-1052 166 1053 0
1053 167 -1054 0
-1053 -167 -1054 0
1053 -167 1054 0
-1053 167 1054 0
1054 170 -1055 0
-1054 -170 -1055 0
1054 -170 1055 0
-1054 170 1055 0
1055 171 -1056 0
-1055 -171 -1056 0
1055 -171 1056 0
-1055 171 1056 0
1056 174 -1057 0
-1056 -174 -1057 0
1056 -174 1057 0
-1056 174 1057 0
1057 175 -1058 0
-1057 -175 -1058 0
1057 -175 1058 0
-1057 175 1058 0
1058 178 -1059 0
-1058 -178 -1059 0
1058 -178 1059 0
-1058 178 1059 0
1059 179 -1060 0
-1059 -179 -1060 0
1059 -179 1060 0
-1059 179 1060 0
1060 182 -1061 0
-1060 -182 -1061 0
1060 -182 1061 0
-1060 182 1061 0
1061 183 -1062 0
-1061 -183 -1062 0
1061 -183 1062 0
-1061 183 1062 0
1062 186 -1063 0
-1062 -186 -1063 0
1062 -186 1063 0
-1062 186 1063 0
1063 187 -1064 0
-1063 -187 -1064 0
1063 -187 1064 0
-1063 187 1064 0
1064 190 -1065 0
-1064 -190 -1065 0
1064 -190 1065 0
-1064 190 1065 0
1065 191 -1066 0
-1065 -191 -1066 0
1065 -191 1066 0
-1065 191 1066 0
1066 202 -1067 0
-1066 -202 -1067 0
1066 -202 1067 0
-1066 202 1067 0
1067 203 -1068 0
-1067 -203 -1068 0
1067 -203 1068 0
-1067 203 1068 0
9 108 -1069 0
-9 -108 -1069 0
9 -108 1069 0
-9 108 1069 0
1069 109 -1070 0
-1069 -109 -1070 0
1069 -109 1070 0
-1069 109 1070 0
1070 112 -1071 0
-1070 -112 -1071 0
1070 -112 1071 0
-1070 112 1071 0
1071 113 -1072 0
-1071 -113 -1072 0
1071 -113 1072 0
-1071 113 1072 0
1072 200 -1073 0
-1072 -200 -1073 0
1072 -200 1073 0
-1072 200 1073 0
1073 201 -1074 0
-1073 -201 -1074 0
1073 -201 1074 0
-1073 201 1074 0
1074 204 -1075 0
-1074 -204 -1075 0
1074 -204 1075 0
-1074 204 1075 0
1075 205 -1076 0
-1075 -205 -1076 0
1075 -205 1076 0
-1075 205 1076 0
10 109 -1077 0
-10 -109 -1077 0
10 -109 1077 0
-10 109 1077 0
1077 110 -1078 0
-1077 -110 -1078 0
1077 -110 1078 0
-1077 110 1078 0
1078 113 -1079 0
-1078 -113 -1079 0
1078 -113 1079 0
-1078 113 1079 0
1079 114 -1080 0
-1079 -114 -1080 0
1079 -114 1080 0
-1079 114 1080 0
1080 201 -1081 0
-1080 -201 -1081 0
1080 -201 1081 0
-1080 201 1081 0
1081 202 -1082 0
-1081 -202 -1082 0
1081 -202 1082 0
-1081 202 1082 0
1082 205 -1083 0
-1082 -205 -1083 0
1082 -205 1083 0
-1082 205 1083 0
1083 206 -1084 0
-1083 -206 -1084 0
1083 -206 1084 0
-1083 206 1084 0
11 110 -1085 0
-11 -110 -1085 0
11 -110 1085 0
-11 110 1085 0
1085 111 -1086 0
-1085 -111 -1086 0
1085 -111 1086 0
-1085 111 1086 0
1086 114 -1087 0
-1086 -114 -1087 0
1086 -114 1087 0
-1086 114 1087 0
1087 115 -1088 0
-1087 -115 -1088 0
1087 -115 1088 0
-1087 115 1088 0
1088 202 -1089 0
-1088 -202 -1089 0
1088 -202 1089 0
-1088 202 1089 0
1089 203 -1090 0
-1089 -203 -1090 0
1089 -203 1090 0
-1089 203 1090 0
1090 206 -1091 0
-1090 -206 -1091 0
1090 -206 1091 0
-1090 206 1091 0
1091 207 -1092 0
-1091 -207 -1092 0
1091 -207 1092 0
-1091 207 1092 0
980 1024 1068 1076 1084 1092 0
1 0
-1104 1096 1105 0
-1100 1096 1105 0
-1100 -1104 1105 0
-1105 1093 0
-1101 1093 0
-1105 -1101 1094 0
-1102 1094 0
-1105 -1102 1095 0
-1103 1095 0
-1105 -1103 0
-1097 1093 0
-1105 -1097 1094 0
-1098 1094 0
-1105 -1098 1095 0
-1099 1095 0
-1105 -1099 0
-1097 -1101 1094 0
-1105 -1097 -1101 1095 0
-1097 -1102 1095 0
-1105 -1097 -1102 0
-1097 -1103 0
-1105 -1097 -1103 0
-1098 -1101 1095 0
-1105 -1098 -1101 0
-1098 -1102 0
-1105 -1098 -1102 0
-1098 -1103 0
-1105 -1098 -1103 0
-1099 -1101 0
-1105 -1099 -1101 0
-1099 -1102 0
-1105 -1099 -1102 0
-1099 -1103 0
-1105 -1099 -1103 0
-1113 1104 1114 0
-1109 1104 1114 0
-1109 -1113 1114 0
-1114 1101 0
-1110 1101 0
-1114 -1110 1102 0
-1111 1102 0
-1114 -1111 1103 0
-1112 1103 0
-1114 -1112 0
-1106 1101 0
-1114 -1106 1102 0
-1107 1102 0
-1114 -1107 1103 0
-1108 1103 0
-1114 -1108 0
-1106 -1110 1102 0
-1114 -1106 -1110 1103 0
-1106 -1111 1103 0
-1114 -1106 -1111 0
-1106 -1112 0
-1114 -1106 -1112 0
-1107 -1110 1103 0
-1114 -1107 -1110 0
-1107 -1111 0
-1114 -1107 -1111 0
-1107 -1112 0
-1114 -1107 -1112 0
-1108 -1110 0
-1114 -1108 -1110 0
-1108 -1111 0
-1114 -1108 -1111 0
-1108 -1112 0
-1114 -1108 -1112 0
-1122 1113 1123 0
-1118 1113 1123 0
-1118 -1122 1123 0
-1123 1110 0
-1119 1110 0
-1123 -1119 1111 0
-1120 1111 0
-1123 -1120 1112 0
-1121 1112 0
-1123 -1121 0
-1115 1110 0
-1123 -1115 1111 0
-1116 1111 0
-1123 -1116 1112 0
-1117 1112 0
-1123 -1117 0
-1115 -1119 1111 0
-1123 -1115 -1119 1112 0
-1115 -1120 1112 0
-1123 -1115 -1120 0
-1115 -1121 0
-1123 -1115 -1121 0
-1116 -1119 1112 0
-1123 -1116 -1119 0
-1116 -1120 0
-1123 -1116 -1120 0
-1116 -1121 0
-1123 -1116 -1121 0
-1117 -1119 0
-1123 -1117 -1119 0
-1117 -1120 0
-1123 -1117 -1120 0
-1117 -1121 0
-1123 -1117 -1121 0
-1131 1122 1132 0
-1127 1122 1132 0
-1127 -1131 1132 0
-1132 1119 0
-1128 1119 0
-1132 -1128 1120 0
-1129 1120 0
-1132 -1129 1121 0
-1130 1121 0
-1132 -1130 0
-1124 1119 0
-1132 -1124 1120 0
-1125 1120 0
-1132 -1125 1121 0
-1126 1121 0
-1132 -1126 0
-1124 -1128 1120 0
-1132 -1124 -1128 1121 0
-1124 -1129 1121 0
-1132 -1124 -1129 0
-1124 -1130 0
-1132 -1124 -1130 0
-1125 -1128 1121 0
-1132 -1125 -1128 0
-1125 -1129 0
-1132 -1125 -1129 0
-1125 -1130 0
-1132 -1125 -1130 0
-1126 -1128 0
-1132 -1126 -1128 0
-1126 -1129 0
-1132 -1126 -1129 0
-1126 -1130 0
-1132 -1126 -1130 0
-1140 1131 1141 0
-1136 1131 1141 0
-1136 -1140 1141 0
-1141 1128 0
-1137 1128 0
-1141 -1137 1129 0
-1138 1129 0
-1141 -1138 1130 0
-1139 1130 0
-1141 -1139 0
-1133 1128 0
-1141 -1133 1129 0
-1134 1129 0
-1141 -1134 1130 0
-1135 1130 0
-1141 -1135 0
-1133 -1137 1129 0
-1141 -1133 -1137 1130 0
-1133 -1138 1130 0
-1141 -1133 -1138 0
-1133 -1139 0
-1141 -1133 -1139 0
-1134 -1137 1130 0
-1141 -1134 -1137 0
-1134 -1138 0
-1141 -1134 -1138 0
-1134 -1139 0
-1141 -1134 -1139 0
-1135 -1137 0
-1141 -1135 -1137 0
-1135 -1138 0
-1141 -1135 -1138 0
-1135 -1139 0
-1141 -1135 -1139 0
-1145 1140 1146 0
-1143 1140 1146 0
-1143 -1145 1146 0
-1146 1137 0
-1144 1137 0
-1146 -1144 1138 0
-1142 1137 0
-1146 -1142 1138 0
-1142 -1144 1138 0
-1146 -1142 -1144 1139 0
-208 1145 1149 0
-1148 1145 1149 0
-1148 -208 1149 0
-1149 1144 0
-1147 1144 0
-1149 -1147 0
-207 1148 1150 0
-206 1148 1150 0
-206 -207 1150 0
-1150 1147 0
-205 1143 1153 0
-1152 1143 1153 0
-1152 -205 1153 0
-1153 1142 0
-1151 1142 0
-1153 -1151 0
-204 1152 1154 0
-203 1152 1154 0
-203 -204 1154 0
-1154 1151 0
-1159 1136 1160 0
-1157 1136 1160 0
-1157 -1159 1160 0
-1160 1133 0
-1158 1133 0
-1160 -1158 1134 0
-1155 1133 0
-1160 -1155 1134 0
-1156 1134 0
-1160 -1156 1135 0
-1155 -1158 1134 0
-1160 -1155 -1158 1135 0
-1156 -1158 1135 0
-1160 -1156 -1158 0
-202 1159 1163 0
-1162 1159 1163 0
-1162 -202 1163 0
-1163 1158 0
-1161 1158 0
-1163 -1161 0
-201 1162 1164 0
-200 1162 1164 0
-200 -201 1164 0
-1164 1161 0
-1168 1157 1169 0
-1166 1157 1169 0
-1166 -1168 1169 0
-1169 1155 0
-1167 1155 0
-1169 -1167 1156 0
-1165 1155 0
-1169 -1165 1156 0
-1165 -1167 1156 0
-1169 -1165 -1167 0
-199 1168 1170 0
-198 1168 1170 0
-198 -199 1170 0
-1170 1167 0
-197 1166 1171 0
-196 1166 1171 0
-196 -197 1171 0
-1171 1165 0
-1179 1127 1180 0
-1175 1127 1180 0
-1175 -1179 1180 0
-1180 1124 0
-1176 1124 0
-1180 -1176 1125 0
-1177 1125 0
-1180 -1177 1126 0
-1178 1126 0
-1180 -1178 0
-1172 1124 0
-1180 -1172 1125 0
-1173 1125 0
-1180 -1173 1126 0
-1174 1126 0
-1180 -1174 0
-1172 -1176 1125 0
-1180 -1172 -1176 1126 0
-1172 -1177 1126 0
-1180 -1172 -1177 0
-1172 -1178 0
-1180 -1172 -1178 0
-1173 -1176 1126 0
-1180 -1173 -1176 0
-1173 -1177 0
-1180 -1173 -1177 0
-1173 -1178 0
-1180 -1173 -1178 0
-1174 -1176 0
-1180 -1174 -1176 0
-1174 -1177 0
-1180 -1174 -1177 0
-1174 -1178 0
-1180 -1174 -1178 0
-1184 1179 1185 0
-1182 1179 1185 0
-1182 -1184 1185 0
-1185 1176 0
-1183 1176 0
-1185 -1183 1177 0
-1181 1176 0
-1185 -1181 1177 0
-1181 -1183 1177 0
-1185 -1181 -1183 1178 0
-195 1184 1188 0
-1187 1184 1188 0
-1187 -195 1188 0
-1188 1183 0
-1186 1183 0
-1188 -1186 0
-194 1187 1189 0
-193 1187 1189 0
-193 -194 1189 0
-1189 1186 0
-192 1182 1192 0
-1191 1182 1192 0
-1191 -192 1192 0
-1192 1181 0
-1190 1181 0
-1192 -1190 0
-191 1191 1193 0
-190 1191 1193 0
-190 -191 1193 0
-1193 1190 0
-1198 1175 1199 0
-1196 1175 1199 0
-1196 -1198 1199 0
-1199 1172 0
-1197 1172 0
-1199 -1197 1173 0
-1194 1172 0
-1199 -1194 1173 0
-1195 1173 0
-1199 -1195 1174 0
-1194 -1197 1173 0
-1199 -1194 -1197 1174 0
-1195 -1197 1174 0
-1199 -1195 -1197 0
-189 1198 1202 0
-1201 1198 1202 0
-1201 -189 1202 0
-1202 1197 0
-1200 1197 0
-1202 -1200 0
-188 1201 1203 0
-187 1201 1203 0
-187 -188 1203 0
-1203 1200 0
-1207 1196 1208 0
-1205 1196 1208 0
-1205 -1207 1208 0
-1208 1194 0
-1206 1194 0
-1208 -1206 1195 0
-1204 1194 0
-1208 -1204 1195 0
-1204 -1206 1195 0
-1208 -1204 -1206 0
-186 1207 1209 0
-185 1207 1209 0
-185 -186 1209 0
-1209 1206 0
-184 1205 1210 0
-183 1205 1210 0
-183 -184 1210 0
-1210 1204 0
-1218 1118 1219 0
-1214 1118 1219 0
-1214 -1218 1219 0
-1219 1115 0
-1215 1115 0
-1219 -1215 1116 0
-1216 1116 0
-1219 -1216 1117 0
-1217 1117 0
-1219 -1217 0
-1211 1115 0
-1219 -1211 1116 0
-1212 1116 0
-1219 -1212 1117 0
-1213 1117 0
-1219 -1213 0
-1211 -1215 1116 0
-1219 -1211 -1215 1117 0
-1211 -1216 1117 0
-1219 -1211 -1216 0
-1211 -1217 0
-1219 -1211 -1217 0
-1212 -1215 1117 0
-1219 -1212 -1215 0
-1212 -1216 0
-1219 -1212 -1216 0
-1212 -1217 0
-1219 -1212 -1217 0
-1213 -1215 0
-1219 -1213 -1215 0
-1213 -1216 0
-1219 -1213 -1216 0
-1213 -1217 0
-1219 -1213 -1217 0
-1227 1218 1228 0
-1223 1218 1228 0
-1223 -1227 1228 0
-1228 1215 0
-1224 1215 0
-1228 -1224 1216 0
-1225 1216 0
-1228 -1225 1217 0
-1226 1217 0
-1228 -1226 0
-1220 1215 0
-1228 -1220 1216 0
-1221 1216 0
-1228 -1221 1217 0
-1222 1217 0
-1228 -1222 0
-1220 -1224 1216 0
-1228 -1220 -1224 1217 0
-1220 -1225 1217 0
-1228 -1220 -1225 0
-1220 -1226 0
-1228 -1220 -1226 0
-1221 -1224 1217 0
-1228 -1221 -1224 0
-1221 -1225 0
-1228 -1221 -1225 0
-1221 -1226 0
-1228 -1221 -1226 0
-1222 -1224 0
-1228 -1222 -1224 0
-1222 -1225 0
-1228 -1222 -1225 0
-1222 -1226 0
-1228 -1222 -1226 0
-1232 1227 1233 0
-1230 1227 1233 0
-1230 -1232 1233 0
-1233 1224 0
-1231 1224 0
-1233 -1231 1225 0
-1229 1224 0
-1233 -1229 1225 0
-1229 -1231 1225 0
-1233 -1229 -1231 1226 0
-182 1232 1236 0
-1235 1232 1236 0
-1235 -182 1236 0
-1236 1231 0
-1234 1231 0
-1236 -1234 0
-181 1235 1237 0
-180 1235 1237 0
-180 -181 1237 0
-1237 1234 0
-179 1230 1240 0
-1239 1230 1240 0
-1239 -179 1240 0
-1240 1229 0
-1238 1229 0
-1240 -1238 0
-178 1239 1241 0
-177 1239 1241 0
-177 -178 1241 0
-1241 1238 0
-1246 1223 1247 0
-1244 1223 1247 0
-1244 -1246 1247 0
-1247 1220 0
-1245 1220 0
-1247 -1245 1221 0
-1242 1220 0
-1247 -1242 1221 0
-1243 1221 0
-1247 -1243 1222 0
-1242 -1245 1221 0
-1247 -1242 -1245 1222 0
-1243 -1245 1222 0
-1247 -1243 -1245 0
-176 1246 1250 0
-1249 1246 1250 0
-1249 -176 1250 0
-1250 1245 0
-1248 1245 0
-1250 -1248 0
-175 1249 1251 0
-174 1249 1251 0
-174 -175 1251 0
-1251 1248 0
-1255 1244 1256 0
-1253 1244 1256 0
-1253 -1255 1256 0
-1256 1242 0
-1254 1242 0
-1256 -1254 1243 0
-1252 1242 0
-1256 -1252 1243 0
-1252 -1254 1243 0
-1256 -1252 -1254 0
-173 1255 1257 0
-172 1255 1257 0
-172 -173 1257 0
-1257 1254 0
-171 1253 1258 0
-170 1253 1258 0
-170 -171 1258 0
-1258 1252 0
-1266 1214 1267 0
-1262 1214 1267 0
-1262 -1266 1267 0
-1267 1211 0
-1263 1211 0
-1267 -1263 1212 0
-1264 1212 0
-1267 -1264 1213 0
-1265 1213 0
-1267 -1265 0
-1259 1211 0
-1267 -1259 1212 0
-1260 1212 0
-1267 -1260 1213 0
-1261 1213 0
-1267 -1261 0
-1259 -1263 1212 0
-1267 -1259 -1263 1213 0
-1259 -1264 1213 0
-1267 -1259 -1264 0
-1259 -1265 0
-1267 -1259 -1265 0
-1260 -1263 1213 0
-1267 -1260 -1263 0
-1260 -1264 0
-1267 -1260 -1264 0
-1260 -1265 0
-1267 -1260 -1265 0
-1261 -1263 0
-1267 -1261 -1263 0
-1261 -1264 0
-1267 -1261 -1264 0
-1261 -1265 0
-1267 -1261 -1265 0
-1271 1266 1272 0
-1269 1266 1272 0
-1269 -1271 1272 0
-1272 1263 0
-1270 1263 0
-1272 -1270 1264 0
-1268 1263 0
-1272 -1268 1264 0
-1268 -1270 1264 0
-1272 -1268 -1270 1265 0
-169 1271 1275 0
-1274 1271 1275 0
-1274 -169 1275 0
-1275 1270 0
-1273 1270 0
-1275 -1273 0
-168 1274 1276 0
-167 1274 1276 0
-167 -168 1276 0
-1276 1273 0
-166 1269 1279 0
-1278 1269 1279 0
-1278 -166 1279 0
-1279 1268 0
-1277 1268 0
-1279 -1277 0
-165 1278 1280 0
-164 1278 1280 0
-164 -165 1280 0
-1280 1277 0
-1285 1262 1286 0
-1283 1262 1286 0
-1283 -1285 1286 0
-1286 1259 0
-1284 1259 0
-1286 -1284 1260 0
-1281 1259 0
-1286 -1281 1260 0
-1282 1260 0
-1286 -1282 1261 0
-1281 -1284 1260 0
-1286 -1281 -1284 1261 0
-1282 -1284 1261 0
-1286 -1282 -1284 0
-163 1285 1289 0
-1288 1285 1289 0
-1288 -163 1289 0
-1289 1284 0
-1287 1284 0
-1289 -1287 0
-162 1288 1290 0
-161 1288 1290 0
-161 -162 1290 0
-1290 1287 0
-1294 1283 1295 0
-1292 1283 1295 0
-1292 -1294 1295 0
-1295 1281 0
-1293 1281 0
-1295 -1293 1282 0
-1291 1281 0
-1295 -1291 1282 0
-1291 -1293 1282 0
-1295 -1291 -1293 0
-160 1294 1296 0
-159 1294 1296 0
-159 -160 1296 0
-1296 1293 0
-158 1292 1297 0
-157 1292 1297 0
-157 -158 1297 0
-1297 1291 0
-1305 1109 1306 0
-1301 1109 1306 0
-1301 -1305 1306 0
-1306 1106 0
-1302 1106 0
-1306 -1302 1107 0
-1303 1107 0
-1306 -1303 1108 0
-1304 1108 0
-1306 -1304 0
-1298 1106 0
-1306 -1298 1107 0
-1299 1107 0
-1306 -1299 1108 0
-1300 1108 0
-1306 -1300 0
-1298 -1302 1107 0
-1306 -1298 -1302 1108 0
-1298 -1303 1108 0
-1306 -1298 -1303 0
-1298 -1304 0
-1306 -1298 -1304 0
-1299 -1302 1108 0
-1306 -1299 -1302 0
-1299 -1303 0
-1306 -1299 -1303 0
-1299 -1304 0
-1306 -1299 -1304 0
-1300 -1302 0
-1306 -1300 -1302 0
-1300 -1303 0
-1306 -1300 -1303 0
-1300 -1304 0
-1306 -1300 -1304 0
-1314 1305 1315 0
-1310 1305 1315 0
-1310 -1314 1315 0
-1315 1302 0
-1311 1302 0
-1315 -1311 1303 0
-1312 1303 0
-1315 -1312 1304 0
-1313 1304 0
-1315 -1313 0
-1307 1302 0
-1315 -1307 1303 0
-1308 1303 0
-1315 -1308 1304 0
-1309 1304 0
-1315 -1309 0
-1307 -1311 1303 0
-1315 -1307 -1311 1304 0
-1307 -1312 1304 0
-1315 -1307 -1312 0
-1307 -1313 0
-1315 -1307 -1313 0
-1308 -1311 1304 0
-1315 -1308 -1311 0
-1308 -1312 0
-1315 -1308 -1312 0
-1308 -1313 0
-1315 -1308 -1313 0
-1309 -1311 0
-1315 -1309 -1311 0
-1309 -1312 0
-1315 -1309 -1312 0
-1309 -1313 0
-1315 -1309 -1313 0
-1323 1314 1324 0
-1319 1314 1324 0
-1319 -1323 1324 0
-1324 1311 0
-1320 1311 0
-1324 -1320 1312 0
-1321 1312 0
-1324 -1321 1313 0
-1322 1313 0
-1324 -1322 0
-1316 1311 0
-1324 -1316 1312 0
-1317 1312 0
-1324 -1317 1313 0
-1318 1313 0
-1324 -1318 0
-1316 -1320 1312 0
-1324 -1316 -1320 1313 0
-1316 -1321 1313 0
-1324 -1316 -1321 0
-1316 -1322 0
-1324 -1316 -1322 0
-1317 -1320 1313 0
-1324 -1317 -1320 0
-1317 -1321 0
-1324 -1317 -1321 0
-1317 -1322 0
-1324 -1317 -1322 0
-1318 -1320 0
-1324 -1318 -1320 0
-1318 -1321 0
-1324 -1318 -1321 0
-1318 -1322 0
-1324 -1318 -1322 0
-1328 1323 1329 0
-1326 1323 1329 0
-1326 -1328 1329 0
-1329 1320 0
-1327 1320 0
-1329 -1327 1321 0
-1325 1320 0
-1329 -1325 1321 0
-1325 -1327 1321 0
-1329 -1325 -1327 1322 0
-156 1328 1332 0
-1331 1328 1332 0
-1331 -156 1332 0
-1332 1327 0
-1330 1327 0
-1332 -1330 0
-155 1331 1333 0
-154 1331 1333 0
-154 -155 1333 0
-1333 1330 0
-153 1326 1336 0
-1335 1326 1336 0
-1335 -153 1336 0
-1336 1325 0
-1334 1325 0
-1336 -1334 0
-152 1335 1337 0
-151 1335 1337 0
-151 -152 1337 0
-1337 1334 0
-1342 1319 1343 0
-1340 1319 1343 0
-1340 -1342 1343 0
-1343 1316 0
-1341 1316 0
-1343 -1341 1317 0
-1338 1316 0
-1343 -1338 1317 0
-1339 1317 0
-1343 -1339 1318 0
-1338 -1341 1317 0
-1343 -1338 -1341 1318 0
-1339 -1341 1318 0
-1343 -1339 -1341 0
-150 1342 1346 0
-1345 1342 1346 0
-1345 -150 1346 0
-1346 1341 0
-1344 1341 0
-1346 -1344 0
-149 1345 1347 0
-148 1345 1347 0
-148 -149 1347 0
-1347 1344 0
-1351 1340 1352 0
-1349 1340 1352 0
-1349 -1351 1352 0
-1352 1338 0
-1350 1338 0
-1352 -1350 1339 0
-1348 1338 0
-1352 -1348 1339 0
-1348 -1350 1339 0
-1352 -1348 -1350 0
-147 1351 1353 0
-146 1351 1353 0
-146 -147 1353 0
-1353 1350 0
-145 1349 1354 0
-144 1349 1354 0
-144 -145 1354 0
-1354 1348 0
-1362 1310 1363 0
-1358 1310 1363 0
-1358 -1362 1363 0
-1363 1307 0
-1359 1307 0
-1363 -1359 1308 0
-1360 1308 0
-1363 -1360 1309 0
-1361 1309 0
-1363 -1361 0
-1355 1307 0
-1363 -1355 1308 0
-1356 1308 0
-1363 -1356 1309 0
-1357 1309 0
-1363 -1357 0
-1355 -1359 1308 0
-1363 -1355 -1359 1309 0
-1355 -1360 1309 0
-1363 -1355 -1360 0
-1355 -1361 0
-1363 -1355 -1361 0
-1356 -1359 1309 0
-1363 -1356 -1359 0
-1356 -1360 0
-1363 -1356 -1360 0
-1356 -1361 0
-1363 -1356 -1361 0
-1357 -1359 0
-1363 -1357 -1359 0
-1357 -1360 0
-1363 -1357 -1360 0
-1357 -1361 0
-1363 -1357 -1361 0
-1367 1362 1368 0
-1365 1362 1368 0
-1365 -1367 1368 0
-1368 1359 0
-1366 1359 0
-1368 -1366 1360 0
-1364 1359 0
-1368 -1364 1360 0
-1364 -1366 1360 0
-1368 -1364 -1366 1361 0
-143 1367 1371 0
-1370 1367 1371 0
-1370 -143 1371 0
-1371 1366 0
-1369 1366 0
-1371 -1369 0
-142 1370 1372 0
-141 1370 1372 0
-141 -142 1372 0
-1372 1369 0
-140 1365 1375 0
-1374 1365 1375 0
-1374 -140 1375 0
-1375 1364 0
-1373 1364 0
-1375 -1373 0
-139 1374 1376 0
-138 1374 1376 0
-138 -139 1376 0
-1376 1373 0
-1381 1358 1382 0
-1379 1358 1382 0
-1379 -1381 1382 0
-1382 1355 0
-1380 1355 0
-1382 -1380 1356 0
-1377 1355 0
-1382 -1377 1356 0
-1378 1356 0
-1382 -1378 1357 0
-1377 -1380 1356 0
-1382 -1377 -1380 1357 0
-1378 -1380 1357 0
-1382 -1378 -1380 0
-137 1381 1385 0
-1384 1381 1385 0
-1384 -137 1385 0
-1385 1380 0
-1383 1380 0
-1385 -1383 0
-136 1384 1386 0
-135 1384 1386 0
-135 -136 1386 0
-1386 1383 0
-1390 1379 1391 0
-1388 1379 1391 0
-1388 -1390 1391 0
-1391 1377 0
-1389 1377 0
-1391 -1389 1378 0
-1387 1377 0
-1391 -1387 1378 0
-1387 -1389 1378 0
-1391 -1387 -1389 0
-134 1390 1392 0
-133 1390 1392 0
-133 -134 1392 0
-1392 1389 0
-132 1388 1393 0
-131 1388 1393 0
-131 -132 1393 0
-1393 1387 0
-1401 1301 1402 0
-1397 1301 1402 0
-1397 -1401 1402 0
-1402 1298 0
-1398 1298 0
-1402 -1398 1299 0
-1399 1299 0
-1402 -1399 1300 0
-1400 1300 0
-1402 -1400 0
-1394 1298 0
-1402 -1394 1299 0
-1395 1299 0
-1402 -1395 1300 0
-1396 1300 0
-1402 -1396 0
-1394 -1398 1299 0
-1402 -1394 -1398 1300 0
-1394 -1399 1300 0
-1402 -1394 -1399 0
-1394 -1400 0
-1402 -1394 -1400 0
-1395 -1398 1300 0
-1402 -1395 -1398 0
-1395 -1399 0
-1402 -1395 -1399 0
-1395 -1400 0
-1402 -1395 -1400 0
-1396 -1398 0
-1402 -1396 -1398 0
-1396 -1399 0
-1402 -1396 -1399 0
-1396 -1400 0
-1402 -1396 -1400 0
-1410 1401 1411 0
-1406 1401 1411 0
-1406 -1410 1411 0
-1411 1398 0
-1407 1398 0
-1411 -1407 1399 0
-1408 1399 0
-1411 -1408 1400 0
-1409 1400 0
-1411 -1409 0
-1403 1398 0
-1411 -1403 1399 0
-1404 1399 0
-1411 -1404 1400 0
-1405 1400 0
-1411 -1405 0
-1403 -1407 1399 0
-1411 -1403 -1407 1400 0
-1403 -1408 1400 0
-1411 -1403 -1408 0
-1403 -1409 0
-1411 -1403 -1409 0
-1404 -1407 1400 0
-1411 -1404 -1407 0
-1404 -1408 0
-1411 -1404 -1408 0
-1404 -1409 0
-1411 -1404 -1409 0
-1405 -1407 0
-1411 -1405 -1407 0
-1405 -1408 0
-1411 -1405 -1408 0
-1405 -1409 0
-1411 -1405 -1409 0
-1415 1410 1416 0
-1413 1410 1416 0
-1413 -1415 1416 0
-1416 1407 0
-1414 1407 0
-1416 -1414 1408 0
-1412 1407 0
-1416 -1412 1408 0
-1412 -1414 1408 0
-1416 -1412 -1414 1409 0
-130 1415 1419 0
-1418 1415 1419 0
-1418 -130 1419 0
-1419 1414 0
-1417 1414 0
-1419 -1417 0
-129 1418 1420 0
-128 1418 1420 0
-128 -129 1420 0
-1420 1417 0
-127 1413 1423 0
-1422 1413 1423 0
-1422 -127 1423 0
-1423 1412 0
-1421 1412 0
-1423 -1421 0
-126 1422 1424 0
-125 1422 1424 0
-125 -126 1424 0
-1424 1421 0
-1429 1406 1430 0
-1427 1406 1430 0
-1427 -1429 1430 0
-1430 1403 0
-1428 1403 0
-1430 -1428 1404 0
-1425 1403 0
-1430 -1425 1404 0
-1426 1404 0
-1430 -1426 1405 0
-1425 -1428 1404 0
-1430 -1425 -1428 1405 0
-1426 -1428 1405 0
-1430 -1426 -1428 0
-124 1429 1433 0
-1432 1429 1433 0
-1432 -124 1433 0
-1433 1428 0
-1431 1428 0
-1433 -1431 0
-123 1432 1434 0
-122 1432 1434 0
-122 -123 1434 0
-1434 1431 0
-1438 1427 1439 0
-1436 1427 1439 0
-1436 -1438 1439 0
-1439 1425 0
-1437 1425 0
-1439 -1437 1426 0
-1435 1425 0
-1439 -1435 1426 0
-1435 -1437 1426 0
-1439 -1435 -1437 0
-121 1438 1440 0
-120 1438 1440 0
-120 -121 1440 0
-1440 1437 0
-119 1436 1441 0
-118 1436 1441 0
-118 -119 1441 0
-1441 1435 0
-1449 1397 1450 0
-1445 1397 1450 0
-1445 -1449 1450 0
-1450 1394 0
-1446 1394 0
-1450 -1446 1395 0
-1447 1395 0
-1450 -1447 1396 0
-1448 1396 0
-1450 -1448 0
-1442 1394 0
-1450 -1442 1395 0
-1443 1395 0
-1450 -1443 1396 0
-1444 1396 0
-1450 -1444 0
-1442 -1446 1395 0
-1450 -1442 -1446 1396 0
-1442 -1447 1396 0
-1450 -1442 -1447 0
-1442 -1448 0
-1450 -1442 -1448 0
-1443 -1446 1396 0
-1450 -1443 -1446 0
-1443 -1447 0
-1450 -1443 -1447 0
-1443 -1448 0
-1450 -1443 -1448 0
-1444 -1446 0
-1450 -1444 -1446 0
-1444 -1447 0
-1450 -1444 -1447 0
-1444 -1448 0
-1450 -1444 -1448 0
-1454 1449 1455 0
-1452 1449 1455 0
-1452 -1454 1455 0
-1455 1446 0
-1453 1446 0
-1455 -1453 1447 0
-1451 1446 0
-1455 -1451 1447 0
-1451 -1453 1447 0
-1455 -1451 -1453 1448 0
-117 1454 1458 0
-1457 1454 1458 0
-1457 -117 1458 0
-1458 1453 0
-1456 1453 0
-1458 -1456 0
-116 1457 1459 0
-115 1457 1459 0
-115 -116 1459 0
-1459 1456 0
-114 1452 1462 0
-1461 1452 1462 0
-1461 -114 1462 0
-1462 1451 0
-1460 1451 0
-1462 -1460 0
-113 1461 1463 0
-112 1461 1463 0
-112 -113 1463 0
-1463 1460 0
-1468 1445 1469 0
-1466 1445 1469 0
-1466 -1468 1469 0
-1469 1442 0
-1467 1442 0
-1469 -1467 1443 0
-1464 1442 0
-1469 -1464 1443 0
-1465 1443 0
-1469 -1465 1444 0
-1464 -1467 1443 0
-1469 -1464 -1467 1444 0
-1465 -1467 1444 0
-1469 -1465 -1467 0
-111 1468 1472 0
-1471 1468 1472 0
-1471 -111 1472 0
-1472 1467 0
-1470 1467 0
-1472 -1470 0
-110 1471 1473 0
-109 1471 1473 0
-109 -110 1473 0
-1473 1470 0
-1477 1466 1478 0
-1475 1466 1478 0
-1475 -1477 1478 0
-1478 1464 0
-1476 1464 0
-1478 -1476 1465 0
-1474 1464 0
-1478 -1474 1465 0
-1474 -1476 1465 0
-1478 -1474 -1476 0
-108 1477 1479 0
-107 1477 1479 0
-107 -108 1479 0
-1479 1476 0
-106 1475 1480 0
-105 1475 1480 0
-105 -106 1480 0
-1480 1474 0
-1488 1100 1489 0
-1484 1100 1489 0
-1484 -1488 1489 0
-1489 1097 0
-1485 1097 0
-1489 -1485 1098 0
-1486 1098 0
-1489 -1486 1099 0
-1487 1099 0
-1489 -1487 0
-1481 1097 0
-1489 -1481 1098 0
-1482 1098 0
-1489 -1482 1099 0
-1483 1099 0
-1489 -1483 0
-1481 -1485 1098 0
-1489 -1481 -1485 1099 0
-1481 -1486 1099 0
-1489 -1481 -1486 0
-1481 -1487 0
-1489 -1481 -1487 0
-1482 -1485 1099 0
-1489 -1482 -1485 0
-1482 -1486 0
-1489 -1482 -1486 0
-1482 -1487 0
-1489 -1482 -1487 0
-1483 -1485 0
-1489 -1483 -1485 0
-1483 -1486 0
-1489 -1483 -1486 0
-1483 -1487 0
-1489 -1483 -1487 0
-1497 1488 1498 0
-1493 1488 1498 0
-1493 -1497 1498 0
-1498 1485 0
-1494 1485 0
-1498 -1494 1486 0
-1495 1486 0
-1498 -1495 1487 0
-1496 1487 0
-1498 -1496 0
-1490 1485 0
-1498 -1490 1486 0
-1491 1486 0
-1498 -1491 1487 0
-1492 1487 0
-1498 -1492 0
-1490 -1494 1486 0
-1498 -1490 -1494 1487 0
-1490 -1495 1487 0
-1498 -1490 -1495 0
-1490 -1496 0
-1498 -1490 -1496 0
-1491 -1494 1487 0
-1498 -1491 -1494 0
-1491 -1495 0
-1498 -1491 -1495 0
-1491 -1496 0
-1498 -1491 -1496 0
-1492 -1494 0
-1498 -1492 -1494 0
-1492 -1495 0
-1498 -1492 -1495 0
-1492 -1496 0
-1498 -1492 -1496 0
-1506 1497 1507 0
-1502 1497 1507 0
-1502 -1506 1507 0
-1507 1494 0
-1503 1494 0
-1507 -1503 1495 0
-1504 1495 0
-1507 -1504 1496 0
-1505 1496 0
-1507 -1505 0
-1499 1494 0
-1507 -1499 1495 0
-1500 1495 0
-1507 -1500 1496 0
-1501 1496 0
-1507 -1501 0
-1499 -1503 1495 0
-1507 -1499 -1503 1496 0
-1499 -1504 1496 0
-1507 -1499 -1504 0
-1499 -1505 0
-1507 -1499 -1505 0
-1500 -1503 1496 0
-1507 -1500 -1503 0
-1500 -1504 0
-1507 -1500 -1504 0
-1500 -1505 0
-1507 -1500 -1505 0
-1501 -1503 0
-1507 -1501 -1503 0
-1501 -1504 0
-1507 -1501 -1504 0
-1501 -1505 0
-1507 -1501 -1505 0
-1515 1506 1516 0
-1511 1506 1516 0
-1511 -1515 1516 0
-1516 1503 0
-1512 1503 0
-1516 -1512 1504 0
-1513 1504 0
-1516 -1513 1505 0
-1514 1505 0
-1516 -1514 0
-1508 1503 0
-1516 -1508 1504 0
-1509 1504 0
-1516 -1509 1505 0
-1510 1505 0
-1516 -1510 0
-1508 -1512 1504 0
-1516 -1508 -1512 1505 0
-1508 -1513 1505 0
-1516 -1508 -1513 0
-1508 -1514 0
-1516 -1508 -1514 0
-1509 -1512 1505 0
-1516 -1509 -1512 0
-1509 -1513 0
-1516 -1509 -1513 0
-1509 -1514 0
-1516 -1509 -1514 0
-1510 -1512 0
-1516 -1510 -1512 0
-1510 -1513 0
-1516 -1510 -1513 0
-1510 -1514 0
-1516 -1510 -1514 0
-1520 1515 1521 0
-1518 1515 1521 0
-1518 -1520 1521 0
-1521 1512 0
-1519 1512 0
-1521 -1519 1513 0
-1517 1512 0
-1521 -1517 1513 0
-1517 -1519 1513 0
-1521 -1517 -1519 1514 0
-104 1520 1524 0
-1523 1520 1524 0
-1523 -104 1524 0
-1524 1519 0
-1522 1519 0
-1524 -1522 0
-103 1523 1525 0
-102 1523 1525 0
-102 -103 1525 0
-1525 1522 0
-101 1518 1528 0
-1527 1518 1528 0
-1527 -101 1528 0
-1528 1517 0
-1526 1517 0
-1528 -1526 0
-100 1527 1529 0
-99 1527 1529 0
-99 -100 1529 0
-1529 1526 0
-1534 1511 1535 0
-1532 1511 1535 0
-1532 -1534 1535 0
-1535 1508 0
-1533 1508 0
-1535 -1533 1509 0
-1530 1508 0
-1535 -1530 1509 0
-1531 1509 0
-1535 -1531 1510 0
-1530 -1533 1509 0
-1535 -1530 -1533 1510 0
-1531 -1533 1510 0
-1535 -1531 -1533 0
-98 1534 1538 0
-1537 1534 1538 0
-1537 -98 1538 0
-1538 1533 0
-1536 1533 0
-1538 -1536 0
-97 1537 1539 0
-96 1537 1539 0
-96 -97 1539 0
-1539 1536 0
-1543 1532 1544 0
-1541 1532 1544 0
-1541 -1543 1544 0
-1544 1530 0
-1542 1530 0
-1544 -1542 1531 0
-1540 1530 0
-1544 -1540 1531 0
-1540 -1542 1531 0
-1544 -1540 -1542 0
-95 1543 1545 0
-94 1543 1545 0
-94 -95 1545 0
-1545 1542 0
-93 1541 1546 0
-92 1541 1546 0
-92 -93 1546 0
-1546 1540 0
-1554 1502 1555 0
-1550 1502 1555 0
-1550 -1554 1555 0
-1555 1499 0
-1551 1499 0
-1555 -1551 1500 0
-1552 1500 0
-1555 -1552 1501 0
-1553 1501 0
-1555 -1553 0
-1547 1499 0
-1555 -1547 1500 0
-1548 1500 0
-1555 -1548 1501 0
-1549 1501 0
-1555 -1549 0
-1547 -1551 1500 0
-1555 -1547 -1551 1501 0
-1547 -1552 1501 0
-1555 -1547 -1552 0
-1547 -1553 0
-1555 -1547 -1553 0
-1548 -1551 1501 0
-1555 -1548 -1551 0
-1548 -1552 0
-1555 -1548 -1552 0
-1548 -1553 0
-1555 -1548 -1553 0
-1549 -1551 0
-1555 -1549 -1551 0
-1549 -1552 0
-1555 -1549 -1552 0
-1549 -1553 0
-1555 -1549 -1553 0
-1559 1554 1560 0
-1557 1554 1560 0
-1557 -1559 1560 0
-1560 1551 0
-1558 1551 0
-1560 -1558 1552 0
-1556 1551 0
-1560 -1556 1552 0
-1556 -1558 1552 0
-1560 -1556 -1558 1553 0
-91 1559 1563 0
-1562 1559 1563 0
-1562 -91 1563 0
-1563 1558 0
-1561 1558 0
-1563 -1561 0
-90 1562 1564 0
-89 1562 1564 0
-89 -90 1564 0
-1564 1561 0
-88 1557 1567 0
-1566 1557 1567 0
-1566 -88 1567 0
-1567 1556 0
-1565 1556 0
-1567 -1565 0
-87 1566 1568 0
-86 1566 1568 0
-86 -87 1568 0
-1568 1565 0
-1573 1550 1574 0
-1571 1550 1574 0
-1571 -1573 1574 0
-1574 1547 0
-1572 1547 0
-1574 -1572 1548 0
-1569 1547 0
-1574 -1569 1548 0
-1570 1548 0
-1574 -1570 1549 0
-1569 -1572 1548 0
-1574 -1569 -1572 1549 0
-1570 -1572 1549 0
-1574 -1570 -1572 0
-85 1573 1577 0
-1576 1573 1577 0
-1576 -85 1577 0
-1577 1572 0
-1575 1572 0
-1577 -1575 0
-84 1576 1578 0
-83 1576 1578 0
-83 -84 1578 0
-1578 1575 0
-1582 1571 1583 0
-1580 1571 1583 0
-1580 -1582 1583 0
-1583 1569 0
-1581 1569 0
-1583 -1581 1570 0
-1579 1569 0
-1583 -1579 1570 0
-1579 -1581 1570 0
-1583 -1579 -1581 0
-82 1582 1584 0
-81 1582 1584 0
-81 -82 1584 0
-1584 1581 0
-80 1580 1585 0
-79 1580 1585 0
-79 -80 1585 0
-1585 1579 0
-1593 1493 1594 0
-1589 1493 1594 0
-1589 -1593 1594 0
-1594 1490 0
-1590 1490 0
-1594 -1590 1491 0
-1591 1491 0
-1594 -1591 1492 0
-1592 1492 0
-1594 -1592 0
-1586 1490 0
-1594 -1586 1491 0
-1587 1491 0
-1594 -1587 1492 0
-1588 1492 0
-1594 -1588 0
-1586 -1590 1491 0
-1594 -1586 -1590 1492 0
-1586 -1591 1492 0
-1594 -1586 -1591 0
-1586 -1592 0
-1594 -1586 -1592 0
-1587 -1590 1492 0
-1594 -1587 -1590 0
-1587 -1591 0
-1594 -1587 -1591 0
-1587 -1592 0
-1594 -1587 -1592 0
-1588 -1590 0
-1594 -1588 -1590 0
-1588 -1591 0
-1594 -1588 -1591 0
-1588 -1592 0
-1594 -1588 -1592 0
-1602 1593 1603 0
-1598 1593 1603 0
-1598 -1602 1603 0
-1603 1590 0
-1599 1590 0
-1603 -1599 1591 0
-1600 1591 0
-1603 -1600 1592 0
-1601 1592 0
-1603 -1601 0
-1595 1590 0
-1603 -1595 1591 0
-1596 1591 0
-1603 -1596 1592 0
-1597 1592 0
-1603 -1597 0
-1595 -1599 1591 0
-1603 -1595 -1599 1592 0
-1595 -1600 1592 0
-1603 -1595 -1600 0
-1595 -1601 0
-1603 -1595 -1601 0
-1596 -1599 1592 0
-1603 -1596 -1599 0
-1596 -1600 0
-1603 -1596 -1600 0
-1596 -1601 0
-1603 -1596 -1601 0
-1597 -1599 0
-1603 -1597 -1599 0
-1597 -1600 0
-1603 -1597 -1600 0
-1597 -1601 0
-1603 -1597 -1601 0
-1607 1602 1608 0
-1605 1602 1608 0
-1605 -1607 1608 0
-1608 1599 0
-1606 1599 0
-1608 -1606 1600 0
-1604 1599 0
-1608 -1604 1600 0
-1604 -1606 1600 0
-1608 -1604 -1606 1601 0
-78 1607 1611 0
-1610 1607 1611 0
-1610 -78 1611 0
-1611 1606 0
-1609 1606 0
-1611 -1609 0
-77 1610 1612 0
-76 1610 1612 0
-76 -77 1612 0
-1612 1609 0
-75 1605 1615 0
-1614 1605 1615 0
-1614 -75 1615 0
-1615 1604 0
-1613 1604 0
-1615 -1613 0
-74 1614 1616 0
-73 1614 1616 0
-73 -74 1616 0
-1616 1613 0
-1621 1598 1622 0
-1619 1598 1622 0
-1619 -1621 1622 0
-1622 1595 0
-1620 1595 0
-1622 -1620 1596 0
-1617 1595 0
-1622 -1617 1596 0
-1618 1596 0
-1622 -1618 1597 0
-1617 -1620 1596 0
-1622 -1617 -1620 1597 0
-1618 -1620 1597 0
-1622 -1618 -1620 0
-72 1621 1625 0
-1624 1621 1625 0
-1624 -72 1625 0
-1625 1620 0
-1623 1620 0
-1625 -1623 0
-71 1624 1626 0
-70 1624 1626 0
-70 -71 1626 0
-1626 1623 0
-1630 1619 1631 0
-1628 1619 1631 0
-1628 -1630 1631 0
-1631 1617 0
-1629 1617 0
-1631 -1629 1618 0
-1627 1617 0
-1631 -1627 1618 0
-1627 -1629 1618 0
-1631 -1627 -1629 0
-69 1630 1632 0
-68 1630 1632 0
-68 -69 1632 0
-1632 1629 0
-67 1628 1633 0
-66 1628 1633 0
-66 -67 1633 0
-1633 1627 0
-1641 1589 1642 0
-1637 1589 1642 0
-1637 -1641 1642 0
-1642 1586 0
-1638 1586 0
-1642 -1638 1587 0
-1639 1587 0
-1642 -1639 1588 0
-1640 1588 0
-1642 -1640 0
-1634 1586 0
-1642 -1634 1587 0
-1635 1587 0
-1642 -1635 1588 0
-1636 1588 0
-1642 -1636 0
-1634 -1638 1587 0
-1642 -1634 -1638 1588 0
-1634 -1639 1588 0
-1642 -1634 -1639 0
-1634 -1640 0
-1642 -1634 -1640 0
-1635 -1638 1588 0
-1642 -1635 -1638 0
-1635 -1639 0
-1642 -1635 -1639 0
-1635 -1640 0
-1642 -1635 -1640 0
-1636 -1638 0
-1642 -1636 -1638 0
-1636 -1639 0
-1642 -1636 -1639 0
-1636 -1640 0
-1642 -1636 -1640 0
-1646 1641 1647 0
-1644 1641 1647 0
-1644 -1646 1647 0
-1647 1638 0
-1645 1638 0
-1647 -1645 1639 0
-1643 1638 0
-1647 -1643 1639 0
-1643 -1645 1639 0
-1647 -1643 -1645 1640 0
-65 1646 1650 0
-1649 1646 1650 0
-1649 -65 1650 0
-1650 1645 0
-1648 1645 0
-1650 -1648 0
-64 1649 1651 0
-63 1649 1651 0
-63 -64 1651 0
-1651 1648 0
-62 1644 1654 0
-1653 1644 1654 0
-1653 -62 1654 0
-1654 1643 0
-1652 1643 0
-1654 -1652 0
-61 1653 1655 0
-60 1653 1655 0
-60 -61 1655 0
-1655 1652 0
-1660 1637 1661 0
-1658 1637 1661 0
-1658 -1660 1661 0
-1661 1634 0
-1659 1634 0
-1661 -1659 1635 0
-1656 1634 0
-1661 -1656 1635 0
-1657 1635 0
-1661 -1657 1636 0
-1656 -1659 1635 0
-1661 -1656 -1659 1636 0
-1657 -1659 1636 0
-1661 -1657 -1659 0
-59 1660 1664 0
-1663 1660 1664 0
-1663 -59 1664 0
-1664 1659 0
-1662 1659 0
-1664 -1662 0
-58 1663 1665 0
-57 1663 1665 0
-57 -58 1665 0
-1665 1662 0
-1669 1658 1670 0
-1667 1658 1670 0
-1667 -1669 1670 0
-1670 1656 0
-1668 1656 0
-1670 -1668 1657 0
-1666 1656 0
-1670 -1666 1657 0
-1666 -1668 1657 0
-1670 -1666 -1668 0
-56 1669 1671 0
-55 1669 1671 0
-55 -56 1671 0
-1671 1668 0
-54 1667 1672 0
-53 1667 1672 0
-53 -54 1672 0
-1672 1666 0
-1680 1484 1681 0
-1676 1484 1681 0
-1676 -1680 1681 0
-1681 1481 0
-1677 1481 0
-1681 -1677 1482 0
-1678 1482 0
-1681 -1678 1483 0
-1679 1483 0
-1681 -1679 0
-1673 1481 0
-1681 -1673 1482 0
-1674 1482 0
-1681 -1674 1483 0
-1675 1483 0
-1681 -1675 0
-1673 -1677 1482 0
-1681 -1673 -1677 1483 0
-1673 -1678 1483 0
-1681 -1673 -1678 0
-1673 -1679 0
-1681 -1673 -1679 0
-1674 -1677 1483 0
-1681 -1674 -1677 0
-1674 -1678 0
-1681 -1674 -1678 0
-1674 -1679 0
-1681 -1674 -1679 0
-1675 -1677 0
-1681 -1675 -1677 0
-1675 -1678 0
-1681 -1675 -1678 0
-1675 -1679 0
-1681 -1675 -1679 0
-1689 1680 1690 0
-1685 1680 1690 0
-1685 -1689 1690 0
-1690 1677 0
-1686 1677 0
-1690 -1686 1678 0
-1687 1678 0
-1690 -1687 1679 0
-1688 1679 0
-1690 -1688 0
-1682 1677 0
-1690 -1682 1678 0
-1683 1678 0
-1690 -1683 1679 0
-1684 1679 0
-1690 -1684 0
-1682 -1686 1678 0
-1690 -1682 -1686 1679 0
-1682 -1687 1679 0
-1690 -1682 -1687 0
-1682 -1688 0
-1690 -1682 -1688 0
-1683 -1686 1679 0
-1690 -1683 -1686 0
-1683 -1687 0
-1690 -1683 -1687 0
-1683 -1688 0
-1690 -1683 -1688 0
-1684 -1686 0
-1690 -1684 -1686 0
-1684 -1687 0
-1690 -1684 -1687 0
-1684 -1688 0
-1690 -1684 -1688 0
-1698 1689 1699 0
-1694 1689 1699 0
-1694 -1698 1699 0
-1699 1686 0
-1695 1686 0
-1699 -1695 1687 0
-1696 1687 0
-1699 -1696 1688 0
-1697 1688 0
-1699 -1697 0
-1691 1686 0
-1699 -1691 1687 0
-1692 1687 0
-1699 -1692 1688 0
-1693 1688 0
-1699 -1693 0
-1691 -1695 1687 0
-1699 -1691 -1695 1688 0
-1691 -1696 1688 0
-1699 -1691 -1696 0
-1691 -1697 0
-1699 -1691 -1697 0
-1692 -1695 1688 0
-1699 -1692 -1695 0
-1692 -1696 0
-1699 -1692 -1696 0
-1692 -1697 0
-1699 -1692 -1697 0
-1693 -1695 0
-1699 -1693 -1695 0
-1693 -1696 0
-1699 -1693 -1696 0
-1693 -1697 0
-1699 -1693 -1697 0
-1703 1698 1704 0
-1701 1698 1704 0
-1701 -1703 1704 0
-1704 1695 0
-1702 1695 0
-1704 -1702 1696 0
-1700 1695 0
-1704 -1700 1696 0
-1700 -1702 1696 0
-1704 -1700 -1702 1697 0
-52 1703 1707 0
-1706 1703 1707 0
-1706 -52 1707 0
-1707 1702 0
-1705 1702 0
-1707 -1705 0
-51 1706 1708 0
-50 1706 1708 0
-50 -51 1708 0
-1708 1705 0
-49 1701 1711 0
-1710 1701 1711 0
-1710 -49 1711 0
-1711 1700 0
-1709 1700 0
-1711 -1709 0
-48 1710 1712 0
-47 1710 1712 0
-47 -48 1712 0
-1712 1709 0
-1717 1694 1718 0
-1715 1694 1718 0
-1715 -1717 1718 0
-1718 1691 0
-1716 1691 0
-1718 -1716 1692 0
-1713 1691 0
-1718 -1713 1692 0
-1714 1692 0
-1718 -1714 1693 0
-1713 -1716 1692 0
-1718 -1713 -1716 1693 0
-1714 -1716 1693 0
-1718 -1714 -1716 0
-46 1717 1721 0
-1720 1717 1721 0
-1720 -46 1721 0
-1721 1716 0
-1719 1716 0
-1721 -1719 0
-45 1720 1722 0
-44 1720 1722 0
-44 -45 1722 0
-1722 1719 0
-1726 1715 1727 0
-1724 1715 1727 0
-1724 -1726 1727 0
-1727 1713 0
-1725 1713 0
-1727 -1725 1714 0
-1723 1713 0
-1727 -1723 1714 0
-1723 -1725 1714 0
-1727 -1723 -1725 0
-43 1726 1728 0
-42 1726 1728 0
-42 -43 1728 0
-1728 1725 0
-41 1724 1729 0
-40 1724 1729 0
-40 -41 1729 0
-1729 1723 0
-1737 1685 1738 0
-1733 1685 1738 0
-1733 -1737 1738 0
-1738 1682 0
-1734 1682 0
-1738 -1734 1683 0
-1735 1683 0
-1738 -1735 1684 0
-1736 1684 0
-1738 -1736 0
-1730 1682 0
-1738 -1730 1683 0
-1731 1683 0
-1738 -1731 1684 0
-1732 1684 0
-1738 -1732 0
-1730 -1734 1683 0
-1738 -1730 -1734 1684 0
-1730 -1735 1684 0
-1738 -1730 -1735 0
-1730 -1736 0
-1738 -1730 -1736 0
-1731 -1734 1684 0
-1738 -1731 -1734 0
-1731 -1735 0
-1738 -1731 -1735 0
-1731 -1736 0
-1738 -1731 -1736 0
-1732 -1734 0
-1738 -1732 -1734 0
-1732 -1735 0
-1738 -1732 -1735 0
-1732 -1736 0
-1738 -1732 -1736 0
-1742 1737 1743 0
-1740 1737 1743 0
-1740 -1742 1743 0
-1743 1734 0
-1741 1734 0
-1743 -1741 1735 0
-1739 1734 0
-1743 -1739 1735 0
-1739 -1741 1735 0
-1743 -1739 -1741 1736 0
-39 1742 1746 0
-1745 1742 1746 0
-1745 -39 1746 0
-1746 1741 0
-1744 1741 0
-1746 -1744 0
-38 1745 1747 0
-37 1745 1747 0
-37 -38 1747 0
-1747 1744 0
-36 1740 1750 0
-1749 1740 1750 0
-1749 -36 1750 0
-1750 1739 0
-1748 1739 0
-1750 -1748 0
-35 1749 1751 0
-34 1749 1751 0
-34 -35 1751 0
-1751 1748 0
-1756 1733 1757 0
-1754 1733 1757 0
-1754 -1756 1757 0
-1757 1730 0
-1755 1730 0
-1757 -1755 1731 0
-1752 1730 0
-1757 -1752 1731 0
-1753 1731 0
-1757 -1753 1732 0
-1752 -1755 1731 0
-1757 -1752 -1755 1732 0
-1753 -1755 1732 0
-1757 -1753 -1755 0
-33 1756 1760 0
-1759 1756 1760 0
-1759 -33 1760 0
-1760 1755 0
-1758 1755 0
-1760 -1758 0
-32 1759 1761 0
-31 1759 1761 0
-31 -32 1761 0
-1761 1758 0
-1765 1754 1766 0
-1763 1754 1766 0
-1763 -1765 1766 0
-1766 1752 0
-1764 1752 0
-1766 -1764 1753 0
-1762 1752 0
-1766 -1762 1753 0
-1762 -1764 1753 0
-1766 -1762 -1764 0
-30 1765 1767 0
-29 1765 1767 0
-29 -30 1767 0
-1767 1764 0
-28 1763 1768 0
-27 1763 1768 0
-27 -28 1768 0
-1768 1762 0
-1776 1676 1777 0
-1772 1676 1777 0
-1772 -1776 1777 0
-1777 1673 0
-1773 1673 0
-1777 -1773 1674 0
-1774 1674 0
-1777 -1774 1675 0
-1775 1675 0
-1777 -1775 0
-1769 1673 0
-1777 -1769 1674 0
-1770 1674 0
-1777 -1770 1675 0
-1771 1675 0
-1777 -1771 0
-1769 -1773 1674 0
-1777 -1769 -1773 1675 0
-1769 -1774 1675 0
-1777 -1769 -1774 0
-1769 -1775 0
-1777 -1769 -1775 0
-1770 -1773 1675 0
-1777 -1770 -1773 0
-1770 -1774 0
-1777 -1770 -1774 0
-1770 -1775 0
-1777 -1770 -1775 0
-1771 -1773 0
-1777 -1771 -1773 0
-1771 -1774 0
-1777 -1771 -1774 0
-1771 -1775 0
-1777 -1771 -1775 0
-1785 1776 1786 0
-1781 1776 1786 0
-1781 -1785 1786 0
-1786 1773 0
-1782 1773 0
-1786 -1782 1774 0
-1783 1774 0
-1786 -1783 1775 0
-1784 1775 0
-1786 -1784 0
-1778 1773 0
-1786 -1778 1774 0
-1779 1774 0
-1786 -1779 1775 0
-1780 1775 0
-1786 -1780 0
-1778 -1782 1774 0
-1786 -1778 -1782 1775 0
-1778 -1783 1775 0
-1786 -1778 -1783 0
-1778 -1784 0
-1786 -1778 -1784 0
-1779 -1782 1775 0
-1786 -1779 -1782 0
-1779 -1783 0
-1786 -1779 -1783 0
-1779 -1784 0
-1786 -1779 -1784 0
-1780 -1782 0
-1786 -1780 -1782 0
-1780 -1783 0
-1786 -1780 -1783 0
-1780 -1784 0
-1786 -1780 -1784 0
-1790 1785 1791 0
-1788 1785 1791 0
-1788 -1790 1791 0
-1791 1782 0
-1789 1782 0
-1791 -1789 1783 0
-1787 1782 0
-1791 -1787 1783 0
-1787 -1789 1783 0
-1791 -1787 -1789 1784 0
-26 1790 1794 0
-1793 1790 1794 0
-1793 -26 1794 0
-1794 1789 0
-1792 1789 0
-1794 -1792 0
-25 1793 1795 0
-24 1793 1795 0
-24 -25 1795 0
-1795 1792 0
-23 1788 1798 0
-1797 1788 1798 0
-1797 -23 1798 0
-1798 1787 0
-1796 1787 0
-1798 -1796 0
-22 1797 1799 0
-21 1797 1799 0
-21 -22 1799 0
-1799 1796 0
-1804 1781 1805 0
-1802 1781 1805 0
-1802 -1804 1805 0
-1805 1778 0
-1803 1778 0
-1805 -1803 1779 0
-1800 1778 0
-1805 -1800 1779 0
-1801 1779 0
-1805 -1801 1780 0
-1800 -1803 1779 0
-1805 -1800 -1803 1780 0
-1801 -1803 1780 0
-1805 -1801 -1803 0
-20 1804 1808 0
-1807 1804 1808 0
-1807 -20 1808 0
-1808 1803 0
-1806 1803 0
-1808 -1806 0
-19 1807 1809 0
-18 1807 1809 0
-18 -19 1809 0
-1809 1806 0
-1813 1802 1814 0
-1811 1802 1814 0
-1811 -1813 1814 0
-1814 1800 0
-1812 1800 0
-1814 -1812 1801 0
-1810 1800 0
-1814 -1810 1801 0
-1810 -1812 1801 0
-1814 -1810 -1812 0
-17 1813 1815 0
-16 1813 1815 0
-16 -17 1815 0
-1815 1812 0
-15 1811 1816 0
-14 1811 1816 0
-14 -15 1816 0
-1816 1810 0
-1824 1772 1825 0
-1820 1772 1825 0
-1820 -1824 1825 0
-1825 1769 0
-1821 1769 0
-1825 -1821 1770 0
-1822 1770 0
-1825 -1822 1771 0
-1823 1771 0
-1825 -1823 0
-1817 1769 0
-1825 -1817 1770 0
-1818 1770 0
-1825 -1818 1771 0
-1819 1771 0
-1825 -1819 0
-1817 -1821 1770 0
-1825 -1817 -1821 1771 0
-1817 -1822 1771 0
-1825 -1817 -1822 0
-1817 -1823 0
-1825 -1817 -1823 0
-1818 -1821 1771 0
-1825 -1818 -1821 0
-1818 -1822 0
-1825 -1818 -1822 0
-1818 -1823 0
-1825 -1818 -1823 0
-1819 -1821 0
-1825 -1819 -1821 0
-1819 -1822 0
-1825 -1819 -1822 0
-1819 -1823 0
-1825 -1819 -1823 0
-1829 1824 1830 0
-1827 1824 1830 0
-1827 -1829 1830 0
-1830 1821 0
-1828 1821 0
-1830 -1828 1822 0
-1826 1821 0
-1830 -1826 1822 0
-1826 -1828 1822 0
-1830 -1826 -1828 1823 0
-13 1829 1833 0
-1832 1829 1833 0
-1832 -13 1833 0
-1833 1828 0
-1831 1828 0
-1833 -1831 0
-12 1832 1834 0
-11 1832 1834 0
-11 -12 1834 0
-1834 1831 0
-10 1827 1837 0
-1836 1827 1837 0
-1836 -10 1837 0
-1837 1826 0
-1835 1826 0
-1837 -1835 0
-9 1836 1838 0
-8 1836 1838 0
-8 -9 1838 0
-1838 1835 0
-1843 1820 1844 0
-1841 1820 1844 0
-1841 -1843 1844 0
-1844 1817 0
-1842 1817 0
-1844 -1842 1818 0
-1839 1817 0
-1844 -1839 1818 0
-1840 1818 0
-1844 -1840 1819 0
-1839 -1842 1818 0
-1844 -1839 -1842 1819 0
-1840 -1842 1819 0
-1844 -1840 -1842 0
-7 1843 1847 0
-1846 1843 1847 0
-1846 -7 1847 0
-1847 1842 0
-1845 1842 0
-1847 -1845 0
-6 1846 1848 0
-5 1846 1848 0
-5 -6 1848 0
-1848 1845 0
-1852 1841 1853 0
-1850 1841 1853 0
-1850 -1852 1853 0
-1853 1839 0
-1851 1839 0
-1853 -1851 1840 0
-1849 1839 0
-1853 -1849 1840 0
-1849 -1851 1840 0
-1853 -1849 -1851 0
-4 1852 1854 0
-3 1852 1854 0
-3 -4 1854 0
-1854 1851 0
-2 1850 1855 0
-1 1850 1855 0
-1 -2 1855 0
-1855 1849 0
-1095 -1096 0
