p cnf 2229 6998
1 112 -233 0
-1 -112 -233 0
1 -112 233 0
-1 112 233 0
233 113 -234 0
-233 -113 -234 0
233 -113 234 0
-233 113 234 0
234 116 -235 0
-234 -116 -235 0
234 -116 235 0
-234 116 235 0
235 117 -236 0
-235 -117 -236 0
235 -117 236 0
-235 117 236 0
236 213 -237 0
-236 -213 -237 0
236 -213 237 0
-236 213 237 0
237 221 -238 0
-237 -221 -238 0
237 -221 238 0
-237 221 238 0
238 225 -239 0
-238 -225 -239 0
238 -225 239 0
-238 225 239 0
-239 0
1 2 -240 0
-1 -2 -240 0
1 -2 240 0
-1 2 240 0
240 113 -241 0
-240 -113 -241 0
240 -113 241 0
-240 113 241 0
241 114 -242 0
-241 -114 -242 0
241 -114 242 0
-241 114 242 0
242 118 -243 0
-242 -118 -243 0
242 -118 243 0
-242 118 243 0
243 214 -244 0
-243 -214 -244 0
243 -214 244 0
-243 214 244 0
244 222 -245 0
-244 -222 -245 0
244 -222 245 0
-244 222 245 0
245 226 -246 0
-245 -226 -246 0
245 -226 246 0
-245 226 246 0
-246 0
2 3 -247 0
-2 -3 -247 0
2 -3 247 0
-2 3 247 0
247 114 -248 0
-247 -114 -248 0
247 -114 248 0
-247 114 248 0
248 115 -249 0
-248 -115 -249 0
248 -115 249 0
-248 115 249 0
249 119 -250 0
-249 -119 -250 0
249 -119 250 0
-249 119 250 0
250 215 -251 0
-250 -215 -251 0
250 -215 251 0
-250 215 251 0
251 223 -252 0
-251 -223 -252 0
251 -223 252 0
-251 223 252 0
252 227 -253 0
-252 -227 -253 0
252 -227 253 0
-252 227 253 0
-253 0
3 4 -254 0
-3 -4 -254 0
3 -4 254 0
-3 4 254 0
254 115 -255 0
-254 -115 -255 0
254 -115 255 0
-254 115 255 0
255 116 -256 0
-255 -116 -256 0
255 -116 256 0
-255 116 256 0
256 120 -257 0
-256 -120 -257 0
256 -120 257 0
-256 120 257 0
257 216 -258 0
-257 -216 -258 0
257 -216 258 0
-257 216 258 0
258 224 -259 0
-258 -224 -259 0
258 -224 259 0
-258 224 259 0
259 228 -260 0
-259 -228 -260 0
259 -228 260 0
-259 228 260 0
-260 0
1 4 -261 0
-1 -4 -261 0
1 -4 261 0
-1 4 261 0
261 5 -262 0
-261 -5 -262 0
261 -5 262 0
-261 5 262 0
262 116 -263 0
-262 -116 -263 0
262 -116 263 0
-262 116 263 0
263 121 -264 0
-263 -121 -264 0
263 -121 264 0
-263 121 264 0
264 217 -265 0
-264 -217 -265 0
264 -217 265 0
-264 217 265 0
265 225 -266 0
-265 -225 -266 0
265 -225 266 0
-265 225 266 0
266 229 -267 0
-266 -229 -267 0
266 -229 267 0
-266 229 267 0
-267 0
1 2 -268 0
-1 -2 -268 0
1 -2 268 0
-1 2 268 0
268 5 -269 0
-268 -5 -269 0
268 -5 269 0
-268 5 269 0
269 6 -270 0
-269 -6 -270 0
269 -6 270 0
-269 6 270 0
270 122 -271 0
-270 -122 -271 0
270 -122 271 0
-270 122 271 0
271 218 -272 0
-271 -218 -272 0
271 -218 272 0
-271 218 272 0
272 226 -273 0
-272 -226 -273 0
272 -226 273 0
-272 226 273 0
273 230 -274 0
-273 -230 -274 0
273 -230 274 0
-273 230 274 0
-274 0
2 3 -275 0
-2 -3 -275 0
2 -3 275 0
-2 3 275 0
275 6 -276 0
-275 -6 -276 0
275 -6 276 0
-275 6 276 0
276 7 -277 0
-276 -7 -277 0
276 -7 277 0
-276 7 277 0
277 123 -278 0
-277 -123 -278 0
277 -123 278 0
-277 123 278 0
278 219 -279 0
-278 -219 -279 0
278 -219 279 0
-278 219 279 0
279 227 -280 0
-279 -227 -280 0
279 -227 280 0
-279 227 280 0
280 231 -281 0
-280 -231 -281 0
280 -231 281 0
-280 231 281 0
-281 0
3 4 -282 0
-3 -4 -282 0
3 -4 282 0
-3 4 282 0
282 7 -283 0
-282 -7 -283 0
282 -7 283 0
-282 7 283 0
283 8 -284 0
-283 -8 -284 0
283 -8 284 0
-283 8 284 0
284 124 -285 0
-284 -124 -285 0
284 -124 285 0
-284 124 285 0
285 220 -286 0
-285 -220 -286 0
285 -220 286 0
-285 220 286 0
286 228 -287 0
-286 -228 -287 0
286 -228 287 0
-286 228 287 0
287 232 -288 0
-287 -232 -288 0
287 -232 288 0
-287 232 288 0
-288 0
4 5 -289 0
-4 -5 -289 0
4 -5 289 0
-4 5 289 0
289 8 -290 0
-289 -8 -290 0
289 -8 290 0
-289 8 290 0
290 9 -291 0
-290 -9 -291 0
290 -9 291 0
-290 9 291 0
291 117 -292 0
-291 -117 -292 0
291 -117 292 0
-291 117 292 0
292 125 -293 0
-292 -125 -293 0
292 -125 293 0
-292 125 293 0
293 221 -294 0
-293 -221 -294 0
293 -221 294 0
-293 221 294 0
294 229 -295 0
-294 -229 -295 0
294 -229 295 0
-294 229 295 0
-295 0
5 6 -296 0
-5 -6 -296 0
5 -6 296 0
-5 6 296 0
296 9 -297 0
-296 -9 -297 0
296 -9 297 0
-296 9 297 0
297 10 -298 0
-297 -10 -298 0
297 -10 298 0
-297 10 298 0
298 118 -299 0
-298 -118 -299 0
298 -118 299 0
-298 118 299 0
299 126 -300 0
-299 -126 -300 0
299 -126 300 0
-299 126 300 0
300 222 -301 0
-300 -222 -301 0
300 -222 301 0
-300 222 301 0
301 230 -302 0
-301 -230 -302 0
301 -230 302 0
-301 230 302 0
-302 0
6 7 -303 0
-6 -7 -303 0
6 -7 303 0
-6 7 303 0
303 10 -304 0
-303 -10 -304 0
303 -10 304 0
-303 10 304 0
304 11 -305 0
-304 -11 -305 0
304 -11 305 0
-304 11 305 0
305 119 -306 0
-305 -119 -306 0
305 -119 306 0
-305 119 306 0
306 127 -307 0
-306 -127 -307 0
306 -127 307 0
-306 127 307 0
307 223 -308 0
-307 -223 -308 0
307 -223 308 0
-307 223 308 0
308 231 -309 0
-308 -231 -309 0
308 -231 309 0
-308 231 309 0
-309 0
7 8 -310 0
-7 -8 -310 0
7 -8 310 0
-7 8 310 0
310 11 -311 0
-310 -11 -311 0
310 -11 311 0
-310 11 311 0
311 12 -312 0
-311 -12 -312 0
311 -12 312 0
-311 12 312 0
312 120 -313 0
-312 -120 -313 0
312 -120 313 0
-312 120 313 0
313 128 -314 0
-313 -128 -314 0
313 -128 314 0
-313 128 314 0
314 224 -315 0
-314 -224 -315 0
314 -224 315 0
-314 224 315 0
315 232 -316 0
-315 -232 -316 0
315 -232 316 0
-315 232 316 0
-316 0
8 9 -317 0
-8 -9 -317 0
8 -9 317 0
-8 9 317 0
317 12 -318 0
-317 -12 -318 0
317 -12 318 0
-317 12 318 0
318 13 -319 0
-318 -13 -319 0
318 -13 319 0
-318 13 319 0
319 117 -320 0
-319 -117 -320 0
319 -117 320 0
-319 117 320 0
320 121 -321 0
-320 -121 -321 0
320 -121 321 0
-320 121 321 0
321 129 -322 0
-321 -129 -322 0
321 -129 322 0
-321 129 322 0
322 225 -323 0
-322 -225 -323 0
322 -225 323 0
-322 225 323 0
-323 0
9 10 -324 0
-9 -10 -324 0
9 -10 324 0
-9 10 324 0
324 13 -325 0
-324 -13 -325 0
324 -13 325 0
-324 13 325 0
325 14 -326 0
-325 -14 -326 0
325 -14 326 0
-325 14 326 0
326 118 -327 0
-326 -118 -327 0
326 -118 327 0
-326 118 327 0
327 122 -328 0
-327 -122 -328 0
327 -122 328 0
-327 122 328 0
328 130 -329 0
-328 -130 -329 0
328 -130 329 0
-328 130 329 0
329 226 -330 0
-329 -226 -330 0
329 -226 330 0
-329 226 330 0
-330 0
10 11 -331 0
-10 -11 -331 0
10 -11 331 0
-10 11 331 0
331 14 -332 0
-331 -14 -332 0
331 -14 332 0
-331 14 332 0
332 15 -333 0
-332 -15 -333 0
332 -15 333 0
-332 15 333 0
333 119 -334 0
-333 -119 -334 0
333 -119 334 0
-333 119 334 0
334 123 -335 0
-334 -123 -335 0
334 -123 335 0
-334 123 335 0
335 131 -336 0
-335 -131 -336 0
335 -131 336 0
-335 131 336 0
336 227 -337 0
-336 -227 -337 0
336 -227 337 0
-336 227 337 0
-337 0
11 12 -338 0
-11 -12 -338 0
11 -12 338 0
-11 12 338 0
338 15 -339 0
-338 -15 -339 0
338 -15 339 0
-338 15 339 0
339 16 -340 0
-339 -16 -340 0
339 -16 340 0
-339 16 340 0
340 120 -341 0
-340 -120 -341 0
340 -120 341 0
-340 120 341 0
341 124 -342 0
-341 -124 -342 0
341 -124 342 0
-341 124 342 0
342 132 -343 0
-342 -132 -343 0
342 -132 343 0
-342 132 343 0
343 228 -344 0
-343 -228 -344 0
343 -228 344 0
-343 228 344 0
-344 0
12 13 -345 0
-12 -13 -345 0
12 -13 345 0
-12 13 345 0
345 16 -346 0
-345 -16 -346 0
345 -16 346 0
-345 16 346 0
346 17 -347 0
-346 -17 -347 0
346 -17 347 0
-346 17 347 0
347 121 -348 0
-347 -121 -348 0
347 -121 348 0
-347 121 348 0
348 125 -349 0
-348 -125 -349 0
348 -125 349 0
-348 125 349 0
349 133 -350 0
-349 -133 -350 0
349 -133 350 0
-349 133 350 0
350 229 -351 0
-350 -229 -351 0
350 -229 351 0
-350 229 351 0
-351 0
13 14 -352 0
-13 -14 -352 0
13 -14 352 0
-13 14 352 0
352 17 -353 0
-352 -17 -353 0
352 -17 353 0
-352 17 353 0
353 18 -354 0
-353 -18 -354 0
353 -18 354 0
-353 18 354 0
354 122 -355 0
-354 -122 -355 0
354 -122 355 0
-354 122 355 0
355 126 -356 0
-355 -126 -356 0
355 -126 356 0
-355 126 356 0
356 134 -357 0
-356 -134 -357 0
356 -134 357 0
-356 134 357 0
357 230 -358 0
-357 -230 -358 0
357 -230 358 0
-357 230 358 0
-358 0
14 15 -359 0
-14 -15 -359 0
14 -15 359 0
-14 15 359 0
359 18 -360 0
-359 -18 -360 0
359 -18 360 0
-359 18 360 0
360 19 -361 0
-360 -19 -361 0
360 -19 361 0
-360 19 361 0
361 123 -362 0
-361 -123 -362 0
361 -123 362 0
-361 123 362 0
362 127 -363 0
-362 -127 -363 0
362 -127 363 0
-362 127 363 0
363 135 -364 0
-363 -135 -364 0
363 -135 364 0
-363 135 364 0
364 231 -365 0
-364 -231 -365 0
364 -231 365 0
-364 231 365 0
-365 0
15 16 -366 0
-15 -16 -366 0
15 -16 366 0
-15 16 366 0
366 19 -367 0
-366 -19 -367 0
366 -19 367 0
-366 19 367 0
367 20 -368 0
-367 -20 -368 0
367 -20 368 0
-367 20 368 0
368 124 -369 0
-368 -124 -369 0
368 -124 369 0
-368 124 369 0
369 128 -370 0
-369 -128 -370 0
369 -128 370 0
-369 128 370 0
370 136 -371 0
-370 -136 -371 0
370 -136 371 0
-370 136 371 0
371 232 -372 0
-371 -232 -372 0
371 -232 372 0
-371 232 372 0
-372 0
16 17 -373 0
-16 -17 -373 0
16 -17 373 0
-16 17 373 0
373 20 -374 0
-373 -20 -374 0
373 -20 374 0
-373 20 374 0
374 21 -375 0
-374 -21 -375 0
374 -21 375 0
-374 21 375 0
375 117 -376 0
-375 -117 -376 0
375 -117 376 0
-375 117 376 0
376 125 -377 0
-376 -125 -377 0
376 -125 377 0
-376 125 377 0
377 129 -378 0
-377 -129 -378 0
377 -129 378 0
-377 129 378 0
378 137 -379 0
-378 -137 -379 0
378 -137 379 0
-378 137 379 0
-379 0
17 18 -380 0
-17 -18 -380 0
17 -18 380 0
-17 18 380 0
380 21 -381 0
-380 -21 -381 0
380 -21 381 0
-380 21 381 0
381 22 -382 0
-381 -22 -382 0
381 -22 382 0
-381 22 382 0
382 118 -383 0
-382 -118 -383 0
382 -118 383 0
-382 118 383 0
383 126 -384 0
-383 -126 -384 0
383 -126 384 0
-383 126 384 0
384 130 -385 0
-384 -130 -385 0
384 -130 385 0
-384 130 385 0
385 138 -386 0
-385 -138 -386 0
385 -138 386 0
-385 138 386 0
-386 0
18 19 -387 0
-18 -19 -387 0
18 -19 387 0
-18 19 387 0
387 22 -388 0
-387 -22 -388 0
387 -22 388 0
-387 22 388 0
388 23 -389 0
-388 -23 -389 0
388 -23 389 0
-388 23 389 0
389 119 -390 0
-389 -119 -390 0
389 -119 390 0
-389 119 390 0
390 127 -391 0
-390 -127 -391 0
390 -127 391 0
-390 127 391 0
391 131 -392 0
-391 -131 -392 0
391 -131 392 0
-391 131 392 0
392 139 -393 0
-392 -139 -393 0
392 -139 393 0
-392 139 393 0
-393 0
19 20 -394 0
-19 -20 -394 0
19 -20 394 0
-19 20 394 0
394 23 -395 0
-394 -23 -395 0
394 -23 395 0
-394 23 395 0
395 24 -396 0
-395 -24 -396 0
395 -24 396 0
-395 24 396 0
396 120 -397 0
-396 -120 -397 0
396 -120 397 0
-396 120 397 0
397 128 -398 0
-397 -128 -398 0
397 -128 398 0
-397 128 398 0
398 132 -399 0
-398 -132 -399 0
398 -132 399 0
-398 132 399 0
399 140 -400 0
-399 -140 -400 0
399 -140 400 0
-399 140 400 0
-400 0
20 21 -401 0
-20 -21 -401 0
20 -21 401 0
-20 21 401 0
401 24 -402 0
-401 -24 -402 0
401 -24 402 0
-401 24 402 0
402 25 -403 0
-402 -25 -403 0
402 -25 403 0
-402 25 403 0
403 121 -404 0
-403 -121 -404 0
403 -121 404 0
-403 121 404 0
404 129 -405 0
-404 -129 -405 0
404 -129 405 0
-404 129 405 0
405 133 -406 0
-405 -133 -406 0
405 -133 406 0
-405 133 406 0
406 141 -407 0
-406 -141 -407 0
406 -141 407 0
-406 141 407 0
-407 0
21 22 -408 0
-21 -22 -408 0
21 -22 408 0
-21 22 408 0
408 25 -409 0
-408 -25 -409 0
408 -25 409 0
-408 25 409 0
409 26 -410 0
-409 -26 -410 0
409 -26 410 0
-409 26 410 0
410 122 -411 0
-410 -122 -411 0
410 -122 411 0
-410 122 411 0
411 130 -412 0
-411 -130 -412 0
411 -130 412 0
-411 130 412 0
412 134 -413 0
-412 -134 -413 0
412 -134 413 0
-412 134 413 0
413 142 -414 0
-413 -142 -414 0
413 -142 414 0
-413 142 414 0
-414 0
22 23 -415 0
-22 -23 -415 0
22 -23 415 0
-22 23 415 0
415 26 -416 0
-415 -26 -416 0
415 -26 416 0
-415 26 416 0
416 27 -417 0
-416 -27 -417 0
416 -27 417 0
-416 27 417 0
417 123 -418 0
-417 -123 -418 0
417 -123 418 0
-417 123 418 0
418 131 -419 0
-418 -131 -419 0
418 -131 419 0
-418 131 419 0
419 135 -420 0
-419 -135 -420 0
419 -135 420 0
-419 135 420 0
420 143 -421 0
-420 -143 -421 0
420 -143 421 0
-420 143 421 0
-421 0
23 24 -422 0
-23 -24 -422 0
23 -24 422 0
-23 24 422 0
422 27 -423 0
-422 -27 -423 0
422 -27 423 0
-422 27 423 0
423 28 -424 0
-423 -28 -424 0
423 -28 424 0
-423 28 424 0
424 124 -425 0
-424 -124 -425 0
424 -124 425 0
-424 124 425 0
425 132 -426 0
-425 -132 -426 0
425 -132 426 0
-425 132 426 0
426 136 -427 0
-426 -136 -427 0
426 -136 427 0
-426 136 427 0
427 144 -428 0
-427 -144 -428 0
427 -144 428 0
-427 144 428 0
-428 0
24 25 -429 0
-24 -25 -429 0
24 -25 429 0
-24 25 429 0
429 28 -430 0
-429 -28 -430 0
429 -28 430 0
-429 28 430 0
430 29 -431 0
-430 -29 -431 0
430 -29 431 0
-430 29 431 0
431 125 -432 0
-431 -125 -432 0
431 -125 432 0
-431 125 432 0
432 133 -433 0
-432 -133 -433 0
432 -133 433 0
-432 133 433 0
433 137 -434 0
-433 -137 -434 0
433 -137 434 0
-433 137 434 0
434 145 -435 0
-434 -145 -435 0
434 -145 435 0
-434 145 435 0
-435 0
25 26 -436 0
-25 -26 -436 0
25 -26 436 0
-25 26 436 0
436 29 -437 0
-436 -29 -437 0
436 -29 437 0
-436 29 437 0
437 30 -438 0
-437 -30 -438 0
437 -30 438 0
-437 30 438 0
438 126 -439 0
-438 -126 -439 0
438 -126 439 0
-438 126 439 0
439 134 -440 0
-439 -134 -440 0
439 -134 440 0
-439 134 440 0
440 138 -441 0
-440 -138 -441 0
440 -138 441 0
-440 138 441 0
441 146 -442 0
-441 -146 -442 0
441 -146 442 0
-441 146 442 0
-442 0
26 27 -443 0
-26 -27 -443 0
26 -27 443 0
-26 27 443 0
443 30 -444 0
-443 -30 -444 0
443 -30 444 0
-443 30 444 0
444 31 -445 0
-444 -31 -445 0
444 -31 445 0
-444 31 445 0
445 127 -446 0
-445 -127 -446 0
445 -127 446 0
-445 127 446 0
446 135 -447 0
-446 -135 -447 0
446 -135 447 0
-446 135 447 0
447 139 -448 0
-447 -139 -448 0
447 -139 448 0
-447 139 448 0
448 147 -449 0
-448 -147 -449 0
448 -147 449 0
-448 147 449 0
-449 0
27 28 -450 0
-27 -28 -450 0
27 -28 450 0
-27 28 450 0
450 31 -451 0
-450 -31 -451 0
450 -31 451 0
-450 31 451 0
451 32 -452 0
-451 -32 -452 0
451 -32 452 0
-451 32 452 0
452 128 -453 0
-452 -128 -453 0
452 -128 453 0
-452 128 453 0
453 136 -454 0
-453 -136 -454 0
453 -136 454 0
-453 136 454 0
454 140 -455 0
-454 -140 -455 0
454 -140 455 0
-454 140 455 0
455 148 -456 0
-455 -148 -456 0
455 -148 456 0
-455 148 456 0
-456 0
28 29 -457 0
-28 -29 -457 0
28 -29 457 0
-28 29 457 0
457 32 -458 0
-457 -32 -458 0
457 -32 458 0
-457 32 458 0
458 33 -459 0
-458 -33 -459 0
458 -33 459 0
-458 33 459 0
459 129 -460 0
-459 -129 -460 0
459 -129 460 0
-459 129 460 0
460 137 -461 0
-460 -137 -461 0
460 -137 461 0
-460 137 461 0
461 141 -462 0
-461 -141 -462 0
461 -141 462 0
-461 141 462 0
462 149 -463 0
-462 -149 -463 0
462 -149 463 0
-462 149 463 0
-463 0
29 30 -464 0
-29 -30 -464 0
29 -30 464 0
-29 30 464 0
464 33 -465 0
-464 -33 -465 0
464 -33 465 0
-464 33 465 0
465 34 -466 0
-465 -34 -466 0
465 -34 466 0
-465 34 466 0
466 130 -467 0
-466 -130 -467 0
466 -130 467 0
-466 130 467 0
467 138 -468 0
-467 -138 -468 0
467 -138 468 0
-467 138 468 0
468 142 -469 0
-468 -142 -469 0
468 -142 469 0
-468 142 469 0
469 150 -470 0
-469 -150 -470 0
469 -150 470 0
-469 150 470 0
-470 0
30 31 -471 0
-30 -31 -471 0
30 -31 471 0
-30 31 471 0
471 34 -472 0
-471 -34 -472 0
471 -34 472 0
-471 34 472 0
472 35 -473 0
-472 -35 -473 0
472 -35 473 0
-472 35 473 0
473 131 -474 0
-473 -131 -474 0
473 -131 474 0
-473 131 474 0
474 139 -475 0
-474 -139 -475 0
474 -139 475 0
-474 139 475 0
475 143 -476 0
-475 -143 -476 0
475 -143 476 0
-475 143 476 0
476 151 -477 0
-476 -151 -477 0
476 -151 477 0
-476 151 477 0
-477 0
31 32 -478 0
-31 -32 -478 0
31 -32 478 0
-31 32 478 0
478 35 -479 0
-478 -35 -479 0
478 -35 479 0
-478 35 479 0
479 36 -480 0
-479 -36 -480 0
479 -36 480 0
-479 36 480 0
480 132 -481 0
-480 -132 -481 0
480 -132 481 0
-480 132 481 0
481 140 -482 0
-481 -140 -482 0
481 -140 482 0
-481 140 482 0
482 144 -483 0
-482 -144 -483 0
482 -144 483 0
-482 144 483 0
483 152 -484 0
-483 -152 -484 0
483 -152 484 0
-483 152 484 0
-484 0
32 33 -485 0
-32 -33 -485 0
32 -33 485 0
-32 33 485 0
485 36 -486 0
-485 -36 -486 0
485 -36 486 0
-485 36 486 0
486 37 -487 0
-486 -37 -487 0
486 -37 487 0
-486 37 487 0
487 133 -488 0
-487 -133 -488 0
487 -133 488 0
-487 133 488 0
488 141 -489 0
-488 -141 -489 0
488 -141 489 0
-488 141 489 0
489 145 -490 0
-489 -145 -490 0
489 -145 490 0
-489 145 490 0
490 153 -491 0
-490 -153 -491 0
490 -153 491 0
-490 153 491 0
-491 0
33 34 -492 0
-33 -34 -492 0
33 -34 492 0
-33 34 492 0
492 37 -493 0
-492 -37 -493 0
492 -37 493 0
-492 37 493 0
493 38 -494 0
-493 -38 -494 0
493 -38 494 0
-493 38 494 0
494 134 -495 0
-494 -134 -495 0
494 -134 495 0
-494 134 495 0
495 142 -496 0
-495 -142 -496 0
495 -142 496 0
-495 142 496 0
496 146 -497 0
-496 -146 -497 0
496 -146 497 0
-496 146 497 0
497 154 -498 0
-497 -154 -498 0
497 -154 498 0
-497 154 498 0
-498 0
34 35 -499 0
-34 -35 -499 0
34 -35 499 0
-34 35 499 0
499 38 -500 0
-499 -38 -500 0
499 -38 500 0
-499 38 500 0
500 39 -501 0
-500 -39 -501 0
500 -39 501 0
-500 39 501 0
501 135 -502 0
-501 -135 -502 0
501 -135 502 0
-501 135 502 0
502 143 -503 0
-502 -143 -503 0
502 -143 503 0
-502 143 503 0
503 147 -504 0
-503 -147 -504 0
503 -147 504 0
-503 147 504 0
504 155 -505 0
-504 -155 -505 0
504 -155 505 0
-504 155 505 0
-505 0
35 36 -506 0
-35 -36 -506 0
35 -36 506 0
-35 36 506 0
506 39 -507 0
-506 -39 -507 0
506 -39 507 0
-506 39 507 0
507 40 -508 0
-507 -40 -508 0
507 -40 508 0
-507 40 508 0
508 136 -509 0
-508 -136 -509 0
508 -136 509 0
-508 136 509 0
509 144 -510 0
-509 -144 -510 0
509 -144 510 0
-509 144 510 0
510 148 -511 0
-510 -148 -511 0
510 -148 511 0
-510 148 511 0
511 156 -512 0
-511 -156 -512 0
511 -156 512 0
-511 156 512 0
-512 0
36 37 -513 0
-36 -37 -513 0
36 -37 513 0
-36 37 513 0
513 40 -514 0
-513 -40 -514 0
513 -40 514 0
-513 40 514 0
514 41 -515 0
-514 -41 -515 0
514 -41 515 0
-514 41 515 0
515 137 -516 0
-515 -137 -516 0
515 -137 516 0
-515 137 516 0
516 145 -517 0
-516 -145 -517 0
516 -145 517 0
-516 145 517 0
517 149 -518 0
-517 -149 -518 0
517 -149 518 0
-517 149 518 0
518 157 -519 0
-518 -157 -519 0
518 -157 519 0
-518 157 519 0
-519 0
37 38 -520 0
-37 -38 -520 0
37 -38 520 0
-37 38 520 0
520 41 -521 0
-520 -41 -521 0
520 -41 521 0
-520 41 521 0
521 42 -522 0
-521 -42 -522 0
521 -42 522 0
-521 42 522 0
522 138 -523 0
-522 -138 -523 0
522 -138 523 0
-522 138 523 0
523 146 -524 0
-523 -146 -524 0
523 -146 524 0
-523 146 524 0
524 150 -525 0
-524 -150 -525 0
524 -150 525 0
-524 150 525 0
525 158 -526 0
-525 -158 -526 0
525 -158 526 0
-525 158 526 0
-526 0
38 39 -527 0
-38 -39 -527 0
38 -39 527 0
-38 39 527 0
527 42 -528 0
-527 -42 -528 0
527 -42 528 0
-527 42 528 0
528 43 -529 0
-528 -43 -529 0
528 -43 529 0
-528 43 529 0
529 139 -530 0
-529 -139 -530 0
529 -139 530 0
-529 139 530 0
530 147 -531 0
-530 -147 -531 0
530 -147 531 0
-530 147 531 0
531 151 -532 0
-531 -151 -532 0
531 -151 532 0
-531 151 532 0
532 159 -533 0
-532 -159 -533 0
532 -159 533 0
-532 159 533 0
-533 0
39 40 -534 0
-39 -40 -534 0
39 -40 534 0
-39 40 534 0
534 43 -535 0
-534 -43 -535 0
534 -43 535 0
-534 43 535 0
535 44 -536 0
-535 -44 -536 0
535 -44 536 0
-535 44 536 0
536 140 -537 0
-536 -140 -537 0
536 -140 537 0
-536 140 537 0
537 148 -538 0
-537 -148 -538 0
537 -148 538 0
-537 148 538 0
538 152 -539 0
-538 -152 -539 0
538 -152 539 0
-538 152 539 0
539 160 -540 0
-539 -160 -540 0
539 -160 540 0
-539 160 540 0
-540 0
40 41 -541 0
-40 -41 -541 0
40 -41 541 0
-40 41 541 0
541 44 -542 0
-541 -44 -542 0
541 -44 542 0
-541 44 542 0
542 45 -543 0
-542 -45 -543 0
542 -45 543 0
-542 45 543 0
543 141 -544 0
-543 -141 -544 0
543 -141 544 0
-543 141 544 0
544 149 -545 0
-544 -149 -545 0
544 -149 545 0
-544 149 545 0
545 153 -546 0
-545 -153 -546 0
545 -153 546 0
-545 153 546 0
546 161 -547 0
-546 -161 -547 0
546 -161 547 0
-546 161 547 0
-547 0
41 42 -548 0
-41 -42 -548 0
41 -42 548 0
-41 42 548 0
548 45 -549 0
-548 -45 -549 0
548 -45 549 0
-548 45 549 0
549 46 -550 0
-549 -46 -550 0
549 -46 550 0
-549 46 550 0
550 142 -551 0
-550 -142 -551 0
550 -142 551 0
-550 142 551 0
551 150 -552 0
-551 -150 -552 0
551 -150 552 0
-551 150 552 0
552 154 -553 0
-552 -154 -553 0
552 -154 553 0
-552 154 553 0
553 162 -554 0
-553 -162 -554 0
553 -162 554 0
-553 162 554 0
-554 0
42 43 -555 0
-42 -43 -555 0
42 -43 555 0
-42 43 555 0
555 46 -556 0
-555 -46 -556 0
555 -46 556 0
-555 46 556 0
556 47 -557 0
-556 -47 -557 0
556 -47 557 0
-556 47 557 0
557 143 -558 0
-557 -143 -558 0
557 -143 558 0
-557 143 558 0
558 151 -559 0
-558 -151 -559 0
558 -151 559 0
-558 151 559 0
559 155 -560 0
-559 -155 -560 0
559 -155 560 0
-559 155 560 0
560 163 -561 0
-560 -163 -561 0
560 -163 561 0
-560 163 561 0
-561 0
43 44 -562 0
-43 -44 -562 0
43 -44 562 0
-43 44 562 0
562 47 -563 0
-562 -47 -563 0
562 -47 563 0
-562 47 563 0
563 48 -564 0
-563 -48 -564 0
563 -48 564 0
-563 48 564 0
564 144 -565 0
-564 -144 -565 0
564 -144 565 0
-564 144 565 0
565 152 -566 0
-565 -152 -566 0
565 -152 566 0
-565 152 566 0
566 156 -567 0
-566 -156 -567 0
566 -156 567 0
-566 156 567 0
567 164 -568 0
-567 -164 -568 0
567 -164 568 0
-567 164 568 0
-568 0
44 45 -569 0
-44 -45 -569 0
44 -45 569 0
-44 45 569 0
569 48 -570 0
-569 -48 -570 0
569 -48 570 0
-569 48 570 0
570 49 -571 0
-570 -49 -571 0
570 -49 571 0
-570 49 571 0
571 145 -572 0
-571 -145 -572 0
571 -145 572 0
-571 145 572 0
572 153 -573 0
-572 -153 -573 0
572 -153 573 0
-572 153 573 0
573 157 -574 0
-573 -157 -574 0
573 -157 574 0
-573 157 574 0
574 165 -575 0
-574 -165 -575 0
574 -165 575 0
-574 165 575 0
-575 0
45 46 -576 0
-45 -46 -576 0
45 -46 576 0
-45 46 576 0
576 49 -577 0
-576 -49 -577 0
576 -49 577 0
-576 49 577 0
577 50 -578 0
-577 -50 -578 0
577 -50 578 0
-577 50 578 0
578 146 -579 0
-578 -146 -579 0
578 -146 579 0
-578 146 579 0
579 154 -580 0
-579 -154 -580 0
579 -154 580 0
-579 154 580 0
580 158 -581 0
-580 -158 -581 0
580 -158 581 0
-580 158 581 0
581 166 -582 0
-581 -166 -582 0
581 -166 582 0
-581 166 582 0
-582 0
46 47 -583 0
-46 -47 -583 0
46 -47 583 0
-46 47 583 0
583 50 -584 0
-583 -50 -584 0
583 -50 584 0
-583 50 584 0
584 51 -585 0
-584 -51 -585 0
584 -51 585 0
-584 51 585 0
585 147 -586 0
-585 -147 -586 0
585 -147 586 0
-585 147 586 0
586 155 -587 0
-586 -155 -587 0
586 -155 587 0
-586 155 587 0
587 159 -588 0
-587 -159 -588 0
587 -159 588 0
-587 159 588 0
588 167 -589 0
-588 -167 -589 0
588 -167 589 0
-588 167 589 0
-589 0
47 48 -590 0
-47 -48 -590 0
47 -48 590 0
-47 48 590 0
590 51 -591 0
-590 -51 -591 0
590 -51 591 0
-590 51 591 0
591 52 -592 0
-591 -52 -592 0
591 -52 592 0
-591 52 592 0
592 148 -593 0
-592 -148 -593 0
592 -148 593 0
-592 148 593 0
593 156 -594 0
-593 -156 -594 0
593 -156 594 0
-593 156 594 0
594 160 -595 0
-594 -160 -595 0
594 -160 595 0
-594 160 595 0
595 168 -596 0
-595 -168 -596 0
595 -168 596 0
-595 168 596 0
-596 0
48 49 -597 0
-48 -49 -597 0
48 -49 597 0
-48 49 597 0
597 52 -598 0
-597 -52 -598 0
597 -52 598 0
-597 52 598 0
598 53 -599 0
-598 -53 -599 0
598 -53 599 0
-598 53 599 0
599 149 -600 0
-599 -149 -600 0
599 -149 600 0
-599 149 600 0
600 157 -601 0
-600 -157 -601 0
600 -157 601 0
-600 157 601 0
601 161 -602 0
-601 -161 -602 0
601 -161 602 0
-601 161 602 0
602 169 -603 0
-602 -169 -603 0
602 -169 603 0
-602 169 603 0
-603 0
49 50 -604 0
-49 -50 -604 0
49 -50 604 0
-49 50 604 0
604 53 -605 0
-604 -53 -605 0
604 -53 605 0
-604 53 605 0
605 54 -606 0
-605 -54 -606 0
605 -54 606 0
-605 54 606 0
606 150 -607 0
-606 -150 -607 0
606 -150 607 0
-606 150 607 0
607 158 -608 0
-607 -158 -608 0
607 -158 608 0
-607 158 608 0
608 162 -609 0
-608 -162 -609 0
608 -162 609 0
-608 162 609 0
609 170 -610 0
-609 -170 -610 0
609 -170 610 0
-609 170 610 0
-610 0
50 51 -611 0
-50 -51 -611 0
50 -51 611 0
-50 51 611 0
611 54 -612 0
-611 -54 -612 0
611 -54 612 0
-611 54 612 0
612 55 -613 0
-612 -55 -613 0
612 -55 613 0
-612 55 613 0
613 151 -614 0
-613 -151 -614 0
613 -151 614 0
-613 151 614 0
614 159 -615 0
-614 -159 -615 0
614 -159 615 0
-614 159 615 0
615 163 -616 0
-615 -163 -616 0
615 -163 616 0
-615 163 616 0
616 171 -617 0
-616 -171 -617 0
616 -171 617 0
-616 171 617 0
-617 0
51 52 -618 0
-51 -52 -618 0
51 -52 618 0
-51 52 618 0
618 55 -619 0
-618 -55 -619 0
618 -55 619 0
-618 55 619 0
619 56 -620 0
-619 -56 -620 0
619 -56 620 0
-619 56 620 0
620 152 -621 0
-620 -152 -621 0
620 -152 621 0
-620 152 621 0
621 160 -622 0
-621 -160 -622 0
621 -160 622 0
-621 160 622 0
622 164 -623 0
-622 -164 -623 0
622 -164 623 0
-622 164 623 0
623 172 -624 0
-623 -172 -624 0
623 -172 624 0
-623 172 624 0
-624 0
52 53 -625 0
-52 -53 -625 0
52 -53 625 0
-52 53 625 0
625 56 -626 0
-625 -56 -626 0
625 -56 626 0
-625 56 626 0
626 57 -627 0
-626 -57 -627 0
626 -57 627 0
-626 57 627 0
627 153 -628 0
-627 -153 -628 0
627 -153 628 0
-627 153 628 0
628 161 -629 0
-628 -161 -629 0
628 -161 629 0
-628 161 629 0
629 165 -630 0
-629 -165 -630 0
629 -165 630 0
-629 165 630 0
630 173 -631 0
-630 -173 -631 0
630 -173 631 0
-630 173 631 0
-631 0
53 54 -632 0
-53 -54 -632 0
53 -54 632 0
-53 54 632 0
632 57 -633 0
-632 -57 -633 0
632 -57 633 0
-632 57 633 0
633 58 -634 0
-633 -58 -634 0
633 -58 634 0
-633 58 634 0
634 154 -635 0
-634 -154 -635 0
634 -154 635 0
-634 154 635 0
635 162 -636 0
-635 -162 -636 0
635 -162 636 0
-635 162 636 0
636 166 -637 0
-636 -166 -637 0
636 -166 637 0
-636 166 637 0
637 174 -638 0
-637 -174 -638 0
637 -174 638 0
-637 174 638 0
-638 0
54 55 -639 0
-54 -55 -639 0
54 -55 639 0
-54 55 639 0
639 58 -640 0
-639 -58 -640 0
639 -58 640 0
-639 58 640 0
640 59 -641 0
-640 -59 -641 0
640 -59 641 0
-640 59 641 0
641 155 -642 0
-641 -155 -642 0
641 -155 642 0
-641 155 642 0
642 163 -643 0
-642 -163 -643 0
642 -163 643 0
-642 163 643 0
643 167 -644 0
-643 -167 -644 0
643 -167 644 0
-643 167 644 0
644 175 -645 0
-644 -175 -645 0
644 -175 645 0
-644 175 645 0
-645 0
55 56 -646 0
-55 -56 -646 0
55 -56 646 0
-55 56 646 0
646 59 -647 0
-646 -59 -647 0
646 -59 647 0
-646 59 647 0
647 60 -648 0
-647 -60 -648 0
647 -60 648 0
-647 60 648 0
648 156 -649 0
-648 -156 -649 0
648 -156 649 0
-648 156 649 0
649 164 -650 0
-649 -164 -650 0
649 -164 650 0
-649 164 650 0
650 168 -651 0
-650 -168 -651 0
650 -168 651 0
-650 168 651 0
651 176 -652 0
-651 -176 -652 0
651 -176 652 0
-651 176 652 0
-652 0
56 57 -653 0
-56 -57 -653 0
56 -57 653 0
-56 57 653 0
653 60 -654 0
-653 -60 -654 0
653 -60 654 0
-653 60 654 0
654 61 -655 0
-654 -61 -655 0
654 -61 655 0
-654 61 655 0
655 157 -656 0
-655 -157 -656 0
655 -157 656 0
-655 157 656 0
656 165 -657 0
-656 -165 -657 0
656 -165 657 0
-656 165 657 0
657 169 -658 0
-657 -169 -658 0
657 -169 658 0
-657 169 658 0
658 177 -659 0
-658 -177 -659 0
658 -177 659 0
-658 177 659 0
-659 0
57 58 -660 0
-57 -58 -660 0
57 -58 660 0
-57 58 660 0
660 61 -661 0
-660 -61 -661 0
660 -61 661 0
-660 61 661 0
661 62 -662 0
-661 -62 -662 0
661 -62 662 0
-661 62 662 0
662 158 -663 0
-662 -158 -663 0
662 -158 663 0
-662 158 663 0
663 166 -664 0
-663 -166 -664 0
663 -166 664 0
-663 166 664 0
664 170 -665 0
-664 -170 -665 0
664 -170 665 0
-664 170 665 0
665 178 -666 0
-665 -178 -666 0
665 -178 666 0
-665 178 666 0
-666 0
58 59 -667 0
-58 -59 -667 0
58 -59 667 0
-58 59 667 0
667 62 -668 0
-667 -62 -668 0
667 -62 668 0
-667 62 668 0
668 63 -669 0
-668 -63 -669 0
668 -63 669 0
-668 63 669 0
669 159 -670 0
-669 -159 -670 0
669 -159 670 0
-669 159 670 0
670 167 -671 0
-670 -167 -671 0
670 -167 671 0
-670 167 671 0
671 171 -672 0
-671 -171 -672 0
671 -171 672 0
-671 171 672 0
672 179 -673 0
-672 -179 -673 0
672 -179 673 0
-672 179 673 0
-673 0
59 60 -674 0
-59 -60 -674 0
59 -60 674 0
-59 60 674 0
674 63 -675 0
-674 -63 -675 0
674 -63 675 0
-674 63 675 0
675 64 -676 0
-675 -64 -676 0
675 -64 676 0
-675 64 676 0
676 160 -677 0
-676 -160 -677 0
676 -160 677 0
-676 160 677 0
677 168 -678 0
-677 -168 -678 0
677 -168 678 0
-677 168 678 0
678 172 -679 0
-678 -172 -679 0
678 -172 679 0
-678 172 679 0
679 180 -680 0
-679 -180 -680 0
679 -180 680 0
-679 180 680 0
-680 0
60 61 -681 0
-60 -61 -681 0
60 -61 681 0
-60 61 681 0
681 64 -682 0
-681 -64 -682 0
681 -64 682 0
-681 64 682 0
682 65 -683 0
-682 -65 -683 0
682 -65 683 0
-682 65 683 0
683 161 -684 0
-683 -161 -684 0
683 -161 684 0
-683 161 684 0
684 169 -685 0
-684 -169 -685 0
684 -169 685 0
-684 169 685 0
685 173 -686 0
-685 -173 -686 0
685 -173 686 0
-685 173 686 0
686 181 -687 0
-686 -181 -687 0
686 -181 687 0
-686 181 687 0
-687 0
61 62 -688 0
-61 -62 -688 0
61 -62 688 0
-61 62 688 0
688 65 -689 0
-688 -65 -689 0
688 -65 689 0
-688 65 689 0
689 66 -690 0
-689 -66 -690 0
689 -66 690 0
-689 66 690 0
690 162 -691 0
-690 -162 -691 0
690 -162 691 0
-690 162 691 0
691 170 -692 0
-691 -170 -692 0
691 -170 692 0
-691 170 692 0
692 174 -693 0
-692 -174 -693 0
692 -174 693 0
-692 174 693 0
693 182 -694 0
-693 -182 -694 0
693 -182 694 0
-693 182 694 0
-694 0
62 63 -695 0
-62 -63 -695 0
62 -63 695 0
-62 63 695 0
695 66 -696 0
-695 -66 -696 0
695 -66 696 0
-695 66 696 0
696 67 -697 0
-696 -67 -697 0
696 -67 697 0
-696 67 697 0
697 163 -698 0
-697 -163 -698 0
697 -163 698 0
-697 163 698 0
698 171 -699 0
-698 -171 -699 0
698 -171 699 0
-698 171 699 0
699 175 -700 0
-699 -175 -700 0
699 -175 700 0
-699 175 700 0
700 183 -701 0
-700 -183 -701 0
700 -183 701 0
-700 183 701 0
-701 0
63 64 -702 0
-63 -64 -702 0
63 -64 702 0
-63 64 702 0
702 67 -703 0
-702 -67 -703 0
702 -67 703 0
-702 67 703 0
703 68 -704 0
-703 -68 -704 0
703 -68 704 0
-703 68 704 0
704 164 -705 0
-704 -164 -705 0
704 -164 705 0
-704 164 705 0
705 172 -706 0
-705 -172 -706 0
705 -172 706 0
-705 172 706 0
706 176 -707 0
-706 -176 -707 0
706 -176 707 0
-706 176 707 0
707 184 -708 0
-707 -184 -708 0
707 -184 708 0
-707 184 708 0
-708 0
64 65 -709 0
-64 -65 -709 0
64 -65 709 0
-64 65 709 0
709 68 -710 0
-709 -68 -710 0
709 -68 710 0
-709 68 710 0
710 69 -711 0
-710 -69 -711 0
710 -69 711 0
-710 69 711 0
711 165 -712 0
-711 -165 -712 0
711 -165 712 0
-711 165 712 0
712 173 -713 0
-712 -173 -713 0
712 -173 713 0
-712 173 713 0
713 177 -714 0
-713 -177 -714 0
713 -177 714 0
-713 177 714 0
714 185 -715 0
-714 -185 -715 0
714 -185 715 0
-714 185 715 0
-715 0
65 66 -716 0
-65 -66 -716 0
65 -66 716 0
-65 66 716 0
716 69 -717 0
-716 -69 -717 0
716 -69 717 0
-716 69 717 0
717 70 -718 0
-717 -70 -718 0
717 -70 718 0
-717 70 718 0
718 166 -719 0
-718 -166 -719 0
718 -166 719 0
-718 166 719 0
719 174 -720 0
-719 -174 -720 0
719 -174 720 0
-719 174 720 0
720 178 -721 0
-720 -178 -721 0
720 -178 721 0
-720 178 721 0
721 186 -722 0
-721 -186 -722 0
721 -186 722 0
-721 186 722 0
-722 0
66 67 -723 0
-66 -67 -723 0
66 -67 723 0
-66 67 723 0
723 70 -724 0
-723 -70 -724 0
723 -70 724 0
-723 70 724 0
724 71 -725 0
-724 -71 -725 0
724 -71 725 0
-724 71 725 0
725 167 -726 0
-725 -167 -726 0
725 -167 726 0
-725 167 726 0
726 175 -727 0
-726 -175 -727 0
726 -175 727 0
-726 175 727 0
727 179 -728 0
-727 -179 -728 0
727 -179 728 0
-727 179 728 0
728 187 -729 0
-728 -187 -729 0
728 -187 729 0
-728 187 729 0
-729 0
67 68 -730 0
-67 -68 -730 0
67 -68 730 0
-67 68 730 0
730 71 -731 0
-730 -71 -731 0
730 -71 731 0
-730 71 731 0
731 72 -732 0
-731 -72 -732 0
731 -72 732 0
-731 72 732 0
732 168 -733 0
-732 -168 -733 0
732 -168 733 0
-732 168 733 0
733 176 -734 0
-733 -176 -734 0
733 -176 734 0
-733 176 734 0
734 180 -735 0
-734 -180 -735 0
734 -180 735 0
-734 180 735 0
735 188 -736 0
-735 -188 -736 0
735 -188 736 0
-735 188 736 0
-736 0
68 69 -737 0
-68 -69 -737 0
68 -69 737 0
-68 69 737 0
737 72 -738 0
-737 -72 -738 0
737 -72 738 0
-737 72 738 0
738 73 -739 0
-738 -73 -739 0
738 -73 739 0
-738 73 739 0
739 169 -740 0
-739 -169 -740 0
739 -169 740 0
-739 169 740 0
740 177 -741 0
-740 -177 -741 0
740 -177 741 0
-740 177 741 0
741 181 -742 0
-741 -181 -742 0
741 -181 742 0
-741 181 742 0
742 189 -743 0
-742 -189 -743 0
742 -189 743 0
-742 189 743 0
-743 0
69 70 -744 0
-69 -70 -744 0
69 -70 744 0
-69 70 744 0
744 73 -745 0
-744 -73 -745 0
744 -73 745 0
-744 73 745 0
745 74 -746 0
-745 -74 -746 0
745 -74 746 0
-745 74 746 0
746 170 -747 0
-746 -170 -747 0
746 -170 747 0
-746 170 747 0
747 178 -748 0
-747 -178 -748 0
747 -178 748 0
-747 178 748 0
748 182 -749 0
-748 -182 -749 0
748 -182 749 0
-748 182 749 0
749 190 -750 0
-749 -190 -750 0
749 -190 750 0
-749 190 750 0
-750 0
70 71 -751 0
-70 -71 -751 0
70 -71 751 0
-70 71 751 0
751 74 -752 0
-751 -74 -752 0
751 -74 752 0
-751 74 752 0
752 75 -753 0
-752 -75 -753 0
752 -75 753 0
-752 75 753 0
753 171 -754 0
-753 -171 -754 0
753 -171 754 0
-753 171 754 0
754 179 -755 0
-754 -179 -755 0
754 -179 755 0
-754 179 755 0
755 183 -756 0
-755 -183 -756 0
755 -183 756 0
-755 183 756 0
756 191 -757 0
-756 -191 -757 0
756 -191 757 0
-756 191 757 0
-757 0
71 72 -758 0
-71 -72 -758 0
71 -72 758 0
-71 72 758 0
758 75 -759 0
-758 -75 -759 0
758 -75 759 0
-758 75 759 0
759 76 -760 0
-759 -76 -760 0
759 -76 760 0
-759 76 760 0
760 172 -761 0
-760 -172 -761 0
760 -172 761 0
-760 172 761 0
761 180 -762 0
-761 -180 -762 0
761 -180 762 0
-761 180 762 0
762 184 -763 0
-762 -184 -763 0
762 -184 763 0
-762 184 763 0
763 192 -764 0
-763 -192 -764 0
763 -192 764 0
-763 192 764 0
-764 0
72 73 -765 0
-72 -73 -765 0
72 -73 765 0
-72 73 765 0
765 76 -766 0
-765 -76 -766 0
765 -76 766 0
-765 76 766 0
766 77 -767 0
-766 -77 -767 0
766 -77 767 0
-766 77 767 0
767 173 -768 0
-767 -173 -768 0
767 -173 768 0
-767 173 768 0
768 181 -769 0
-768 -181 -769 0
768 -181 769 0
-768 181 769 0
769 185 -770 0
-769 -185 -770 0
769 -185 770 0
-769 185 770 0
770 193 -771 0
-770 -193 -771 0
770 -193 771 0
-770 193 771 0
-771 0
73 74 -772 0
-73 -74 -772 0
73 -74 772 0
-73 74 772 0
772 77 -773 0
-772 -77 -773 0
772 -77 773 0
-772 77 773 0
773 78 -774 0
-773 -78 -774 0
773 -78 774 0
-773 78 774 0
774 174 -775 0
-774 -174 -775 0
774 -174 775 0
-774 174 775 0
775 182 -776 0
-775 -182 -776 0
775 -182 776 0
-775 182 776 0
776 186 -777 0
-776 -186 -777 0
776 -186 777 0
-776 186 777 0
777 194 -778 0
-777 -194 -778 0
777 -194 778 0
-777 194 778 0
-778 0
74 75 -779 0
-74 -75 -779 0
74 -75 779 0
-74 75 779 0
779 78 -780 0
-779 -78 -780 0
779 -78 780 0
-779 78 780 0
780 79 -781 0
-780 -79 -781 0
780 -79 781 0
-780 79 781 0
781 175 -782 0
-781 -175 -782 0
781 -175 782 0
-781 175 782 0
782 183 -783 0
-782 -183 -783 0
782 -183 783 0
-782 183 783 0
783 187 -784 0
-783 -187 -784 0
783 -187 784 0
-783 187 784 0
784 195 -785 0
-784 -195 -785 0
784 -195 785 0
-784 195 785 0
-785 0
75 76 -786 0
-75 -76 -786 0
75 -76 786 0
-75 76 786 0
786 79 -787 0
-786 -79 -787 0
786 -79 787 0
-786 79 787 0
787 80 -788 0
-787 -80 -788 0
787 -80 788 0
-787 80 788 0
788 176 -789 0
-788 -176 -789 0
788 -176 789 0
-788 176 789 0
789 184 -790 0
-789 -184 -790 0
789 -184 790 0
-789 184 790 0
790 188 -791 0
-790 -188 -791 0
790 -188 791 0
-790 188 791 0
791 196 -792 0
-791 -196 -792 0
791 -196 792 0
-791 196 792 0
-792 0
76 77 -793 0
-76 -77 -793 0
76 -77 793 0
-76 77 793 0
793 80 -794 0
-793 -80 -794 0
793 -80 794 0
-793 80 794 0
794 81 -795 0
-794 -81 -795 0
794 -81 795 0
-794 81 795 0
795 177 -796 0
-795 -177 -796 0
795 -177 796 0
-795 177 796 0
796 185 -797 0
-796 -185 -797 0
796 -185 797 0
-796 185 797 0
797 189 -798 0
-797 -189 -798 0
797 -189 798 0
-797 189 798 0
798 197 -799 0
-798 -197 -799 0
798 -197 799 0
-798 197 799 0
-799 0
77 78 -800 0
-77 -78 -800 0
77 -78 800 0
-77 78 800 0
800 81 -801 0
-800 -81 -801 0
800 -81 801 0
-800 81 801 0
801 82 -802 0
-801 -82 -802 0
801 -82 802 0
-801 82 802 0
802 178 -803 0
-802 -178 -803 0
802 -178 803 0
-802 178 803 0
803 186 -804 0
-803 -186 -804 0
803 -186 804 0
-803 186 804 0
804 190 -805 0
-804 -190 -805 0
804 -190 805 0
-804 190 805 0
805 198 -806 0
-805 -198 -806 0
805 -198 806 0
-805 198 806 0
-806 0
78 79 -807 0
-78 -79 -807 0
78 -79 807 0
-78 79 807 0
807 82 -808 0
-807 -82 -808 0
807 -82 808 0
-807 82 808 0
808 83 -809 0
-808 -83 -809 0
808 -83 809 0
-808 83 809 0
809 179 -810 0
-809 -179 -810 0
809 -179 810 0
-809 179 810 0
810 187 -811 0
-810 -187 -811 0
810 -187 811 0
-810 187 811 0
811 191 -812 0
-811 -191 -812 0
811 -191 812 0
-811 191 812 0
812 199 -813 0
-812 -199 -813 0
812 -199 813 0
-812 199 813 0
-813 0
79 80 -814 0
-79 -80 -814 0
79 -80 814 0
-79 80 814 0
814 83 -815 0
-814 -83 -815 0
814 -83 815 0
-814 83 815 0
815 84 -816 0
-815 -84 -816 0
815 -84 816 0
-815 84 816 0
816 180 -817 0
-816 -180 -817 0
816 -180 817 0
-816 180 817 0
817 188 -818 0
-817 -188 -818 0
817 -188 818 0
-817 188 818 0
818 192 -819 0
-818 -192 -819 0
818 -192 819 0
-818 192 819 0
819 200 -820 0
-819 -200 -820 0
819 -200 820 0
-819 200 820 0
-820 0
80 81 -821 0
-80 -81 -821 0
80 -81 821 0
-80 81 821 0
821 84 -822 0
-821 -84 -822 0
821 -84 822 0
-821 84 822 0
822 85 -823 0
-822 -85 -823 0
822 -85 823 0
-822 85 823 0
823 181 -824 0
-823 -181 -824 0
823 -181 824 0
-823 181 824 0
824 189 -825 0
-824 -189 -825 0
824 -189 825 0
-824 189 825 0
825 193 -826 0
-825 -193 -826 0
825 -193 826 0
-825 193 826 0
826 201 -827 0
-826 -201 -827 0
826 -201 827 0
-826 201 827 0
-827 0
81 82 -828 0
-81 -82 -828 0
81 -82 828 0
-81 82 828 0
828 85 -829 0
-828 -85 -829 0
828 -85 829 0
-828 85 829 0
829 86 -830 0
-829 -86 -830 0
829 -86 830 0
-829 86 830 0
830 182 -831 0
-830 -182 -831 0
830 -182 831 0
-830 182 831 0
831 190 -832 0
-831 -190 -832 0
831 -190 832 0
-831 190 832 0
832 194 -833 0
-832 -194 -833 0
832 -194 833 0
-832 194 833 0
833 202 -834 0
-833 -202 -834 0
833 -202 834 0
-833 202 834 0
-834 0
82 83 -835 0
-82 -83 -835 0
82 -83 835 0
-82 83 835 0
835 86 -836 0
-835 -86 -836 0
835 -86 836 0
-835 86 836 0
836 87 -837 0
-836 -87 -837 0
836 -87 837 0
-836 87 837 0
837 183 -838 0
-837 -183 -838 0
837 -183 838 0
-837 183 838 0
838 191 -839 0
-838 -191 -839 0
838 -191 839 0
-838 191 839 0
839 195 -840 0
-839 -195 -840 0
839 -195 840 0
-839 195 840 0
840 203 -841 0
-840 -203 -841 0
840 -203 841 0
-840 203 841 0
-841 0
83 84 -842 0
-83 -84 -842 0
83 -84 842 0
-83 84 842 0
842 87 -843 0
-842 -87 -843 0
842 -87 843 0
-842 87 843 0
843 88 -844 0
-843 -88 -844 0
843 -88 844 0
-843 88 844 0
844 184 -845 0
-844 -184 -845 0
844 -184 845 0
-844 184 845 0
845 192 -846 0
-845 -192 -846 0
845 -192 846 0
-845 192 846 0
846 196 -847 0
-846 -196 -847 0
846 -196 847 0
-846 196 847 0
847 204 -848 0
-847 -204 -848 0
847 -204 848 0
-847 204 848 0
-848 0
84 85 -849 0
-84 -85 -849 0
84 -85 849 0
-84 85 849 0
849 88 -850 0
-849 -88 -850 0
849 -88 850 0
-849 88 850 0
850 89 -851 0
-850 -89 -851 0
850 -89 851 0
-850 89 851 0
851 185 -852 0
-851 -185 -852 0
851 -185 852 0
-851 185 852 0
852 193 -853 0
-852 -193 -853 0
852 -193 853 0
-852 193 853 0
853 197 -854 0
-853 -197 -854 0
853 -197 854 0
-853 197 854 0
854 205 -855 0
-854 -205 -855 0
854 -205 855 0
-854 205 855 0
-855 0
85 86 -856 0
-85 -86 -856 0
85 -86 856 0
-85 86 856 0
856 89 -857 0
-856 -89 -857 0
856 -89 857 0
-856 89 857 0
857 90 -858 0
-857 -90 -858 0
857 -90 858 0
-857 90 858 0
858 186 -859 0
-858 -186 -859 0
858 -186 859 0
-858 186 859 0
859 194 -860 0
-859 -194 -860 0
859 -194 860 0
-859 194 860 0
860 198 -861 0
-860 -198 -861 0
860 -198 861 0
-860 198 861 0
861 206 -862 0
-861 -206 -862 0
861 -206 862 0
-861 206 862 0
-862 0
86 87 -863 0
-86 -87 -863 0
86 -87 863 0
-86 87 863 0
863 90 -864 0
-863 -90 -864 0
863 -90 864 0
-863 90 864 0
864 91 -865 0
-864 -91 -865 0
864 -91 865 0
-864 91 865 0
865 187 -866 0
-865 -187 -866 0
865 -187 866 0
-865 187 866 0
866 195 -867 0
-866 -195 -867 0
866 -195 867 0
-866 195 867 0
867 199 -868 0
-867 -199 -868 0
867 -199 868 0
-867 199 868 0
868 207 -869 0
-868 -207 -869 0
868 -207 869 0
-868 207 869 0
-869 0
87 88 -870 0
-87 -88 -870 0
87 -88 870 0
-87 88 870 0
870 91 -871 0
-870 -91 -871 0
870 -91 871 0
-870 91 871 0
871 92 -872 0
-871 -92 -872 0
871 -92 872 0
-871 92 872 0
872 188 -873 0
-872 -188 -873 0
872 -188 873 0
-872 188 873 0
873 196 -874 0
-873 -196 -874 0
873 -196 874 0
-873 196 874 0
874 200 -875 0
-874 -200 -875 0
874 -200 875 0
-874 200 875 0
875 208 -876 0
-875 -208 -876 0
875 -208 876 0
-875 208 876 0
-876 0
88 89 -877 0
-88 -89 -877 0
88 -89 877 0
-88 89 877 0
877 92 -878 0
-877 -92 -878 0
877 -92 878 0
-877 92 878 0
878 93 -879 0
-878 -93 -879 0
878 -93 879 0
-878 93 879 0
879 189 -880 0
-879 -189 -880 0
879 -189 880 0
-879 189 880 0
880 197 -881 0
-880 -197 -881 0
880 -197 881 0
-880 197 881 0
881 201 -882 0
-881 -201 -882 0
881 -201 882 0
-881 201 882 0
882 209 -883 0
-882 -209 -883 0
882 -209 883 0
-882 209 883 0
-883 0
89 90 -884 0
-89 -90 -884 0
89 -90 884 0
-89 90 884 0
884 93 -885 0
-884 -93 -885 0
884 -93 885 0
-884 93 885 0
885 94 -886 0
-885 -94 -886 0
885 -94 886 0
-885 94 886 0
886 190 -887 0
-886 -190 -887 0
886 -190 887 0
-886 190 887 0
887 198 -888 0
-887 -198 -888 0
887 -198 888 0
-887 198 888 0
888 202 -889 0
-888 -202 -889 0
888 -202 889 0
-888 202 889 0
889 210 -890 0
-889 -210 -890 0
889 -210 890 0
-889 210 890 0
-890 0
90 91 -891 0
-90 -91 -891 0
90 -91 891 0
-90 91 891 0
891 94 -892 0
-891 -94 -892 0
891 -94 892 0
-891 94 892 0
892 95 -893 0
-892 -95 -893 0
892 -95 893 0
-892 95 893 0
893 191 -894 0
-893 -191 -894 0
893 -191 894 0
-893 191 894 0
894 199 -895 0
-894 -199 -895 0
894 -199 895 0
-894 199 895 0
895 203 -896 0
-895 -203 -896 0
895 -203 896 0
-895 203 896 0
896 211 -897 0
-896 -211 -897 0
896 -211 897 0
-896 211 897 0
-897 0
91 92 -898 0
-91 -92 -898 0
91 -92 898 0
-91 92 898 0
898 95 -899 0
-898 -95 -899 0
898 -95 899 0
-898 95 899 0
899 96 -900 0
-899 -96 -900 0
899 -96 900 0
-899 96 900 0
900 192 -901 0
-900 -192 -901 0
900 -192 901 0
-900 192 901 0
901 200 -902 0
-901 -200 -902 0
901 -200 902 0
-901 200 902 0
902 204 -903 0
-902 -204 -903 0
902 -204 903 0
-902 204 903 0
903 212 -904 0
-903 -212 -904 0
903 -212 904 0
-903 212 904 0
-904 0
92 93 -905 0
-92 -93 -905 0
92 -93 905 0
-92 93 905 0
905 96 -906 0
-905 -96 -906 0
905 -96 906 0
-905 96 906 0
906 97 -907 0
-906 -97 -907 0
906 -97 907 0
-906 97 907 0
907 193 -908 0
-907 -193 -908 0
907 -193 908 0
-907 193 908 0
908 201 -909 0
-908 -201 -909 0
908 -201 909 0
-908 201 909 0
909 205 -910 0
-909 -205 -910 0
909 -205 910 0
-909 205 910 0
910 213 -911 0
-910 -213 -911 0
910 -213 911 0
-910 213 911 0
-911 0
93 94 -912 0
-93 -94 -912 0
93 -94 912 0
-93 94 912 0
912 97 -913 0
-912 -97 -913 0
912 -97 913 0
-912 97 913 0
913 98 -914 0
-913 -98 -914 0
913 -98 914 0
-913 98 914 0
914 194 -915 0
-914 -194 -915 0
914 -194 915 0
-914 194 915 0
915 202 -916 0
-915 -202 -916 0
915 -202 916 0
-915 202 916 0
916 206 -917 0
-916 -206 -917 0
916 -206 917 0
-916 206 917 0
917 214 -918 0
-917 -214 -918 0
917 -214 918 0
-917 214 918 0
-918 0
94 95 -919 0
-94 -95 -919 0
94 -95 919 0
-94 95 919 0
919 98 -920 0
-919 -98 -920 0
919 -98 920 0
-919 98 920 0
920 99 -921 0
-920 -99 -921 0
920 -99 921 0
-920 99 921 0
921 195 -922 0
-921 -195 -922 0
921 -195 922 0
-921 195 922 0
922 203 -923 0
-922 -203 -923 0
922 -203 923 0
-922 203 923 0
923 207 -924 0
-923 -207 -924 0
923 -207 924 0
-923 207 924 0
924 215 -925 0
-924 -215 -925 0
924 -215 925 0
-924 215 925 0
-925 0
95 96 -926 0
-95 -96 -926 0
95 -96 926 0
-95 96 926 0
926 99 -927 0
-926 -99 -927 0
926 -99 927 0
-926 99 927 0
927 100 -928 0
-927 -100 -928 0
927 -100 928 0
-927 100 928 0
928 196 -929 0
-928 -196 -929 0
928 -196 929 0
-928 196 929 0
929 204 -930 0
-929 -204 -930 0
929 -204 930 0
-929 204 930 0
930 208 -931 0
-930 -208 -931 0
930 -208 931 0
-930 208 931 0
931 216 -932 0
-931 -216 -932 0
931 -216 932 0
-931 216 932 0
-932 0
96 97 -933 0
-96 -97 -933 0
96 -97 933 0
-96 97 933 0
933 100 -934 0
-933 -100 -934 0
933 -100 934 0
-933 100 934 0
934 101 -935 0
-934 -101 -935 0
934 -101 935 0
-934 101 935 0
935 197 -936 0
-935 -197 -936 0
935 -197 936 0
-935 197 936 0
936 205 -937 0
-936 -205 -937 0
936 -205 937 0
-936 205 937 0
937 209 -938 0
-937 -209 -938 0
937 -209 938 0
-937 209 938 0
938 217 -939 0
-938 -217 -939 0
938 -217 939 0
-938 217 939 0
-939 0
97 98 -940 0
-97 -98 -940 0
97 -98 940 0
-97 98 940 0
940 101 -941 0
-940 -101 -941 0
940 -101 941 0
-940 101 941 0
941 102 -942 0
-941 -102 -942 0
941 -102 942 0
-941 102 942 0
942 198 -943 0
-942 -198 -943 0
942 -198 943 0
-942 198 943 0
943 206 -944 0
-943 -206 -944 0
943 -206 944 0
-943 206 944 0
944 210 -945 0
-944 -210 -945 0
944 -210 945 0
-944 210 945 0
945 218 -946 0
-945 -218 -946 0
945 -218 946 0
-945 218 946 0
-946 0
98 99 -947 0
-98 -99 -947 0
98 -99 947 0
-98 99 947 0
947 102 -948 0
-947 -102 -948 0
947 -102 948 0
-947 102 948 0
948 103 -949 0
-948 -103 -949 0
948 -103 949 0
-948 103 949 0
949 199 -950 0
-949 -199 -950 0
949 -199 950 0
-949 199 950 0
950 207 -951 0
-950 -207 -951 0
950 -207 951 0
-950 207 951 0
951 211 -952 0
-951 -211 -952 0
951 -211 952 0
-951 211 952 0
952 219 -953 0
-952 -219 -953 0
952 -219 953 0
-952 219 953 0
-953 0
99 100 -954 0
-99 -100 -954 0
99 -100 954 0
-99 100 954 0
954 103 -955 0
-954 -103 -955 0
954 -103 955 0
-954 103 955 0
955 104 -956 0
-955 -104 -956 0
955 -104 956 0
-955 104 956 0
956 200 -957 0
-956 -200 -957 0
956 -200 957 0
-956 200 957 0
957 208 -958 0
-957 -208 -958 0
957 -208 958 0
-957 208 958 0
958 212 -959 0
-958 -212 -959 0
958 -212 959 0
-958 212 959 0
959 220 -960 0
-959 -220 -960 0
959 -220 960 0
-959 220 960 0
-960 0
100 101 -961 0
-100 -101 -961 0
100 -101 961 0
-100 101 961 0
961 104 -962 0
-961 -104 -962 0
961 -104 962 0
-961 104 962 0
962 105 -963 0
-962 -105 -963 0
962 -105 963 0
-962 105 963 0
963 201 -964 0
-963 -201 -964 0
963 -201 964 0
-963 201 964 0
964 209 -965 0
-964 -209 -965 0
964 -209 965 0
-964 209 965 0
965 213 -966 0
-965 -213 -966 0
965 -213 966 0
-965 213 966 0
966 221 -967 0
-966 -221 -967 0
966 -221 967 0
-966 221 967 0
-967 0
101 102 -968 0
-101 -102 -968 0
101 -102 968 0
-101 102 968 0
968 105 -969 0
-968 -105 -969 0
968 -105 969 0
-968 105 969 0
969 106 -970 0
-969 -106 -970 0
969 -106 970 0
-969 106 970 0
970 202 -971 0
-970 -202 -971 0
970 -202 971 0
-970 202 971 0
971 210 -972 0
-971 -210 -972 0
971 -210 972 0
-971 210 972 0
972 214 -973 0
-972 -214 -973 0
972 -214 973 0
-972 214 973 0
973 222 -974 0
-973 -222 -974 0
973 -222 974 0
-973 222 974 0
-974 0
102 103 -975 0
-102 -103 -975 0
102 -103 975 0
-102 103 975 0
975 106 -976 0
-975 -106 -976 0
975 -106 976 0
-975 106 976 0
976 107 -977 0
-976 -107 -977 0
976 -107 977 0
-976 107 977 0
977 203 -978 0
-977 -203 -978 0
977 -203 978 0
-977 203 978 0
978 211 -979 0
-978 -211 -979 0
978 -211 979 0
-978 211 979 0
979 215 -980 0
-979 -215 -980 0
979 -215 980 0
-979 215 980 0
980 223 -981 0
-980 -223 -981 0
980 -223 981 0
-980 223 981 0
-981 0
103 104 -982 0
-103 -104 -982 0
103 -104 982 0
-103 104 982 0
982 107 -983 0
-982 -107 -983 0
982 -107 983 0
-982 107 983 0
983 108 -984 0
-983 -108 -984 0
983 -108 984 0
-983 108 984 0
984 204 -985 0
-984 -204 -985 0
984 -204 985 0
-984 204 985 0
985 212 -986 0
-985 -212 -986 0
985 -212 986 0
-985 212 986 0
986 216 -987 0
-986 -216 -987 0
986 -216 987 0
-986 216 987 0
987 224 -988 0
-987 -224 -988 0
987 -224 988 0
-987 224 988 0
-988 0
104 105 -989 0
-104 -105 -989 0
104 -105 989 0
-104 105 989 0
989 108 -990 0
-989 -108 -990 0
989 -108 990 0
-989 108 990 0
990 109 -991 0
-990 -109 -991 0
990 -109 991 0
-990 109 991 0
991 205 -992 0
-991 -205 -992 0
991 -205 992 0
-991 205 992 0
992 213 -993 0
-992 -213 -993 0
992 -213 993 0
-992 213 993 0
993 217 -994 0
-993 -217 -994 0
993 -217 994 0
-993 217 994 0
994 225 -995 0
-994 -225 -995 0
994 -225 995 0
-994 225 995 0
-995 0
105 106 -996 0
-105 -106 -996 0
105 -106 996 0
-105 106 996 0
996 109 -997 0
-996 -109 -997 0
996 -109 997 0
-996 109 997 0
997 110 -998 0
-997 -110 -998 0
997 -110 998 0
-997 110 998 0
998 206 -999 0
-998 -206 -999 0
998 -206 999 0
-998 206 999 0
999 214 -1000 0
-999 -214 -1000 0
999 -214 1000 0
-999 214 1000 0
1000 218 -1001 0
-1000 -218 -1001 0
1000 -218 1001 0
-1000 218 1001 0
1001 226 -1002 0
-1001 -226 -1002 0
1001 -226 1002 0
-1001 226 1002 0
-1002 0
106 107 -1003 0
-106 -107 -1003 0
106 -107 1003 0
-106 107 1003 0
1003 110 -1004 0
-1003 -110 -1004 0
1003 -110 1004 0
-1003 110 1004 0
1004 111 -1005 0
-1004 -111 -1005 0
1004 -111 1005 0
-1004 111 1005 0
1005 207 -1006 0
-1005 -207 -1006 0
1005 -207 1006 0
-1005 207 1006 0
1006 215 -1007 0
-1006 -215 -1007 0
1006 -215 1007 0
-1006 215 1007 0
1007 219 -1008 0
-1007 -219 -1008 0
1007 -219 1008 0
-1007 219 1008 0
1008 227 -1009 0
-1008 -227 -1009 0
1008 -227 1009 0
-1008 227 1009 0
-1009 0
107 108 -1010 0
-107 -108 -1010 0
107 -108 1010 0
-107 108 1010 0
1010 111 -1011 0
-1010 -111 -1011 0
1010 -111 1011 0
-1010 111 1011 0
1011 112 -1012 0
-1011 -112 -1012 0
1011 -112 1012 0
-1011 112 1012 0
1012 208 -1013 0
-1012 -208 -1013 0
1012 -208 1013 0
-1012 208 1013 0
1013 216 -1014 0
-1013 -216 -1014 0
1013 -216 1014 0
-1013 216 1014 0
1014 220 -1015 0
-1014 -220 -1015 0
1014 -220 1015 0
-1014 220 1015 0
1015 228 -1016 0
-1015 -228 -1016 0
1015 -228 1016 0
-1015 228 1016 0
-1016 0
108 109 -1017 0
-108 -109 -1017 0
108 -109 1017 0
-108 109 1017 0
1017 112 -1018 0
-1017 -112 -1018 0
1017 -112 1018 0
-1017 112 1018 0
1018 113 -1019 0
-1018 -113 -1019 0
1018 -113 1019 0
-1018 113 1019 0
1019 209 -1020 0
-1019 -209 -1020 0
1019 -209 1020 0
-1019 209 1020 0
1020 217 -1021 0
-1020 -217 -1021 0
1020 -217 1021 0
-1020 217 1021 0
1021 221 -1022 0
-1021 -221 -1022 0
1021 -221 1022 0
-1021 221 1022 0
1022 229 -1023 0
-1022 -229 -1023 0
1022 -229 1023 0
-1022 229 1023 0
-1023 0
109 110 -1024 0
-109 -110 -1024 0
109 -110 1024 0
-109 110 1024 0
1024 113 -1025 0
-1024 -113 -1025 0
1024 -113 1025 0
-1024 113 1025 0
1025 114 -1026 0
-1025 -114 -1026 0
1025 -114 1026 0
-1025 114 1026 0
1026 210 -1027 0
-1026 -210 -1027 0
1026 -210 1027 0
-1026 210 1027 0
1027 218 -1028 0
-1027 -218 -1028 0
1027 -218 1028 0
-1027 218 1028 0
1028 222 -1029 0
-1028 -222 -1029 0
1028 -222 1029 0
-1028 222 1029 0
1029 230 -1030 0
-1029 -230 -1030 0
1029 -230 1030 0
-1029 230 1030 0
-1030 0
110 111 -1031 0
-110 -111 -1031 0
110 -111 1031 0
-110 111 1031 0
1031 114 -1032 0
-1031 -114 -1032 0
1031 -114 1032 0
-1031 114 1032 0
1032 115 -1033 0
-1032 -115 -1033 0
1032 -115 1033 0
-1032 115 1033 0
1033 211 -1034 0
-1033 -211 -1034 0
1033 -211 1034 0
-1033 211 1034 0
1034 219 -1035 0
-1034 -219 -1035 0
1034 -219 1035 0
-1034 219 1035 0
1035 223 -1036 0
-1035 -223 -1036 0
1035 -223 1036 0
-1035 223 1036 0
1036 231 -1037 0
-1036 -231 -1037 0
1036 -231 1037 0
-1036 231 1037 0
-1037 0
111 112 -1038 0
-111 -112 -1038 0
111 -112 1038 0
-111 112 1038 0
1038 115 -1039 0
-1038 -115 -1039 0
1038 -115 1039 0
-1038 115 1039 0
1039 116 -1040 0
-1039 -116 -1040 0
1039 -116 1040 0
-1039 116 1040 0
1040 212 -1041 0
-1040 -212 -1041 0
1040 -212 1041 0
-1040 212 1041 0
1041 220 -1042 0
-1041 -220 -1042 0
1041 -220 1042 0
-1041 220 1042 0
1042 224 -1043 0
-1042 -224 -1043 0
1042 -224 1043 0
-1042 224 1043 0
1043 232 -1044 0
-1043 -232 -1044 0
1043 -232 1044 0
-1043 232 1044 0
-1044 0
1 121 -1045 0
-1 -121 -1045 0
1 -121 1045 0
-1 121 1045 0
1045 125 -1046 0
-1045 -125 -1046 0
1045 -125 1046 0
-1045 125 1046 0
1046 129 -1047 0
-1046 -129 -1047 0
1046 -129 1047 0
-1046 129 1047 0
1047 133 -1048 0
-1047 -133 -1048 0
1047 -133 1048 0
-1047 133 1048 0
1048 137 -1049 0
-1048 -137 -1049 0
1048 -137 1049 0
-1048 137 1049 0
1049 141 -1050 0
-1049 -141 -1050 0
1049 -141 1050 0
-1049 141 1050 0
1050 145 -1051 0
-1050 -145 -1051 0
1050 -145 1051 0
-1050 145 1051 0
1051 149 -1052 0
-1051 -149 -1052 0
1051 -149 1052 0
-1051 149 1052 0
1052 153 -1053 0
-1052 -153 -1053 0
1052 -153 1053 0
-1052 153 1053 0
1053 157 -1054 0
-1053 -157 -1054 0
1053 -157 1054 0
-1053 157 1054 0
1054 161 -1055 0
-1054 -161 -1055 0
1054 -161 1055 0
-1054 161 1055 0
1055 165 -1056 0
-1055 -165 -1056 0
1055 -165 1056 0
-1055 165 1056 0
1056 169 -1057 0
-1056 -169 -1057 0
1056 -169 1057 0
-1056 169 1057 0
1057 173 -1058 0
-1057 -173 -1058 0
1057 -173 1058 0
-1057 173 1058 0
1058 177 -1059 0
-1058 -177 -1059 0
1058 -177 1059 0
-1058 177 1059 0
1059 181 -1060 0
-1059 -181 -1060 0
1059 -181 1060 0
-1059 181 1060 0
1060 185 -1061 0
-1060 -185 -1061 0
1060 -185 1061 0
-1060 185 1061 0
1061 189 -1062 0
-1061 -189 -1062 0
1061 -189 1062 0
-1061 189 1062 0
1062 193 -1063 0
-1062 -193 -1063 0
1062 -193 1063 0
-1062 193 1063 0
1063 197 -1064 0
-1063 -197 -1064 0
1063 -197 1064 0
-1063 197 1064 0
1064 201 -1065 0
-1064 -201 -1065 0
1064 -201 1065 0
-1064 201 1065 0
1065 205 -1066 0
-1065 -205 -1066 0
1065 -205 1066 0
-1065 205 1066 0
1066 209 -1067 0
-1066 -209 -1067 0
1066 -209 1067 0
-1066 209 1067 0
1067 213 -1068 0
-1067 -213 -1068 0
1067 -213 1068 0
-1067 213 1068 0
1068 217 -1069 0
-1068 -217 -1069 0
1068 -217 1069 0
-1068 217 1069 0
1069 218 -1070 0
-1069 -218 -1070 0
1069 -218 1070 0
-1069 218 1070 0
1070 219 -1071 0
-1070 -219 -1071 0
1070 -219 1071 0
-1070 219 1071 0
1071 220 -1072 0
-1071 -220 -1072 0
1071 -220 1072 0
-1071 220 1072 0
1072 225 -1073 0
-1072 -225 -1073 0
1072 -225 1073 0
-1072 225 1073 0
1073 229 -1074 0
-1073 -229 -1074 0
1073 -229 1074 0
-1073 229 1074 0
1074 230 -1075 0
-1074 -230 -1075 0
1074 -230 1075 0
-1074 230 1075 0
1075 231 -1076 0
-1075 -231 -1076 0
1075 -231 1076 0
-1075 231 1076 0
1076 232 -1077 0
-1076 -232 -1077 0
1076 -232 1077 0
-1076 232 1077 0
2 121 -1078 0
-2 -121 -1078 0
2 -121 1078 0
-2 121 1078 0
1078 122 -1079 0
-1078 -122 -1079 0
1078 -122 1079 0
-1078 122 1079 0
1079 125 -1080 0
-1079 -125 -1080 0
1079 -125 1080 0
-1079 125 1080 0
1080 126 -1081 0
-1080 -126 -1081 0
1080 -126 1081 0
-1080 126 1081 0
1081 129 -1082 0
-1081 -129 -1082 0
1081 -129 1082 0
-1081 129 1082 0
1082 130 -1083 0
-1082 -130 -1083 0
1082 -130 1083 0
-1082 130 1083 0
1083 133 -1084 0
-1083 -133 -1084 0
1083 -133 1084 0
-1083 133 1084 0
1084 134 -1085 0
-1084 -134 -1085 0
1084 -134 1085 0
-1084 134 1085 0
1085 137 -1086 0
-1085 -137 -1086 0
1085 -137 1086 0
-1085 137 1086 0
1086 138 -1087 0
-1086 -138 -1087 0
1086 -138 1087 0
-1086 138 1087 0
1087 141 -1088 0
-1087 -141 -1088 0
1087 -141 1088 0
-1087 141 1088 0
1088 142 -1089 0
-1088 -142 -1089 0
1088 -142 1089 0
-1088 142 1089 0
1089 145 -1090 0
-1089 -145 -1090 0
1089 -145 1090 0
-1089 145 1090 0
1090 146 -1091 0
-1090 -146 -1091 0
1090 -146 1091 0
-1090 146 1091 0
1091 149 -1092 0
-1091 -149 -1092 0
1091 -149 1092 0
-1091 149 1092 0
1092 150 -1093 0
-1092 -150 -1093 0
1092 -150 1093 0
-1092 150 1093 0
1093 153 -1094 0
-1093 -153 -1094 0
1093 -153 1094 0
-1093 153 1094 0
1094 154 -1095 0
-1094 -154 -1095 0
1094 -154 1095 0
-1094 154 1095 0
1095 157 -1096 0
-1095 -157 -1096 0
1095 -157 1096 0
-1095 157 1096 0
1096 158 -1097 0
-1096 -158 -1097 0
1096 -158 1097 0
-1096 158 1097 0
1097 161 -1098 0
-1097 -161 -1098 0
1097 -161 1098 0
-1097 161 1098 0
1098 162 -1099 0
-1098 -162 -1099 0
1098 -162 1099 0
-1098 162 1099 0
1099 165 -1100 0
-1099 -165 -1100 0
1099 -165 1100 0
-1099 165 1100 0
1100 166 -1101 0
-1100 -166 -1101 0
1100 -166 1101 0
-1100 166 1101 0
1101 169 -1102 0
-1101 -169 -1102 0
1101 -169 1102 0
-1101 169 1102 0
1102 170 -1103 0
-1102 -170 -1103 0
1102 -170 1103 0
-1102 170 1103 0
1103 173 -1104 0
-1103 -173 -1104 0
1103 -173 1104 0
-1103 173 1104 0
1104 174 -1105 0
-1104 -174 -1105 0
1104 -174 1105 0
-1104 174 1105 0
1105 177 -1106 0
-1105 -177 -1106 0
1105 -177 1106 0
-1105 177 1106 0
1106 178 -1107 0
-1106 -178 -1107 0
1106 -178 1107 0
-1106 178 1107 0
1107 181 -1108 0
-1107 -181 -1108 0
1107 -181 1108 0
-1107 181 1108 0
1108 182 -1109 0
-1108 -182 -1109 0
1108 -182 1109 0
-1108 182 1109 0
1109 185 -1110 0
-1109 -185 -1110 0
1109 -185 1110 0
-1109 185 1110 0
1110 186 -1111 0
-1110 -186 -1111 0
1110 -186 1111 0
-1110 186 1111 0
1111 189 -1112 0
-1111 -189 -1112 0
1111 -189 1112 0
-1111 189 1112 0
1112 190 -1113 0
-1112 -190 -1113 0
1112 -190 1113 0
-1112 190 1113 0
1113 193 -1114 0
-1113 -193 -1114 0
1113 -193 1114 0
-1113 193 1114 0
1114 194 -1115 0
-1114 -194 -1115 0
1114 -194 1115 0
-1114 194 1115 0
1115 197 -1116 0
-1115 -197 -1116 0
1115 -197 1116 0
-1115 197 1116 0
1116 198 -1117 0
-1116 -198 -1117 0
1116 -198 1117 0
-1116 198 1117 0
1117 201 -1118 0
-1117 -201 -1118 0
1117 -201 1118 0
-1117 201 1118 0
1118 202 -1119 0
-1118 -202 -1119 0
1118 -202 1119 0
-1118 202 1119 0
1119 205 -1120 0
-1119 -205 -1120 0
1119 -205 1120 0
-1119 205 1120 0
1120 206 -1121 0
-1120 -206 -1121 0
1120 -206 1121 0
-1120 206 1121 0
1121 209 -1122 0
-1121 -209 -1122 0
1121 -209 1122 0
-1121 209 1122 0
1122 210 -1123 0
-1122 -210 -1123 0
1122 -210 1123 0
-1122 210 1123 0
1123 213 -1124 0
-1123 -213 -1124 0
1123 -213 1124 0
-1123 213 1124 0
1124 214 -1125 0
-1124 -214 -1125 0
1124 -214 1125 0
-1124 214 1125 0
1125 217 -1126 0
-1125 -217 -1126 0
1125 -217 1126 0
-1125 217 1126 0
1126 218 -1127 0
-1126 -218 -1127 0
1126 -218 1127 0
-1126 218 1127 0
1127 219 -1128 0
-1127 -219 -1128 0
1127 -219 1128 0
-1127 219 1128 0
1128 220 -1129 0
-1128 -220 -1129 0
1128 -220 1129 0
-1128 220 1129 0
1129 225 -1130 0
-1129 -225 -1130 0
1129 -225 1130 0
-1129 225 1130 0
1130 226 -1131 0
-1130 -226 -1131 0
1130 -226 1131 0
-1130 226 1131 0
1131 229 -1132 0
-1131 -229 -1132 0
1131 -229 1132 0
-1131 229 1132 0
1132 230 -1133 0
-1132 -230 -1133 0
1132 -230 1133 0
-1132 230 1133 0
1133 231 -1134 0
-1133 -231 -1134 0
1133 -231 1134 0
-1133 231 1134 0
1134 232 -1135 0
-1134 -232 -1135 0
1134 -232 1135 0
-1134 232 1135 0
3 121 -1136 0
-3 -121 -1136 0
3 -121 1136 0
-3 121 1136 0
1136 122 -1137 0
-1136 -122 -1137 0
1136 -122 1137 0
-1136 122 1137 0
1137 123 -1138 0
-1137 -123 -1138 0
1137 -123 1138 0
-1137 123 1138 0
1138 125 -1139 0
-1138 -125 -1139 0
1138 -125 1139 0
-1138 125 1139 0
1139 126 -1140 0
-1139 -126 -1140 0
1139 -126 1140 0
-1139 126 1140 0
1140 127 -1141 0
-1140 -127 -1141 0
1140 -127 1141 0
-1140 127 1141 0
1141 129 -1142 0
-1141 -129 -1142 0
1141 -129 1142 0
-1141 129 1142 0
1142 130 -1143 0
-1142 -130 -1143 0
1142 -130 1143 0
-1142 130 1143 0
1143 131 -1144 0
-1143 -131 -1144 0
1143 -131 1144 0
-1143 131 1144 0
1144 133 -1145 0
-1144 -133 -1145 0
1144 -133 1145 0
-1144 133 1145 0
1145 134 -1146 0
-1145 -134 -1146 0
1145 -134 1146 0
-1145 134 1146 0
1146 135 -1147 0
-1146 -135 -1147 0
1146 -135 1147 0
-1146 135 1147 0
1147 137 -1148 0
-1147 -137 -1148 0
1147 -137 1148 0
-1147 137 1148 0
1148 138 -1149 0
-1148 -138 -1149 0
1148 -138 1149 0
-1148 138 1149 0
1149 139 -1150 0
-1149 -139 -1150 0
1149 -139 1150 0
-1149 139 1150 0
1150 141 -1151 0
-1150 -141 -1151 0
1150 -141 1151 0
-1150 141 1151 0
1151 142 -1152 0
-1151 -142 -1152 0
1151 -142 1152 0
-1151 142 1152 0
1152 143 -1153 0
-1152 -143 -1153 0
1152 -143 1153 0
-1152 143 1153 0
1153 145 -1154 0
-1153 -145 -1154 0
1153 -145 1154 0
-1153 145 1154 0
1154 146 -1155 0
-1154 -146 -1155 0
1154 -146 1155 0
-1154 146 1155 0
1155 147 -1156 0
-1155 -147 -1156 0
1155 -147 1156 0
-1155 147 1156 0
1156 149 -1157 0
-1156 -149 -1157 0
1156 -149 1157 0
-1156 149 1157 0
1157 150 -1158 0
-1157 -150 -1158 0
1157 -150 1158 0
-1157 150 1158 0
1158 151 -1159 0
-1158 -151 -1159 0
1158 -151 1159 0
-1158 151 1159 0
1159 153 -1160 0
-1159 -153 -1160 0
1159 -153 1160 0
-1159 153 1160 0
1160 154 -1161 0
-1160 -154 -1161 0
1160 -154 1161 0
-1160 154 1161 0
1161 155 -1162 0
-1161 -155 -1162 0
1161 -155 1162 0
-1161 155 1162 0
1162 157 -1163 0
-1162 -157 -1163 0
1162 -157 1163 0
-1162 157 1163 0
1163 158 -1164 0
-1163 -158 -1164 0
1163 -158 1164 0
-1163 158 1164 0
1164 159 -1165 0
-1164 -159 -1165 0
1164 -159 1165 0
-1164 159 1165 0
1165 161 -1166 0
-1165 -161 -1166 0
1165 -161 1166 0
-1165 161 1166 0
1166 162 -1167 0
-1166 -162 -1167 0
1166 -162 1167 0
-1166 162 1167 0
1167 163 -1168 0
-1167 -163 -1168 0
1167 -163 1168 0
-1167 163 1168 0
1168 165 -1169 0
-1168 -165 -1169 0
1168 -165 1169 0
-1168 165 1169 0
1169 166 -1170 0
-1169 -166 -1170 0
1169 -166 1170 0
-1169 166 1170 0
1170 167 -1171 0
-1170 -167 -1171 0
1170 -167 1171 0
-1170 167 1171 0
1171 169 -1172 0
-1171 -169 -1172 0
1171 -169 1172 0
-1171 169 1172 0
1172 170 -1173 0
-1172 -170 -1173 0
1172 -170 1173 0
-1172 170 1173 0
1173 171 -1174 0
-1173 -171 -1174 0
1173 -171 1174 0
-1173 171 1174 0
1174 173 -1175 0
-1174 -173 -1175 0
1174 -173 1175 0
-1174 173 1175 0
1175 174 -1176 0
-1175 -174 -1176 0
1175 -174 1176 0
-1175 174 1176 0
1176 175 -1177 0
-1176 -175 -1177 0
1176 -175 1177 0
-1176 175 1177 0
1177 177 -1178 0
-1177 -177 -1178 0
1177 -177 1178 0
-1177 177 1178 0
1178 178 -1179 0
-1178 -178 -1179 0
1178 -178 1179 0
-1178 178 1179 0
1179 179 -1180 0
-1179 -179 -1180 0
1179 -179 1180 0
-1179 179 1180 0
1180 181 -1181 0
-1180 -181 -1181 0
1180 -181 1181 0
-1180 181 1181 0
1181 182 -1182 0
-1181 -182 -1182 0
1181 -182 1182 0
-1181 182 1182 0
1182 183 -1183 0
-1182 -183 -1183 0
1182 -183 1183 0
-1182 183 1183 0
1183 185 -1184 0
-1183 -185 -1184 0
1183 -185 1184 0
-1183 185 1184 0
1184 186 -1185 0
-1184 -186 -1185 0
1184 -186 1185 0
-1184 186 1185 0
1185 187 -1186 0
-1185 -187 -1186 0
1185 -187 1186 0
-1185 187 1186 0
1186 189 -1187 0
-1186 -189 -1187 0
1186 -189 1187 0
-1186 189 1187 0
1187 190 -1188 0
-1187 -190 -1188 0
1187 -190 1188 0
-1187 190 1188 0
1188 191 -1189 0
-1188 -191 -1189 0
1188 -191 1189 0
-1188 191 1189 0
1189 193 -1190 0
-1189 -193 -1190 0
1189 -193 1190 0
-1189 193 1190 0
1190 194 -1191 0
-1190 -194 -1191 0
1190 -194 1191 0
-1190 194 1191 0
1191 195 -1192 0
-1191 -195 -1192 0
1191 -195 1192 0
-1191 195 1192 0
1192 197 -1193 0
-1192 -197 -1193 0
1192 -197 1193 0
-1192 197 1193 0
1193 198 -1194 0
-1193 -198 -1194 0
1193 -198 1194 0
-1193 198 1194 0
1194 199 -1195 0
-1194 -199 -1195 0
1194 -199 1195 0
-1194 199 1195 0
1195 201 -1196 0
-1195 -201 -1196 0
1195 -201 1196 0
-1195 201 1196 0
1196 202 -1197 0
-1196 -202 -1197 0
1196 -202 1197 0
-1196 202 1197 0
1197 203 -1198 0
-1197 -203 -1198 0
1197 -203 1198 0
-1197 203 1198 0
1198 205 -1199 0
-1198 -205 -1199 0
1198 -205 1199 0
-1198 205 1199 0
1199 206 -1200 0
-1199 -206 -1200 0
1199 -206 1200 0
-1199 206 1200 0
1200 207 -1201 0
-1200 -207 -1201 0
1200 -207 1201 0
-1200 207 1201 0
1201 209 -1202 0
-1201 -209 -1202 0
1201 -209 1202 0
-1201 209 1202 0
1202 210 -1203 0
-1202 -210 -1203 0
1202 -210 1203 0
-1202 210 1203 0
1203 211 -1204 0
-1203 -211 -1204 0
1203 -211 1204 0
-1203 211 1204 0
1204 213 -1205 0
-1204 -213 -1205 0
1204 -213 1205 0
-1204 213 1205 0
1205 214 -1206 0
-1205 -214 -1206 0
1205 -214 1206 0
-1205 214 1206 0
1206 215 -1207 0
-1206 -215 -1207 0
1206 -215 1207 0
-1206 215 1207 0
1207 217 -1208 0
-1207 -217 -1208 0
1207 -217 1208 0
-1207 217 1208 0
1208 218 -1209 0
-1208 -218 -1209 0
1208 -218 1209 0
-1208 218 1209 0
1209 219 -1210 0
-1209 -219 -1210 0
1209 -219 1210 0
-1209 219 1210 0
1210 220 -1211 0
-1210 -220 -1211 0
1210 -220 1211 0
-1210 220 1211 0
1211 225 -1212 0
-1211 -225 -1212 0
1211 -225 1212 0
-1211 225 1212 0
1212 226 -1213 0
-1212 -226 -1213 0
1212 -226 1213 0
-1212 226 1213 0
1213 227 -1214 0
-1213 -227 -1214 0
1213 -227 1214 0
-1213 227 1214 0
1214 229 -1215 0
-1214 -229 -1215 0
1214 -229 1215 0
-1214 229 1215 0
1215 230 -1216 0
-1215 -230 -1216 0
1215 -230 1216 0
-1215 230 1216 0
1216 231 -1217 0
-1216 -231 -1217 0
1216 -231 1217 0
-1216 231 1217 0
1217 232 -1218 0
-1217 -232 -1218 0
1217 -232 1218 0
-1217 232 1218 0
4 121 -1219 0
-4 -121 -1219 0
4 -121 1219 0
-4 121 1219 0
1219 122 -1220 0
-1219 -122 -1220 0
1219 -122 1220 0
-1219 122 1220 0
1220 123 -1221 0
-1220 -123 -1221 0
1220 -123 1221 0
-1220 123 1221 0
1221 124 -1222 0
-1221 -124 -1222 0
1221 -124 1222 0
-1221 124 1222 0
1222 125 -1223 0
-1222 -125 -1223 0
1222 -125 1223 0
-1222 125 1223 0
1223 126 -1224 0
-1223 -126 -1224 0
1223 -126 1224 0
-1223 126 1224 0
1224 127 -1225 0
-1224 -127 -1225 0
1224 -127 1225 0
-1224 127 1225 0
1225 128 -1226 0
-1225 -128 -1226 0
1225 -128 1226 0
-1225 128 1226 0
1226 129 -1227 0
-1226 -129 -1227 0
1226 -129 1227 0
-1226 129 1227 0
1227 130 -1228 0
-1227 -130 -1228 0
1227 -130 1228 0
-1227 130 1228 0
1228 131 -1229 0
-1228 -131 -1229 0
1228 -131 1229 0
-1228 131 1229 0
1229 132 -1230 0
-1229 -132 -1230 0
1229 -132 1230 0
-1229 132 1230 0
1230 133 -1231 0
-1230 -133 -1231 0
1230 -133 1231 0
-1230 133 1231 0
1231 134 -1232 0
-1231 -134 -1232 0
1231 -134 1232 0
-1231 134 1232 0
1232 135 -1233 0
-1232 -135 -1233 0
1232 -135 1233 0
-1232 135 1233 0
1233 136 -1234 0
-1233 -136 -1234 0
1233 -136 1234 0
-1233 136 1234 0
1234 137 -1235 0
-1234 -137 -1235 0
1234 -137 1235 0
-1234 137 1235 0
1235 138 -1236 0
-1235 -138 -1236 0
1235 -138 1236 0
-1235 138 1236 0
1236 139 -1237 0
-1236 -139 -1237 0
1236 -139 1237 0
-1236 139 1237 0
1237 140 -1238 0
-1237 -140 -1238 0
1237 -140 1238 0
-1237 140 1238 0
1238 141 -1239 0
-1238 -141 -1239 0
1238 -141 1239 0
-1238 141 1239 0
1239 142 -1240 0
-1239 -142 -1240 0
1239 -142 1240 0
-1239 142 1240 0
1240 143 -1241 0
-1240 -143 -1241 0
1240 -143 1241 0
-1240 143 1241 0
1241 144 -1242 0
-1241 -144 -1242 0
1241 -144 1242 0
-1241 144 1242 0
1242 145 -1243 0
-1242 -145 -1243 0
1242 -145 1243 0
-1242 145 1243 0
1243 146 -1244 0
-1243 -146 -1244 0
1243 -146 1244 0
-1243 146 1244 0
1244 147 -1245 0
-1244 -147 -1245 0
1244 -147 1245 0
-1244 147 1245 0
1245 148 -1246 0
-1245 -148 -1246 0
1245 -148 1246 0
-1245 148 1246 0
1246 149 -1247 0
-1246 -149 -1247 0
1246 -149 1247 0
-1246 149 1247 0
1247 150 -1248 0
-1247 -150 -1248 0
1247 -150 1248 0
-1247 150 1248 0
1248 151 -1249 0
-1248 -151 -1249 0
1248 -151 1249 0
-1248 151 1249 0
1249 152 -1250 0
-1249 -152 -1250 0
1249 -152 1250 0
-1249 152 1250 0
1250 153 -1251 0
-1250 -153 -1251 0
1250 -153 1251 0
-1250 153 1251 0
1251 154 -1252 0
-1251 -154 -1252 0
1251 -154 1252 0
-1251 154 1252 0
1252 155 -1253 0
-1252 -155 -1253 0
1252 -155 1253 0
-1252 155 1253 0
1253 156 -1254 0
-1253 -156 -1254 0
1253 -156 1254 0
-1253 156 1254 0
1254 157 -1255 0
-1254 -157 -1255 0
1254 -157 1255 0
-1254 157 1255 0
1255 158 -1256 0
-1255 -158 -1256 0
1255 -158 1256 0
-1255 158 1256 0
1256 159 -1257 0
-1256 -159 -1257 0
1256 -159 1257 0
-1256 159 1257 0
1257 160 -1258 0
-1257 -160 -1258 0
1257 -160 1258 0
-1257 160 1258 0
1258 161 -1259 0
-1258 -161 -1259 0
1258 -161 1259 0
-1258 161 1259 0
1259 162 -1260 0
-1259 -162 -1260 0
1259 -162 1260 0
-1259 162 1260 0
1260 163 -1261 0
-1260 -163 -1261 0
1260 -163 1261 0
-1260 163 1261 0
1261 164 -1262 0
-1261 -164 -1262 0
1261 -164 1262 0
-1261 164 1262 0
1262 165 -1263 0
-1262 -165 -1263 0
1262 -165 1263 0
-1262 165 1263 0
1263 166 -1264 0
-1263 -166 -1264 0
1263 -166 1264 0
-1263 166 1264 0
1264 167 -1265 0
-1264 -167 -1265 0
1264 -167 1265 0
-1264 167 1265 0
1265 168 -1266 0
-1265 -168 -1266 0
1265 -168 1266 0
-1265 168 1266 0
1266 169 -1267 0
-1266 -169 -1267 0
1266 -169 1267 0
-1266 169 1267 0
1267 170 -1268 0
-1267 -170 -1268 0
1267 -170 1268 0
-1267 170 1268 0
1268 171 -1269 0
-1268 -171 -1269 0
1268 -171 1269 0
-1268 171 1269 0
1269 172 -1270 0
-1269 -172 -1270 0
1269 -172 1270 0
-1269 172 1270 0
1270 173 -1271 0
-1270 -173 -1271 0
1270 -173 1271 0
-1270 173 1271 0
1271 174 -1272 0
-1271 -174 -1272 0
1271 -174 1272 0
-1271 174 1272 0
1272 175 -1273 0
-1272 -175 -1273 0
1272 -175 1273 0
-1272 175 1273 0
1273 176 -1274 0
-1273 -176 -1274 0
1273 -176 1274 0
-1273 176 1274 0
1274 177 -1275 0
-1274 -177 -1275 0
1274 -177 1275 0
-1274 177 1275 0
1275 178 -1276 0
-1275 -178 -1276 0
1275 -178 1276 0
-1275 178 1276 0
1276 179 -1277 0
-1276 -179 -1277 0
1276 -179 1277 0
-1276 179 1277 0
1277 180 -1278 0
-1277 -180 -1278 0
1277 -180 1278 0
-1277 180 1278 0
1278 181 -1279 0
-1278 -181 -1279 0
1278 -181 1279 0
-1278 181 1279 0
1279 182 -1280 0
-1279 -182 -1280 0
1279 -182 1280 0
-1279 182 1280 0
1280 183 -1281 0
-1280 -183 -1281 0
1280 -183 1281 0
-1280 183 1281 0
1281 184 -1282 0
-1281 -184 -1282 0
1281 -184 1282 0
-1281 184 1282 0
1282 185 -1283 0
-1282 -185 -1283 0
1282 -185 1283 0
-1282 185 1283 0
1283 186 -1284 0
-1283 -186 -1284 0
1283 -186 1284 0
-1283 186 1284 0
1284 187 -1285 0
-1284 -187 -1285 0
1284 -187 1285 0
-1284 187 1285 0
1285 188 -1286 0
-1285 -188 -1286 0
1285 -188 1286 0
-1285 188 1286 0
1286 189 -1287 0
-1286 -189 -1287 0
1286 -189 1287 0
-1286 189 1287 0
1287 190 -1288 0
-1287 -190 -1288 0
1287 -190 1288 0
-1287 190 1288 0
1288 191 -1289 0
-1288 -191 -1289 0
1288 -191 1289 0
-1288 191 1289 0
1289 192 -1290 0
-1289 -192 -1290 0
1289 -192 1290 0
-1289 192 1290 0
1290 193 -1291 0
-1290 -193 -1291 0
1290 -193 1291 0
-1290 193 1291 0
1291 194 -1292 0
-1291 -194 -1292 0
1291 -194 1292 0
-1291 194 1292 0
1292 195 -1293 0
-1292 -195 -1293 0
1292 -195 1293 0
-1292 195 1293 0
1293 196 -1294 0
-1293 -196 -1294 0
1293 -196 1294 0
-1293 196 1294 0
1294 197 -1295 0
-1294 -197 -1295 0
1294 -197 1295 0
-1294 197 1295 0
1295 198 -1296 0
-1295 -198 -1296 0
1295 -198 1296 0
-1295 198 1296 0
1296 199 -1297 0
-1296 -199 -1297 0
1296 -199 1297 0
-1296 199 1297 0
1297 200 -1298 0
-1297 -200 -1298 0
1297 -200 1298 0
-1297 200 1298 0
1298 201 -1299 0
-1298 -201 -1299 0
1298 -201 1299 0
-1298 201 1299 0
1299 202 -1300 0
-1299 -202 -1300 0
1299 -202 1300 0
-1299 202 1300 0
1300 203 -1301 0
-1300 -203 -1301 0
1300 -203 1301 0
-1300 203 1301 0
1301 204 -1302 0
-1301 -204 -1302 0
1301 -204 1302 0
-1301 204 1302 0
1302 205 -1303 0
-1302 -205 -1303 0
1302 -205 1303 0
-1302 205 1303 0
1303 206 -1304 0
-1303 -206 -1304 0
1303 -206 1304 0
-1303 206 1304 0
1304 207 -1305 0
-1304 -207 -1305 0
1304 -207 1305 0
-1304 207 1305 0
1305 208 -1306 0
-1305 -208 -1306 0
1305 -208 1306 0
-1305 208 1306 0
1306 209 -1307 0
-1306 -209 -1307 0
1306 -209 1307 0
-1306 209 1307 0
1307 210 -1308 0
-1307 -210 -1308 0
1307 -210 1308 0
-1307 210 1308 0
1308 211 -1309 0
-1308 -211 -1309 0
1308 -211 1309 0
-1308 211 1309 0
1309 212 -1310 0
-1309 -212 -1310 0
1309 -212 1310 0
-1309 212 1310 0
1310 213 -1311 0
-1310 -213 -1311 0
1310 -213 1311 0
-1310 213 1311 0
1311 214 -1312 0
-1311 -214 -1312 0
1311 -214 1312 0
-1311 214 1312 0
1312 215 -1313 0
-1312 -215 -1313 0
1312 -215 1313 0
-1312 215 1313 0
1313 216 -1314 0
-1313 -216 -1314 0
1313 -216 1314 0
-1313 216 1314 0
1314 217 -1315 0
-1314 -217 -1315 0
1314 -217 1315 0
-1314 217 1315 0
1315 218 -1316 0
-1315 -218 -1316 0
1315 -218 1316 0
-1315 218 1316 0
1316 219 -1317 0
-1316 -219 -1317 0
1316 -219 1317 0
-1316 219 1317 0
1317 220 -1318 0
-1317 -220 -1318 0
1317 -220 1318 0
-1317 220 1318 0
1318 225 -1319 0
-1318 -225 -1319 0
1318 -225 1319 0
-1318 225 1319 0
1319 226 -1320 0
-1319 -226 -1320 0
1319 -226 1320 0
-1319 226 1320 0
1320 227 -1321 0
-1320 -227 -1321 0
1320 -227 1321 0
-1320 227 1321 0
1321 228 -1322 0
-1321 -228 -1322 0
1321 -228 1322 0
-1321 228 1322 0
1322 229 -1323 0
-1322 -229 -1323 0
1322 -229 1323 0
-1322 229 1323 0
1323 230 -1324 0
-1323 -230 -1324 0
1323 -230 1324 0
-1323 230 1324 0
1324 231 -1325 0
-1324 -231 -1325 0
1324 -231 1325 0
-1324 231 1325 0
1325 232 -1326 0
-1325 -232 -1326 0
1325 -232 1326 0
-1325 232 1326 0
5 121 -1327 0
-5 -121 -1327 0
5 -121 1327 0
-5 121 1327 0
1327 122 -1328 0
-1327 -122 -1328 0
1327 -122 1328 0
-1327 122 1328 0
1328 123 -1329 0
-1328 -123 -1329 0
1328 -123 1329 0
-1328 123 1329 0
1329 124 -1330 0
-1329 -124 -1330 0
1329 -124 1330 0
-1329 124 1330 0
1330 126 -1331 0
-1330 -126 -1331 0
1330 -126 1331 0
-1330 126 1331 0
1331 127 -1332 0
-1331 -127 -1332 0
1331 -127 1332 0
-1331 127 1332 0
1332 128 -1333 0
-1332 -128 -1333 0
1332 -128 1333 0
-1332 128 1333 0
1333 130 -1334 0
-1333 -130 -1334 0
1333 -130 1334 0
-1333 130 1334 0
1334 131 -1335 0
-1334 -131 -1335 0
1334 -131 1335 0
-1334 131 1335 0
1335 132 -1336 0
-1335 -132 -1336 0
1335 -132 1336 0
-1335 132 1336 0
1336 134 -1337 0
-1336 -134 -1337 0
1336 -134 1337 0
-1336 134 1337 0
1337 135 -1338 0
-1337 -135 -1338 0
1337 -135 1338 0
-1337 135 1338 0
1338 136 -1339 0
-1338 -136 -1339 0
1338 -136 1339 0
-1338 136 1339 0
1339 138 -1340 0
-1339 -138 -1340 0
1339 -138 1340 0
-1339 138 1340 0
1340 139 -1341 0
-1340 -139 -1341 0
1340 -139 1341 0
-1340 139 1341 0
1341 140 -1342 0
-1341 -140 -1342 0
1341 -140 1342 0
-1341 140 1342 0
1342 142 -1343 0
-1342 -142 -1343 0
1342 -142 1343 0
-1342 142 1343 0
1343 143 -1344 0
-1343 -143 -1344 0
1343 -143 1344 0
-1343 143 1344 0
1344 144 -1345 0
-1344 -144 -1345 0
1344 -144 1345 0
-1344 144 1345 0
1345 146 -1346 0
-1345 -146 -1346 0
1345 -146 1346 0
-1345 146 1346 0
1346 147 -1347 0
-1346 -147 -1347 0
1346 -147 1347 0
-1346 147 1347 0
1347 148 -1348 0
-1347 -148 -1348 0
1347 -148 1348 0
-1347 148 1348 0
1348 150 -1349 0
-1348 -150 -1349 0
1348 -150 1349 0
-1348 150 1349 0
1349 151 -1350 0
-1349 -151 -1350 0
1349 -151 1350 0
-1349 151 1350 0
1350 152 -1351 0
-1350 -152 -1351 0
1350 -152 1351 0
-1350 152 1351 0
1351 154 -1352 0
-1351 -154 -1352 0
1351 -154 1352 0
-1351 154 1352 0
1352 155 -1353 0
-1352 -155 -1353 0
1352 -155 1353 0
-1352 155 1353 0
1353 156 -1354 0
-1353 -156 -1354 0
1353 -156 1354 0
-1353 156 1354 0
1354 158 -1355 0
-1354 -158 -1355 0
1354 -158 1355 0
-1354 158 1355 0
1355 159 -1356 0
-1355 -159 -1356 0
1355 -159 1356 0
-1355 159 1356 0
1356 160 -1357 0
-1356 -160 -1357 0
1356 -160 1357 0
-1356 160 1357 0
1357 162 -1358 0
-1357 -162 -1358 0
1357 -162 1358 0
-1357 162 1358 0
1358 163 -1359 0
-1358 -163 -1359 0
1358 -163 1359 0
-1358 163 1359 0
1359 164 -1360 0
-1359 -164 -1360 0
1359 -164 1360 0
-1359 164 1360 0
1360 166 -1361 0
-1360 -166 -1361 0
1360 -166 1361 0
-1360 166 1361 0
1361 167 -1362 0
-1361 -167 -1362 0
1361 -167 1362 0
-1361 167 1362 0
1362 168 -1363 0
-1362 -168 -1363 0
1362 -168 1363 0
-1362 168 1363 0
1363 170 -1364 0
-1363 -170 -1364 0
1363 -170 1364 0
-1363 170 1364 0
1364 171 -1365 0
-1364 -171 -1365 0
1364 -171 1365 0
-1364 171 1365 0
1365 172 -1366 0
-1365 -172 -1366 0
1365 -172 1366 0
-1365 172 1366 0
1366 174 -1367 0
-1366 -174 -1367 0
1366 -174 1367 0
-1366 174 1367 0
1367 175 -1368 0
-1367 -175 -1368 0
1367 -175 1368 0
-1367 175 1368 0
1368 176 -1369 0
-1368 -176 -1369 0
1368 -176 1369 0
-1368 176 1369 0
1369 178 -1370 0
-1369 -178 -1370 0
1369 -178 1370 0
-1369 178 1370 0
1370 179 -1371 0
-1370 -179 -1371 0
1370 -179 1371 0
-1370 179 1371 0
1371 180 -1372 0
-1371 -180 -1372 0
1371 -180 1372 0
-1371 180 1372 0
1372 182 -1373 0
-1372 -182 -1373 0
1372 -182 1373 0
-1372 182 1373 0
1373 183 -1374 0
-1373 -183 -1374 0
1373 -183 1374 0
-1373 183 1374 0
1374 184 -1375 0
-1374 -184 -1375 0
1374 -184 1375 0
-1374 184 1375 0
1375 186 -1376 0
-1375 -186 -1376 0
1375 -186 1376 0
-1375 186 1376 0
1376 187 -1377 0
-1376 -187 -1377 0
1376 -187 1377 0
-1376 187 1377 0
1377 188 -1378 0
-1377 -188 -1378 0
1377 -188 1378 0
-1377 188 1378 0
1378 190 -1379 0
-1378 -190 -1379 0
1378 -190 1379 0
-1378 190 1379 0
1379 191 -1380 0
-1379 -191 -1380 0
1379 -191 1380 0
-1379 191 1380 0
1380 192 -1381 0
-1380 -192 -1381 0
1380 -192 1381 0
-1380 192 1381 0
1381 194 -1382 0
-1381 -194 -1382 0
1381 -194 1382 0
-1381 194 1382 0
1382 195 -1383 0
-1382 -195 -1383 0
1382 -195 1383 0
-1382 195 1383 0
1383 196 -1384 0
-1383 -196 -1384 0
1383 -196 1384 0
-1383 196 1384 0
1384 198 -1385 0
-1384 -198 -1385 0
1384 -198 1385 0
-1384 198 1385 0
1385 199 -1386 0
-1385 -199 -1386 0
1385 -199 1386 0
-1385 199 1386 0
1386 200 -1387 0
-1386 -200 -1387 0
1386 -200 1387 0
-1386 200 1387 0
1387 202 -1388 0
-1387 -202 -1388 0
1387 -202 1388 0
-1387 202 1388 0
1388 203 -1389 0
-1388 -203 -1389 0
1388 -203 1389 0
-1388 203 1389 0
1389 204 -1390 0
-1389 -204 -1390 0
1389 -204 1390 0
-1389 204 1390 0
1390 206 -1391 0
-1390 -206 -1391 0
1390 -206 1391 0
-1390 206 1391 0
1391 207 -1392 0
-1391 -207 -1392 0
1391 -207 1392 0
-1391 207 1392 0
1392 208 -1393 0
-1392 -208 -1393 0
1392 -208 1393 0
-1392 208 1393 0
1393 210 -1394 0
-1393 -210 -1394 0
1393 -210 1394 0
-1393 210 1394 0
1394 211 -1395 0
-1394 -211 -1395 0
1394 -211 1395 0
-1394 211 1395 0
1395 212 -1396 0
-1395 -212 -1396 0
1395 -212 1396 0
-1395 212 1396 0
1396 214 -1397 0
-1396 -214 -1397 0
1396 -214 1397 0
-1396 214 1397 0
1397 215 -1398 0
-1397 -215 -1398 0
1397 -215 1398 0
-1397 215 1398 0
1398 216 -1399 0
-1398 -216 -1399 0
1398 -216 1399 0
-1398 216 1399 0
1399 218 -1400 0
-1399 -218 -1400 0
1399 -218 1400 0
-1399 218 1400 0
1400 219 -1401 0
-1400 -219 -1401 0
1400 -219 1401 0
-1400 219 1401 0
1401 220 -1402 0
-1401 -220 -1402 0
1401 -220 1402 0
-1401 220 1402 0
1402 225 -1403 0
-1402 -225 -1403 0
1402 -225 1403 0
-1402 225 1403 0
1403 226 -1404 0
-1403 -226 -1404 0
1403 -226 1404 0
-1403 226 1404 0
1404 227 -1405 0
-1404 -227 -1405 0
1404 -227 1405 0
-1404 227 1405 0
1405 228 -1406 0
-1405 -228 -1406 0
1405 -228 1406 0
-1405 228 1406 0
1406 230 -1407 0
-1406 -230 -1407 0
1406 -230 1407 0
-1406 230 1407 0
1407 231 -1408 0
-1407 -231 -1408 0
1407 -231 1408 0
-1407 231 1408 0
1408 232 -1409 0
-1408 -232 -1409 0
1408 -232 1409 0
-1408 232 1409 0
9 122 -1410 0
-9 -122 -1410 0
9 -122 1410 0
-9 122 1410 0
1410 123 -1411 0
-1410 -123 -1411 0
1410 -123 1411 0
-1410 123 1411 0
1411 124 -1412 0
-1411 -124 -1412 0
1411 -124 1412 0
-1411 124 1412 0
1412 125 -1413 0
-1412 -125 -1413 0
1412 -125 1413 0
-1412 125 1413 0
1413 226 -1414 0
-1413 -226 -1414 0
1413 -226 1414 0
-1413 226 1414 0
1414 227 -1415 0
-1414 -227 -1415 0
1414 -227 1415 0
-1414 227 1415 0
1415 228 -1416 0
-1415 -228 -1416 0
1415 -228 1416 0
-1415 228 1416 0
1416 229 -1417 0
-1416 -229 -1417 0
1416 -229 1417 0
-1416 229 1417 0
10 123 -1418 0
-10 -123 -1418 0
10 -123 1418 0
-10 123 1418 0
1418 124 -1419 0
-1418 -124 -1419 0
1418 -124 1419 0
-1418 124 1419 0
1419 125 -1420 0
-1419 -125 -1420 0
1419 -125 1420 0
-1419 125 1420 0
1420 126 -1421 0
-1420 -126 -1421 0
1420 -126 1421 0
-1420 126 1421 0
1421 227 -1422 0
-1421 -227 -1422 0
1421 -227 1422 0
-1421 227 1422 0
1422 228 -1423 0
-1422 -228 -1423 0
1422 -228 1423 0
-1422 228 1423 0
1423 229 -1424 0
-1423 -229 -1424 0
1423 -229 1424 0
-1423 229 1424 0
1424 230 -1425 0
-1424 -230 -1425 0
1424 -230 1425 0
-1424 230 1425 0
11 124 -1426 0
-11 -124 -1426 0
11 -124 1426 0
-11 124 1426 0
1426 125 -1427 0
-1426 -125 -1427 0
1426 -125 1427 0
-1426 125 1427 0
1427 126 -1428 0
-1427 -126 -1428 0
1427 -126 1428 0
-1427 126 1428 0
1428 127 -1429 0
-1428 -127 -1429 0
1428 -127 1429 0
-1428 127 1429 0
1429 228 -1430 0
-1429 -228 -1430 0
1429 -228 1430 0
-1429 228 1430 0
1430 229 -1431 0
-1430 -229 -1431 0
1430 -229 1431 0
-1430 229 1431 0
1431 230 -1432 0
-1431 -230 -1432 0
1431 -230 1432 0
-1431 230 1432 0
1432 231 -1433 0
-1432 -231 -1433 0
1432 -231 1433 0
-1432 231 1433 0
1077 1135 1218 1326 1409 1417 1425 1433 0
1 0
-1442 1436 1443 0
-1439 1436 1443 0
-1439 -1442 1443 0
-1443 1434 0
-1440 1434 0
-1443 -1440 1435 0
-1441 1435 0
-1443 -1441 0
-1437 1434 0
-1443 -1437 1435 0
-1438 1435 0
-1443 -1438 0
-1437 -1440 1435 0
-1443 -1437 -1440 0
-1437 -1441 0
-1443 -1437 -1441 0
-1438 -1440 0
-1443 -1438 -1440 0
-1438 -1441 0
-1443 -1438 -1441 0
-1449 1442 1450 0
-1446 1442 1450 0
-1446 -1449 1450 0
-1450 1440 0
-1447 1440 0
-1450 -1447 1441 0
-1448 1441 0
-1450 -1448 0
-1444 1440 0
-1450 -1444 1441 0
-1445 1441 0
-1450 -1445 0
-1444 -1447 1441 0
-1450 -1444 -1447 0
-1444 -1448 0
-1450 -1444 -1448 0
-1445 -1447 0
-1450 -1445 -1447 0
-1445 -1448 0
-1450 -1445 -1448 0
-1456 1449 1457 0
-1453 1449 1457 0
-1453 -1456 1457 0
-1457 1447 0
-1454 1447 0
-1457 -1454 1448 0
-1455 1448 0
-1457 -1455 0
-1451 1447 0
-1457 -1451 1448 0
-1452 1448 0
-1457 -1452 0
-1451 -1454 1448 0
-1457 -1451 -1454 0
-1451 -1455 0
-1457 -1451 -1455 0
-1452 -1454 0
-1457 -1452 -1454 0
-1452 -1455 0
-1457 -1452 -1455 0
-1463 1456 1464 0
-1460 1456 1464 0
-1460 -1463 1464 0
-1464 1454 0
-1461 1454 0
-1464 -1461 1455 0
-1462 1455 0
-1464 -1462 0
-1458 1454 0
-1464 -1458 1455 0
-1459 1455 0
-1464 -1459 0
-1458 -1461 1455 0
-1464 -1458 -1461 0
-1458 -1462 0
-1464 -1458 -1462 0
-1459 -1461 0
-1464 -1459 -1461 0
-1459 -1462 0
-1464 -1459 -1462 0
-1470 1463 1471 0
-1467 1463 1471 0
-1467 -1470 1471 0
-1471 1461 0
-1468 1461 0
-1471 -1468 1462 0
-1469 1462 0
-1471 -1469 0
-1465 1461 0
-1471 -1465 1462 0
-1466 1462 0
-1471 -1466 0
-1465 -1468 1462 0
-1471 -1465 -1468 0
-1465 -1469 0
-1471 -1465 -1469 0
-1466 -1468 0
-1471 -1466 -1468 0
-1466 -1469 0
-1471 -1466 -1469 0
-1476 1470 1477 0
-1474 1470 1477 0
-1474 -1476 1477 0
-1477 1468 0
-1475 1468 0
-1477 -1475 1469 0
-1472 1468 0
-1477 -1472 1469 0
-1473 1469 0
-1477 -1473 0
-1472 -1475 1469 0
-1477 -1472 -1475 0
-1473 -1475 0
-1477 -1473 -1475 0
-232 1476 1480 0
-1479 1476 1480 0
-1479 -232 1480 0
-1480 1475 0
-1478 1475 0
-1480 -1478 0
-231 1479 1481 0
-230 1479 1481 0
-230 -231 1481 0
-1481 1478 0
-1485 1474 1486 0
-1483 1474 1486 0
-1483 -1485 1486 0
-1486 1472 0
-1484 1472 0
-1486 -1484 1473 0
-1482 1472 0
-1486 -1482 1473 0
-1482 -1484 1473 0
-1486 -1482 -1484 0
-229 1485 1487 0
-228 1485 1487 0
-228 -229 1487 0
-1487 1484 0
-227 1483 1488 0
-226 1483 1488 0
-226 -227 1488 0
-1488 1482 0
-1493 1467 1494 0
-1491 1467 1494 0
-1491 -1493 1494 0
-1494 1465 0
-1492 1465 0
-1494 -1492 1466 0
-1489 1465 0
-1494 -1489 1466 0
-1490 1466 0
-1494 -1490 0
-1489 -1492 1466 0
-1494 -1489 -1492 0
-1490 -1492 0
-1494 -1490 -1492 0
-225 1493 1497 0
-1496 1493 1497 0
-1496 -225 1497 0
-1497 1492 0
-1495 1492 0
-1497 -1495 0
-224 1496 1498 0
-223 1496 1498 0
-223 -224 1498 0
-1498 1495 0
-1502 1491 1503 0
-1500 1491 1503 0
-1500 -1502 1503 0
-1503 1489 0
-1501 1489 0
-1503 -1501 1490 0
-1499 1489 0
-1503 -1499 1490 0
-1499 -1501 1490 0
-1503 -1499 -1501 0
-222 1502 1504 0
-221 1502 1504 0
-221 -222 1504 0
-1504 1501 0
-220 1500 1505 0
-219 1500 1505 0
-219 -220 1505 0
-1505 1499 0
-1511 1460 1512 0
-1508 1460 1512 0
-1508 -1511 1512 0
-1512 1458 0
-1509 1458 0
-1512 -1509 1459 0
-1510 1459 0
-1512 -1510 0
-1506 1458 0
-1512 -1506 1459 0
-1507 1459 0
-1512 -1507 0
-1506 -1509 1459 0
-1512 -1506 -1509 0
-1506 -1510 0
-1512 -1506 -1510 0
-1507 -1509 0
-1512 -1507 -1509 0
-1507 -1510 0
-1512 -1507 -1510 0
-1517 1511 1518 0
-1515 1511 1518 0
-1515 -1517 1518 0
-1518 1509 0
-1516 1509 0
-1518 -1516 1510 0
-1513 1509 0
-1518 -1513 1510 0
-1514 1510 0
-1518 -1514 0
-1513 -1516 1510 0
-1518 -1513 -1516 0
-1514 -1516 0
-1518 -1514 -1516 0
-218 1517 1521 0
-1520 1517 1521 0
-1520 -218 1521 0
-1521 1516 0
-1519 1516 0
-1521 -1519 0
-217 1520 1522 0
-216 1520 1522 0
-216 -217 1522 0
-1522 1519 0
-1526 1515 1527 0
-1524 1515 1527 0
-1524 -1526 1527 0
-1527 1513 0
-1525 1513 0
-1527 -1525 1514 0
-1523 1513 0
-1527 -1523 1514 0
-1523 -1525 1514 0
-1527 -1523 -1525 0
-215 1526 1528 0
-214 1526 1528 0
-214 -215 1528 0
-1528 1525 0
-213 1524 1529 0
-212 1524 1529 0
-212 -213 1529 0
-1529 1523 0
-1535 1508 1536 0
-1532 1508 1536 0
-1532 -1535 1536 0
-1536 1506 0
-1533 1506 0
-1536 -1533 1507 0
-1534 1507 0
-1536 -1534 0
-1530 1506 0
-1536 -1530 1507 0
-1531 1507 0
-1536 -1531 0
-1530 -1533 1507 0
-1536 -1530 -1533 0
-1530 -1534 0
-1536 -1530 -1534 0
-1531 -1533 0
-1536 -1531 -1533 0
-1531 -1534 0
-1536 -1531 -1534 0
-1540 1535 1541 0
-1538 1535 1541 0
-1538 -1540 1541 0
-1541 1533 0
-1539 1533 0
-1541 -1539 1534 0
-1537 1533 0
-1541 -1537 1534 0
-1537 -1539 1534 0
-1541 -1537 -1539 0
-211 1540 1542 0
-210 1540 1542 0
-210 -211 1542 0
-1542 1539 0
-209 1538 1543 0
-208 1538 1543 0
-208 -209 1543 0
-1543 1537 0
-1547 1532 1548 0
-1545 1532 1548 0
-1545 -1547 1548 0
-1548 1530 0
-1546 1530 0
-1548 -1546 1531 0
-1544 1530 0
-1548 -1544 1531 0
-1544 -1546 1531 0
-1548 -1544 -1546 0
-207 1547 1549 0
-206 1547 1549 0
-206 -207 1549 0
-1549 1546 0
-205 1545 1550 0
-204 1545 1550 0
-204 -205 1550 0
-1550 1544 0
-1556 1453 1557 0
-1553 1453 1557 0
-1553 -1556 1557 0
-1557 1451 0
-1554 1451 0
-1557 -1554 1452 0
-1555 1452 0
-1557 -1555 0
-1551 1451 0
-1557 -1551 1452 0
-1552 1452 0
-1557 -1552 0
-1551 -1554 1452 0
-1557 -1551 -1554 0
-1551 -1555 0
-1557 -1551 -1555 0
-1552 -1554 0
-1557 -1552 -1554 0
-1552 -1555 0
-1557 -1552 -1555 0
-1563 1556 1564 0
-1560 1556 1564 0
-1560 -1563 1564 0
-1564 1554 0
-1561 1554 0
-1564 -1561 1555 0
-1562 1555 0
-1564 -1562 0
-1558 1554 0
-1564 -1558 1555 0
-1559 1555 0
-1564 -1559 0
-1558 -1561 1555 0
-1564 -1558 -1561 0
-1558 -1562 0
-1564 -1558 -1562 0
-1559 -1561 0
-1564 -1559 -1561 0
-1559 -1562 0
-1564 -1559 -1562 0
-1569 1563 1570 0
-1567 1563 1570 0
-1567 -1569 1570 0
-1570 1561 0
-1568 1561 0
-1570 -1568 1562 0
-1565 1561 0
-1570 -1565 1562 0
-1566 1562 0
-1570 -1566 0
-1565 -1568 1562 0
-1570 -1565 -1568 0
-1566 -1568 0
-1570 -1566 -1568 0
-203 1569 1573 0
-1572 1569 1573 0
-1572 -203 1573 0
-1573 1568 0
-1571 1568 0
-1573 -1571 0
-202 1572 1574 0
-201 1572 1574 0
-201 -202 1574 0
-1574 1571 0
-1578 1567 1579 0
-1576 1567 1579 0
-1576 -1578 1579 0
-1579 1565 0
-1577 1565 0
-1579 -1577 1566 0
-1575 1565 0
-1579 -1575 1566 0
-1575 -1577 1566 0
-1579 -1575 -1577 0
-200 1578 1580 0
-199 1578 1580 0
-199 -200 1580 0
-1580 1577 0
-198 1576 1581 0
-197 1576 1581 0
-197 -198 1581 0
-1581 1575 0
-1586 1560 1587 0
-1584 1560 1587 0
-1584 -1586 1587 0
-1587 1558 0
-1585 1558 0
-1587 -1585 1559 0
-1582 1558 0
-1587 -1582 1559 0
-1583 1559 0
-1587 -1583 0
-1582 -1585 1559 0
-1587 -1582 -1585 0
-1583 -1585 0
-1587 -1583 -1585 0
-196 1586 1590 0
-1589 1586 1590 0
-1589 -196 1590 0
-1590 1585 0
-1588 1585 0
-1590 -1588 0
-195 1589 1591 0
-194 1589 1591 0
-194 -195 1591 0
-1591 1588 0
-1595 1584 1596 0
-1593 1584 1596 0
-1593 -1595 1596 0
-1596 1582 0
-1594 1582 0
-1596 -1594 1583 0
-1592 1582 0
-1596 -1592 1583 0
-1592 -1594 1583 0
-1596 -1592 -1594 0
-193 1595 1597 0
-192 1595 1597 0
-192 -193 1597 0
-1597 1594 0
-191 1593 1598 0
-190 1593 1598 0
-190 -191 1598 0
-1598 1592 0
-1604 1553 1605 0
-1601 1553 1605 0
-1601 -1604 1605 0
-1605 1551 0
-1602 1551 0
-1605 -1602 1552 0
-1603 1552 0
-1605 -1603 0
-1599 1551 0
-1605 -1599 1552 0
-1600 1552 0
-1605 -1600 0
-1599 -1602 1552 0
-1605 -1599 -1602 0
-1599 -1603 0
-1605 -1599 -1603 0
-1600 -1602 0
-1605 -1600 -1602 0
-1600 -1603 0
-1605 -1600 -1603 0
-1610 1604 1611 0
-1608 1604 1611 0
-1608 -1610 1611 0
-1611 1602 0
-1609 1602 0
-1611 -1609 1603 0
-1606 1602 0
-1611 -1606 1603 0
-1607 1603 0
-1611 -1607 0
-1606 -1609 1603 0
-1611 -1606 -1609 0
-1607 -1609 0
-1611 -1607 -1609 0
-189 1610 1614 0
-1613 1610 1614 0
-1613 -189 1614 0
-1614 1609 0
-1612 1609 0
-1614 -1612 0
-188 1613 1615 0
-187 1613 1615 0
-187 -188 1615 0
-1615 1612 0
-1619 1608 1620 0
-1617 1608 1620 0
-1617 -1619 1620 0
-1620 1606 0
-1618 1606 0
-1620 -1618 1607 0
-1616 1606 0
-1620 -1616 1607 0
-1616 -1618 1607 0
-1620 -1616 -1618 0
-186 1619 1621 0
-185 1619 1621 0
-185 -186 1621 0
-1621 1618 0
-184 1617 1622 0
-183 1617 1622 0
-183 -184 1622 0
-1622 1616 0
-1628 1601 1629 0
-1625 1601 1629 0
-1625 -1628 1629 0
-1629 1599 0
-1626 1599 0
-1629 -1626 1600 0
-1627 1600 0
-1629 -1627 0
-1623 1599 0
-1629 -1623 1600 0
-1624 1600 0
-1629 -1624 0
-1623 -1626 1600 0
-1629 -1623 -1626 0
-1623 -1627 0
-1629 -1623 -1627 0
-1624 -1626 0
-1629 -1624 -1626 0
-1624 -1627 0
-1629 -1624 -1627 0
-1633 1628 1634 0
-1631 1628 1634 0
-1631 -1633 1634 0
-1634 1626 0
-1632 1626 0
-1634 -1632 1627 0
-1630 1626 0
-1634 -1630 1627 0
-1630 -1632 1627 0
-1634 -1630 -1632 0
-182 1633 1635 0
-181 1633 1635 0
-181 -182 1635 0
-1635 1632 0
-180 1631 1636 0
-179 1631 1636 0
-179 -180 1636 0
-1636 1630 0
-1640 1625 1641 0
-1638 1625 1641 0
-1638 -1640 1641 0
-1641 1623 0
-1639 1623 0
-1641 -1639 1624 0
-1637 1623 0
-1641 -1637 1624 0
-1637 -1639 1624 0
-1641 -1637 -1639 0
-178 1640 1642 0
-177 1640 1642 0
-177 -178 1642 0
-1642 1639 0
-176 1638 1643 0
-175 1638 1643 0
-175 -176 1643 0
-1643 1637 0
-1649 1446 1650 0
-1646 1446 1650 0
-1646 -1649 1650 0
-1650 1444 0
-1647 1444 0
-1650 -1647 1445 0
-1648 1445 0
-1650 -1648 0
-1644 1444 0
-1650 -1644 1445 0
-1645 1445 0
-1650 -1645 0
-1644 -1647 1445 0
-1650 -1644 -1647 0
-1644 -1648 0
-1650 -1644 -1648 0
-1645 -1647 0
-1650 -1645 -1647 0
-1645 -1648 0
-1650 -1645 -1648 0
-1656 1649 1657 0
-1653 1649 1657 0
-1653 -1656 1657 0
-1657 1647 0
-1654 1647 0
-1657 -1654 1648 0
-1655 1648 0
-1657 -1655 0
-1651 1647 0
-1657 -1651 1648 0
-1652 1648 0
-1657 -1652 0
-1651 -1654 1648 0
-1657 -1651 -1654 0
-1651 -1655 0
-1657 -1651 -1655 0
-1652 -1654 0
-1657 -1652 -1654 0
-1652 -1655 0
-1657 -1652 -1655 0
-1663 1656 1664 0
-1660 1656 1664 0
-1660 -1663 1664 0
-1664 1654 0
-1661 1654 0
-1664 -1661 1655 0
-1662 1655 0
-1664 -1662 0
-1658 1654 0
-1664 -1658 1655 0
-1659 1655 0
-1664 -1659 0
-1658 -1661 1655 0
-1664 -1658 -1661 0
-1658 -1662 0
-1664 -1658 -1662 0
-1659 -1661 0
-1664 -1659 -1661 0
-1659 -1662 0
-1664 -1659 -1662 0
-1669 1663 1670 0
-1667 1663 1670 0
-1667 -1669 1670 0
-1670 1661 0
-1668 1661 0
-1670 -1668 1662 0
-1665 1661 0
-1670 -1665 1662 0
-1666 1662 0
-1670 -1666 0
-1665 -1668 1662 0
-1670 -1665 -1668 0
-1666 -1668 0
-1670 -1666 -1668 0
-174 1669 1673 0
-1672 1669 1673 0
-1672 -174 1673 0
-1673 1668 0
-1671 1668 0
-1673 -1671 0
-173 1672 1674 0
-172 1672 1674 0
-172 -173 1674 0
-1674 1671 0
-1678 1667 1679 0
-1676 1667 1679 0
-1676 -1678 1679 0
-1679 1665 0
-1677 1665 0
-1679 -1677 1666 0
-1675 1665 0
-1679 -1675 1666 0
-1675 -1677 1666 0
-1679 -1675 -1677 0
-171 1678 1680 0
-170 1678 1680 0
-170 -171 1680 0
-1680 1677 0
-169 1676 1681 0
-168 1676 1681 0
-168 -169 1681 0
-1681 1675 0
-1686 1660 1687 0
-1684 1660 1687 0
-1684 -1686 1687 0
-1687 1658 0
-1685 1658 0
-1687 -1685 1659 0
-1682 1658 0
-1687 -1682 1659 0
-1683 1659 0
-1687 -1683 0
-1682 -1685 1659 0
-1687 -1682 -1685 0
-1683 -1685 0
-1687 -1683 -1685 0
-167 1686 1690 0
-1689 1686 1690 0
-1689 -167 1690 0
-1690 1685 0
-1688 1685 0
-1690 -1688 0
-166 1689 1691 0
-165 1689 1691 0
-165 -166 1691 0
-1691 1688 0
-1695 1684 1696 0
-1693 1684 1696 0
-1693 -1695 1696 0
-1696 1682 0
-1694 1682 0
-1696 -1694 1683 0
-1692 1682 0
-1696 -1692 1683 0
-1692 -1694 1683 0
-1696 -1692 -1694 0
-164 1695 1697 0
-163 1695 1697 0
-163 -164 1697 0
-1697 1694 0
-162 1693 1698 0
-161 1693 1698 0
-161 -162 1698 0
-1698 1692 0
-1704 1653 1705 0
-1701 1653 1705 0
-1701 -1704 1705 0
-1705 1651 0
-1702 1651 0
-1705 -1702 1652 0
-1703 1652 0
-1705 -1703 0
-1699 1651 0
-1705 -1699 1652 0
-1700 1652 0
-1705 -1700 0
-1699 -1702 1652 0
-1705 -1699 -1702 0
-1699 -1703 0
-1705 -1699 -1703 0
-1700 -1702 0
-1705 -1700 -1702 0
-1700 -1703 0
-1705 -1700 -1703 0
-1710 1704 1711 0
-1708 1704 1711 0
-1708 -1710 1711 0
-1711 1702 0
-1709 1702 0
-1711 -1709 1703 0
-1706 1702 0
-1711 -1706 1703 0
-1707 1703 0
-1711 -1707 0
-1706 -1709 1703 0
-1711 -1706 -1709 0
-1707 -1709 0
-1711 -1707 -1709 0
-160 1710 1714 0
-1713 1710 1714 0
-1713 -160 1714 0
-1714 1709 0
-1712 1709 0
-1714 -1712 0
-159 1713 1715 0
-158 1713 1715 0
-158 -159 1715 0
-1715 1712 0
-1719 1708 1720 0
-1717 1708 1720 0
-1717 -1719 1720 0
-1720 1706 0
-1718 1706 0
-1720 -1718 1707 0
-1716 1706 0
-1720 -1716 1707 0
-1716 -1718 1707 0
-1720 -1716 -1718 0
-157 1719 1721 0
-156 1719 1721 0
-156 -157 1721 0
-1721 1718 0
-155 1717 1722 0
-154 1717 1722 0
-154 -155 1722 0
-1722 1716 0
-1728 1701 1729 0
-1725 1701 1729 0
-1725 -1728 1729 0
-1729 1699 0
-1726 1699 0
-1729 -1726 1700 0
-1727 1700 0
-1729 -1727 0
-1723 1699 0
-1729 -1723 1700 0
-1724 1700 0
-1729 -1724 0
-1723 -1726 1700 0
-1729 -1723 -1726 0
-1723 -1727 0
-1729 -1723 -1727 0
-1724 -1726 0
-1729 -1724 -1726 0
-1724 -1727 0
-1729 -1724 -1727 0
-1733 1728 1734 0
-1731 1728 1734 0
-1731 -1733 1734 0
-1734 1726 0
-1732 1726 0
-1734 -1732 1727 0
-1730 1726 0
-1734 -1730 1727 0
-1730 -1732 1727 0
-1734 -1730 -1732 0
-153 1733 1735 0
-152 1733 1735 0
-152 -153 1735 0
-1735 1732 0
-151 1731 1736 0
-150 1731 1736 0
-150 -151 1736 0
-1736 1730 0
-1740 1725 1741 0
-1738 1725 1741 0
-1738 -1740 1741 0
-1741 1723 0
-1739 1723 0
-1741 -1739 1724 0
-1737 1723 0
-1741 -1737 1724 0
-1737 -1739 1724 0
-1741 -1737 -1739 0
-149 1740 1742 0
-148 1740 1742 0
-148 -149 1742 0
-1742 1739 0
-147 1738 1743 0
-146 1738 1743 0
-146 -147 1743 0
-1743 1737 0
-1749 1646 1750 0
-1746 1646 1750 0
-1746 -1749 1750 0
-1750 1644 0
-1747 1644 0
-1750 -1747 1645 0
-1748 1645 0
-1750 -1748 0
-1744 1644 0
-1750 -1744 1645 0
-1745 1645 0
-1750 -1745 0
-1744 -1747 1645 0
-1750 -1744 -1747 0
-1744 -1748 0
-1750 -1744 -1748 0
-1745 -1747 0
-1750 -1745 -1747 0
-1745 -1748 0
-1750 -1745 -1748 0
-1756 1749 1757 0
-1753 1749 1757 0
-1753 -1756 1757 0
-1757 1747 0
-1754 1747 0
-1757 -1754 1748 0
-1755 1748 0
-1757 -1755 0
-1751 1747 0
-1757 -1751 1748 0
-1752 1748 0
-1757 -1752 0
-1751 -1754 1748 0
-1757 -1751 -1754 0
-1751 -1755 0
-1757 -1751 -1755 0
-1752 -1754 0
-1757 -1752 -1754 0
-1752 -1755 0
-1757 -1752 -1755 0
-1762 1756 1763 0
-1760 1756 1763 0
-1760 -1762 1763 0
-1763 1754 0
-1761 1754 0
-1763 -1761 1755 0
-1758 1754 0
-1763 -1758 1755 0
-1759 1755 0
-1763 -1759 0
-1758 -1761 1755 0
-1763 -1758 -1761 0
-1759 -1761 0
-1763 -1759 -1761 0
-145 1762 1766 0
-1765 1762 1766 0
-1765 -145 1766 0
-1766 1761 0
-1764 1761 0
-1766 -1764 0
-144 1765 1767 0
-143 1765 1767 0
-143 -144 1767 0
-1767 1764 0
-1771 1760 1772 0
-1769 1760 1772 0
-1769 -1771 1772 0
-1772 1758 0
-1770 1758 0
-1772 -1770 1759 0
-1768 1758 0
-1772 -1768 1759 0
-1768 -1770 1759 0
-1772 -1768 -1770 0
-142 1771 1773 0
-141 1771 1773 0
-141 -142 1773 0
-1773 1770 0
-140 1769 1774 0
-139 1769 1774 0
-139 -140 1774 0
-1774 1768 0
-1779 1753 1780 0
-1777 1753 1780 0
-1777 -1779 1780 0
-1780 1751 0
-1778 1751 0
-1780 -1778 1752 0
-1775 1751 0
-1780 -1775 1752 0
-1776 1752 0
-1780 -1776 0
-1775 -1778 1752 0
-1780 -1775 -1778 0
-1776 -1778 0
-1780 -1776 -1778 0
-138 1779 1783 0
-1782 1779 1783 0
-1782 -138 1783 0
-1783 1778 0
-1781 1778 0
-1783 -1781 0
-137 1782 1784 0
-136 1782 1784 0
-136 -137 1784 0
-1784 1781 0
-1788 1777 1789 0
-1786 1777 1789 0
-1786 -1788 1789 0
-1789 1775 0
-1787 1775 0
-1789 -1787 1776 0
-1785 1775 0
-1789 -1785 1776 0
-1785 -1787 1776 0
-1789 -1785 -1787 0
-135 1788 1790 0
-134 1788 1790 0
-134 -135 1790 0
-1790 1787 0
-133 1786 1791 0
-132 1786 1791 0
-132 -133 1791 0
-1791 1785 0
-1797 1746 1798 0
-1794 1746 1798 0
-1794 -1797 1798 0
-1798 1744 0
-1795 1744 0
-1798 -1795 1745 0
-1796 1745 0
-1798 -1796 0
-1792 1744 0
-1798 -1792 1745 0
-1793 1745 0
-1798 -1793 0
-1792 -1795 1745 0
-1798 -1792 -1795 0
-1792 -1796 0
-1798 -1792 -1796 0
-1793 -1795 0
-1798 -1793 -1795 0
-1793 -1796 0
-1798 -1793 -1796 0
-1803 1797 1804 0
-1801 1797 1804 0
-1801 -1803 1804 0
-1804 1795 0
-1802 1795 0
-1804 -1802 1796 0
-1799 1795 0
-1804 -1799 1796 0
-1800 1796 0
-1804 -1800 0
-1799 -1802 1796 0
-1804 -1799 -1802 0
-1800 -1802 0
-1804 -1800 -1802 0
-131 1803 1807 0
-1806 1803 1807 0
-1806 -131 1807 0
-1807 1802 0
-1805 1802 0
-1807 -1805 0
-130 1806 1808 0
-129 1806 1808 0
-129 -130 1808 0
-1808 1805 0
-1812 1801 1813 0
-1810 1801 1813 0
-1810 -1812 1813 0
-1813 1799 0
-1811 1799 0
-1813 -1811 1800 0
-1809 1799 0
-1813 -1809 1800 0
-1809 -1811 1800 0
-1813 -1809 -1811 0
-128 1812 1814 0
-127 1812 1814 0
-127 -128 1814 0
-1814 1811 0
-126 1810 1815 0
-125 1810 1815 0
-125 -126 1815 0
-1815 1809 0
-1821 1794 1822 0
-1818 1794 1822 0
-1818 -1821 1822 0
-1822 1792 0
-1819 1792 0
-1822 -1819 1793 0
-1820 1793 0
-1822 -1820 0
-1816 1792 0
-1822 -1816 1793 0
-1817 1793 0
-1822 -1817 0
-1816 -1819 1793 0
-1822 -1816 -1819 0
-1816 -1820 0
-1822 -1816 -1820 0
-1817 -1819 0
-1822 -1817 -1819 0
-1817 -1820 0
-1822 -1817 -1820 0
-1826 1821 1827 0
-1824 1821 1827 0
-1824 -1826 1827 0
-1827 1819 0
-1825 1819 0
-1827 -1825 1820 0
-1823 1819 0
-1827 -1823 1820 0
-1823 -1825 1820 0
-1827 -1823 -1825 0
-124 1826 1828 0
-123 1826 1828 0
-123 -124 1828 0
-1828 1825 0
-122 1824 1829 0
-121 1824 1829 0
-121 -122 1829 0
-1829 1823 0
-1833 1818 1834 0
-1831 1818 1834 0
-1831 -1833 1834 0
-1834 1816 0
-1832 1816 0
-1834 -1832 1817 0
-1830 1816 0
-1834 -1830 1817 0
-1830 -1832 1817 0
-1834 -1830 -1832 0
-120 1833 1835 0
-119 1833 1835 0
-119 -120 1835 0
-1835 1832 0
-118 1831 1836 0
-117 1831 1836 0
-117 -118 1836 0
-1836 1830 0
-1842 1439 1843 0
-1839 1439 1843 0
-1839 -1842 1843 0
-1843 1437 0
-1840 1437 0
-1843 -1840 1438 0
-1841 1438 0
-1843 -1841 0
-1837 1437 0
-1843 -1837 1438 0
-1838 1438 0
-1843 -1838 0
-1837 -1840 1438 0
-1843 -1837 -1840 0
-1837 -1841 0
-1843 -1837 -1841 0
-1838 -1840 0
-1843 -1838 -1840 0
-1838 -1841 0
-1843 -1838 -1841 0
-1849 1842 1850 0
-1846 1842 1850 0
-1846 -1849 1850 0
-1850 1840 0
-1847 1840 0
-1850 -1847 1841 0
-1848 1841 0
-1850 -1848 0
-1844 1840 0
-1850 -1844 1841 0
-1845 1841 0
-1850 -1845 0
-1844 -1847 1841 0
-1850 -1844 -1847 0
-1844 -1848 0
-1850 -1844 -1848 0
-1845 -1847 0
-1850 -1845 -1847 0
-1845 -1848 0
-1850 -1845 -1848 0
-1856 1849 1857 0
-1853 1849 1857 0
-1853 -1856 1857 0
-1857 1847 0
-1854 1847 0
-1857 -1854 1848 0
-1855 1848 0
-1857 -1855 0
-1851 1847 0
-1857 -1851 1848 0
-1852 1848 0
-1857 -1852 0
-1851 -1854 1848 0
-1857 -1851 -1854 0
-1851 -1855 0
-1857 -1851 -1855 0
-1852 -1854 0
-1857 -1852 -1854 0
-1852 -1855 0
-1857 -1852 -1855 0
-1863 1856 1864 0
-1860 1856 1864 0
-1860 -1863 1864 0
-1864 1854 0
-1861 1854 0
-1864 -1861 1855 0
-1862 1855 0
-1864 -1862 0
-1858 1854 0
-1864 -1858 1855 0
-1859 1855 0
-1864 -1859 0
-1858 -1861 1855 0
-1864 -1858 -1861 0
-1858 -1862 0
-1864 -1858 -1862 0
-1859 -1861 0
-1864 -1859 -1861 0
-1859 -1862 0
-1864 -1859 -1862 0
-1869 1863 1870 0
-1867 1863 1870 0
-1867 -1869 1870 0
-1870 1861 0
-1868 1861 0
-1870 -1868 1862 0
-1865 1861 0
-1870 -1865 1862 0
-1866 1862 0
-1870 -1866 0
-1865 -1868 1862 0
-1870 -1865 -1868 0
-1866 -1868 0
-1870 -1866 -1868 0
-116 1869 1873 0
-1872 1869 1873 0
-1872 -116 1873 0
-1873 1868 0
-1871 1868 0
-1873 -1871 0
-115 1872 1874 0
-114 1872 1874 0
-114 -115 1874 0
-1874 1871 0
-1878 1867 1879 0
-1876 1867 1879 0
-1876 -1878 1879 0
-1879 1865 0
-1877 1865 0
-1879 -1877 1866 0
-1875 1865 0
-1879 -1875 1866 0
-1875 -1877 1866 0
-1879 -1875 -1877 0
-113 1878 1880 0
-112 1878 1880 0
-112 -113 1880 0
-1880 1877 0
-111 1876 1881 0
-110 1876 1881 0
-110 -111 1881 0
-1881 1875 0
-1886 1860 1887 0
-1884 1860 1887 0
-1884 -1886 1887 0
-1887 1858 0
-1885 1858 0
-1887 -1885 1859 0
-1882 1858 0
-1887 -1882 1859 0
-1883 1859 0
-1887 -1883 0
-1882 -1885 1859 0
-1887 -1882 -1885 0
-1883 -1885 0
-1887 -1883 -1885 0
-109 1886 1890 0
-1889 1886 1890 0
-1889 -109 1890 0
-1890 1885 0
-1888 1885 0
-1890 -1888 0
-108 1889 1891 0
-107 1889 1891 0
-107 -108 1891 0
-1891 1888 0
-1895 1884 1896 0
-1893 1884 1896 0
-1893 -1895 1896 0
-1896 1882 0
-1894 1882 0
-1896 -1894 1883 0
-1892 1882 0
-1896 -1892 1883 0
-1892 -1894 1883 0
-1896 -1892 -1894 0
-106 1895 1897 0
-105 1895 1897 0
-105 -106 1897 0
-1897 1894 0
-104 1893 1898 0
-103 1893 1898 0
-103 -104 1898 0
-1898 1892 0
-1904 1853 1905 0
-1901 1853 1905 0
-1901 -1904 1905 0
-1905 1851 0
-1902 1851 0
-1905 -1902 1852 0
-1903 1852 0
-1905 -1903 0
-1899 1851 0
-1905 -1899 1852 0
-1900 1852 0
-1905 -1900 0
-1899 -1902 1852 0
-1905 -1899 -1902 0
-1899 -1903 0
-1905 -1899 -1903 0
-1900 -1902 0
-1905 -1900 -1902 0
-1900 -1903 0
-1905 -1900 -1903 0
-1910 1904 1911 0
-1908 1904 1911 0
-1908 -1910 1911 0
-1911 1902 0
-1909 1902 0
-1911 -1909 1903 0
-1906 1902 0
-1911 -1906 1903 0
-1907 1903 0
-1911 -1907 0
-1906 -1909 1903 0
-1911 -1906 -1909 0
-1907 -1909 0
-1911 -1907 -1909 0
-102 1910 1914 0
-1913 1910 1914 0
-1913 -102 1914 0
-1914 1909 0
-1912 1909 0
-1914 -1912 0
-101 1913 1915 0
-100 1913 1915 0
-100 -101 1915 0
-1915 1912 0
-1919 1908 1920 0
-1917 1908 1920 0
-1917 -1919 1920 0
-1920 1906 0
-1918 1906 0
-1920 -1918 1907 0
-1916 1906 0
-1920 -1916 1907 0
-1916 -1918 1907 0
-1920 -1916 -1918 0
-99 1919 1921 0
-98 1919 1921 0
-98 -99 1921 0
-1921 1918 0
-97 1917 1922 0
-96 1917 1922 0
-96 -97 1922 0
-1922 1916 0
-1928 1901 1929 0
-1925 1901 1929 0
-1925 -1928 1929 0
-1929 1899 0
-1926 1899 0
-1929 -1926 1900 0
-1927 1900 0
-1929 -1927 0
-1923 1899 0
-1929 -1923 1900 0
-1924 1900 0
-1929 -1924 0
-1923 -1926 1900 0
-1929 -1923 -1926 0
-1923 -1927 0
-1929 -1923 -1927 0
-1924 -1926 0
-1929 -1924 -1926 0
-1924 -1927 0
-1929 -1924 -1927 0
-1933 1928 1934 0
-1931 1928 1934 0
-1931 -1933 1934 0
-1934 1926 0
-1932 1926 0
-1934 -1932 1927 0
-1930 1926 0
-1934 -1930 1927 0
-1930 -1932 1927 0
-1934 -1930 -1932 0
-95 1933 1935 0
-94 1933 1935 0
-94 -95 1935 0
-1935 1932 0
-93 1931 1936 0
-92 1931 1936 0
-92 -93 1936 0
-1936 1930 0
-1940 1925 1941 0
-1938 1925 1941 0
-1938 -1940 1941 0
-1941 1923 0
-1939 1923 0
-1941 -1939 1924 0
-1937 1923 0
-1941 -1937 1924 0
-1937 -1939 1924 0
-1941 -1937 -1939 0
-91 1940 1942 0
-90 1940 1942 0
-90 -91 1942 0
-1942 1939 0
-89 1938 1943 0
-88 1938 1943 0
-88 -89 1943 0
-1943 1937 0
-1949 1846 1950 0
-1946 1846 1950 0
-1946 -1949 1950 0
-1950 1844 0
-1947 1844 0
-1950 -1947 1845 0
-1948 1845 0
-1950 -1948 0
-1944 1844 0
-1950 -1944 1845 0
-1945 1845 0
-1950 -1945 0
-1944 -1947 1845 0
-1950 -1944 -1947 0
-1944 -1948 0
-1950 -1944 -1948 0
-1945 -1947 0
-1950 -1945 -1947 0
-1945 -1948 0
-1950 -1945 -1948 0
-1956 1949 1957 0
-1953 1949 1957 0
-1953 -1956 1957 0
-1957 1947 0
-1954 1947 0
-1957 -1954 1948 0
-1955 1948 0
-1957 -1955 0
-1951 1947 0
-1957 -1951 1948 0
-1952 1948 0
-1957 -1952 0
-1951 -1954 1948 0
-1957 -1951 -1954 0
-1951 -1955 0
-1957 -1951 -1955 0
-1952 -1954 0
-1957 -1952 -1954 0
-1952 -1955 0
-1957 -1952 -1955 0
-1962 1956 1963 0
-1960 1956 1963 0
-1960 -1962 1963 0
-1963 1954 0
-1961 1954 0
-1963 -1961 1955 0
-1958 1954 0
-1963 -1958 1955 0
-1959 1955 0
-1963 -1959 0
-1958 -1961 1955 0
-1963 -1958 -1961 0
-1959 -1961 0
-1963 -1959 -1961 0
-87 1962 1966 0
-1965 1962 1966 0
-1965 -87 1966 0
-1966 1961 0
-1964 1961 0
-1966 -1964 0
-86 1965 1967 0
-85 1965 1967 0
-85 -86 1967 0
-1967 1964 0
-1971 1960 1972 0
-1969 1960 1972 0
-1969 -1971 1972 0
-1972 1958 0
-1970 1958 0
-1972 -1970 1959 0
-1968 1958 0
-1972 -1968 1959 0
-1968 -1970 1959 0
-1972 -1968 -1970 0
-84 1971 1973 0
-83 1971 1973 0
-83 -84 1973 0
-1973 1970 0
-82 1969 1974 0
-81 1969 1974 0
-81 -82 1974 0
-1974 1968 0
-1979 1953 1980 0
-1977 1953 1980 0
-1977 -1979 1980 0
-1980 1951 0
-1978 1951 0
-1980 -1978 1952 0
-1975 1951 0
-1980 -1975 1952 0
-1976 1952 0
-1980 -1976 0
-1975 -1978 1952 0
-1980 -1975 -1978 0
-1976 -1978 0
-1980 -1976 -1978 0
-80 1979 1983 0
-1982 1979 1983 0
-1982 -80 1983 0
-1983 1978 0
-1981 1978 0
-1983 -1981 0
-79 1982 1984 0
-78 1982 1984 0
-78 -79 1984 0
-1984 1981 0
-1988 1977 1989 0
-1986 1977 1989 0
-1986 -1988 1989 0
-1989 1975 0
-1987 1975 0
-1989 -1987 1976 0
-1985 1975 0
-1989 -1985 1976 0
-1985 -1987 1976 0
-1989 -1985 -1987 0
-77 1988 1990 0
-76 1988 1990 0
-76 -77 1990 0
-1990 1987 0
-75 1986 1991 0
-74 1986 1991 0
-74 -75 1991 0
-1991 1985 0
-1997 1946 1998 0
-1994 1946 1998 0
-1994 -1997 1998 0
-1998 1944 0
-1995 1944 0
-1998 -1995 1945 0
-1996 1945 0
-1998 -1996 0
-1992 1944 0
-1998 -1992 1945 0
-1993 1945 0
-1998 -1993 0
-1992 -1995 1945 0
-1998 -1992 -1995 0
-1992 -1996 0
-1998 -1992 -1996 0
-1993 -1995 0
-1998 -1993 -1995 0
-1993 -1996 0
-1998 -1993 -1996 0
-2003 1997 2004 0
-2001 1997 2004 0
-2001 -2003 2004 0
-2004 1995 0
-2002 1995 0
-2004 -2002 1996 0
-1999 1995 0
-2004 -1999 1996 0
-2000 1996 0
-2004 -2000 0
-1999 -2002 1996 0
-2004 -1999 -2002 0
-2000 -2002 0
-2004 -2000 -2002 0
-73 2003 2007 0
-2006 2003 2007 0
-2006 -73 2007 0
-2007 2002 0
-2005 2002 0
-2007 -2005 0
-72 2006 2008 0
-71 2006 2008 0
-71 -72 2008 0
-2008 2005 0
-2012 2001 2013 0
-2010 2001 2013 0
-2010 -2012 2013 0
-2013 1999 0
-2011 1999 0
-2013 -2011 2000 0
-2009 1999 0
-2013 -2009 2000 0
-2009 -2011 2000 0
-2013 -2009 -2011 0
-70 2012 2014 0
-69 2012 2014 0
-69 -70 2014 0
-2014 2011 0
-68 2010 2015 0
-67 2010 2015 0
-67 -68 2015 0
-2015 2009 0
-2021 1994 2022 0
-2018 1994 2022 0
-2018 -2021 2022 0
-2022 1992 0
-2019 1992 0
-2022 -2019 1993 0
-2020 1993 0
-2022 -2020 0
-2016 1992 0
-2022 -2016 1993 0
-2017 1993 0
-2022 -2017 0
-2016 -2019 1993 0
-2022 -2016 -2019 0
-2016 -2020 0
-2022 -2016 -2020 0
-2017 -2019 0
-2022 -2017 -2019 0
-2017 -2020 0
-2022 -2017 -2020 0
-2026 2021 2027 0
-2024 2021 2027 0
-2024 -2026 2027 0
-2027 2019 0
-2025 2019 0
-2027 -2025 2020 0
-2023 2019 0
-2027 -2023 2020 0
-2023 -2025 2020 0
-2027 -2023 -2025 0
-66 2026 2028 0
-65 2026 2028 0
-65 -66 2028 0
-2028 2025 0
-64 2024 2029 0
-63 2024 2029 0
-63 -64 2029 0
-2029 2023 0
-2033 2018 2034 0
-2031 2018 2034 0
-2031 -2033 2034 0
-2034 2016 0
-2032 2016 0
-2034 -2032 2017 0
-2030 2016 0
-2034 -2030 2017 0
-2030 -2032 2017 0
-2034 -2030 -2032 0
-62 2033 2035 0
-61 2033 2035 0
-61 -62 2035 0
-2035 2032 0
-60 2031 2036 0
-59 2031 2036 0
-59 -60 2036 0
-2036 2030 0
-2042 1839 2043 0
-2039 1839 2043 0
-2039 -2042 2043 0
-2043 1837 0
-2040 1837 0
-2043 -2040 1838 0
-2041 1838 0
-2043 -2041 0
-2037 1837 0
-2043 -2037 1838 0
-2038 1838 0
-2043 -2038 0
-2037 -2040 1838 0
-2043 -2037 -2040 0
-2037 -2041 0
-2043 -2037 -2041 0
-2038 -2040 0
-2043 -2038 -2040 0
-2038 -2041 0
-2043 -2038 -2041 0
-2049 2042 2050 0
-2046 2042 2050 0
-2046 -2049 2050 0
-2050 2040 0
-2047 2040 0
-2050 -2047 2041 0
-2048 2041 0
-2050 -2048 0
-2044 2040 0
-2050 -2044 2041 0
-2045 2041 0
-2050 -2045 0
-2044 -2047 2041 0
-2050 -2044 -2047 0
-2044 -2048 0
-2050 -2044 -2048 0
-2045 -2047 0
-2050 -2045 -2047 0
-2045 -2048 0
-2050 -2045 -2048 0
-2056 2049 2057 0
-2053 2049 2057 0
-2053 -2056 2057 0
-2057 2047 0
-2054 2047 0
-2057 -2054 2048 0
-2055 2048 0
-2057 -2055 0
-2051 2047 0
-2057 -2051 2048 0
-2052 2048 0
-2057 -2052 0
-2051 -2054 2048 0
-2057 -2051 -2054 0
-2051 -2055 0
-2057 -2051 -2055 0
-2052 -2054 0
-2057 -2052 -2054 0
-2052 -2055 0
-2057 -2052 -2055 0
-2062 2056 2063 0
-2060 2056 2063 0
-2060 -2062 2063 0
-2063 2054 0
-2061 2054 0
-2063 -2061 2055 0
-2058 2054 0
-2063 -2058 2055 0
-2059 2055 0
-2063 -2059 0
-2058 -2061 2055 0
-2063 -2058 -2061 0
-2059 -2061 0
-2063 -2059 -2061 0
-58 2062 2066 0
-2065 2062 2066 0
-2065 -58 2066 0
-2066 2061 0
-2064 2061 0
-2066 -2064 0
-57 2065 2067 0
-56 2065 2067 0
-56 -57 2067 0
-2067 2064 0
-2071 2060 2072 0
-2069 2060 2072 0
-2069 -2071 2072 0
-2072 2058 0
-2070 2058 0
-2072 -2070 2059 0
-2068 2058 0
-2072 -2068 2059 0
-2068 -2070 2059 0
-2072 -2068 -2070 0
-55 2071 2073 0
-54 2071 2073 0
-54 -55 2073 0
-2073 2070 0
-53 2069 2074 0
-52 2069 2074 0
-52 -53 2074 0
-2074 2068 0
-2079 2053 2080 0
-2077 2053 2080 0
-2077 -2079 2080 0
-2080 2051 0
-2078 2051 0
-2080 -2078 2052 0
-2075 2051 0
-2080 -2075 2052 0
-2076 2052 0
-2080 -2076 0
-2075 -2078 2052 0
-2080 -2075 -2078 0
-2076 -2078 0
-2080 -2076 -2078 0
-51 2079 2083 0
-2082 2079 2083 0
-2082 -51 2083 0
-2083 2078 0
-2081 2078 0
-2083 -2081 0
-50 2082 2084 0
-49 2082 2084 0
-49 -50 2084 0
-2084 2081 0
-2088 2077 2089 0
-2086 2077 2089 0
-2086 -2088 2089 0
-2089 2075 0
-2087 2075 0
-2089 -2087 2076 0
-2085 2075 0
-2089 -2085 2076 0
-2085 -2087 2076 0
-2089 -2085 -2087 0
-48 2088 2090 0
-47 2088 2090 0
-47 -48 2090 0
-2090 2087 0
-46 2086 2091 0
-45 2086 2091 0
-45 -46 2091 0
-2091 2085 0
-2097 2046 2098 0
-2094 2046 2098 0
-2094 -2097 2098 0
-2098 2044 0
-2095 2044 0
-2098 -2095 2045 0
-2096 2045 0
-2098 -2096 0
-2092 2044 0
-2098 -2092 2045 0
-2093 2045 0
-2098 -2093 0
-2092 -2095 2045 0
-2098 -2092 -2095 0
-2092 -2096 0
-2098 -2092 -2096 0
-2093 -2095 0
-2098 -2093 -2095 0
-2093 -2096 0
-2098 -2093 -2096 0
-2103 2097 2104 0
-2101 2097 2104 0
-2101 -2103 2104 0
-2104 2095 0
-2102 2095 0
-2104 -2102 2096 0
-2099 2095 0
-2104 -2099 2096 0
-2100 2096 0
-2104 -2100 0
-2099 -2102 2096 0
-2104 -2099 -2102 0
-2100 -2102 0
-2104 -2100 -2102 0
-44 2103 2107 0
-2106 2103 2107 0
-2106 -44 2107 0
-2107 2102 0
-2105 2102 0
-2107 -2105 0
-43 2106 2108 0
-42 2106 2108 0
-42 -43 2108 0
-2108 2105 0
-2112 2101 2113 0
-2110 2101 2113 0
-2110 -2112 2113 0
-2113 2099 0
-2111 2099 0
-2113 -2111 2100 0
-2109 2099 0
-2113 -2109 2100 0
-2109 -2111 2100 0
-2113 -2109 -2111 0
-41 2112 2114 0
-40 2112 2114 0
-40 -41 2114 0
-2114 2111 0
-39 2110 2115 0
-38 2110 2115 0
-38 -39 2115 0
-2115 2109 0
-2121 2094 2122 0
-2118 2094 2122 0
-2118 -2121 2122 0
-2122 2092 0
-2119 2092 0
-2122 -2119 2093 0
-2120 2093 0
-2122 -2120 0
-2116 2092 0
-2122 -2116 2093 0
-2117 2093 0
-2122 -2117 0
-2116 -2119 2093 0
-2122 -2116 -2119 0
-2116 -2120 0
-2122 -2116 -2120 0
-2117 -2119 0
-2122 -2117 -2119 0
-2117 -2120 0
-2122 -2117 -2120 0
-2126 2121 2127 0
-2124 2121 2127 0
-2124 -2126 2127 0
-2127 2119 0
-2125 2119 0
-2127 -2125 2120 0
-2123 2119 0
-2127 -2123 2120 0
-2123 -2125 2120 0
-2127 -2123 -2125 0
-37 2126 2128 0
-36 2126 2128 0
-36 -37 2128 0
-2128 2125 0
-35 2124 2129 0
-34 2124 2129 0
-34 -35 2129 0
-2129 2123 0
-2133 2118 2134 0
-2131 2118 2134 0
-2131 -2133 2134 0
-2134 2116 0
-2132 2116 0
-2134 -2132 2117 0
-2130 2116 0
-2134 -2130 2117 0
-2130 -2132 2117 0
-2134 -2130 -2132 0
-33 2133 2135 0
-32 2133 2135 0
-32 -33 2135 0
-2135 2132 0
-31 2131 2136 0
-30 2131 2136 0
-30 -31 2136 0
-2136 2130 0
-2142 2039 2143 0
-2139 2039 2143 0
-2139 -2142 2143 0
-2143 2037 0
-2140 2037 0
-2143 -2140 2038 0
-2141 2038 0
-2143 -2141 0
-2137 2037 0
-2143 -2137 2038 0
-2138 2038 0
-2143 -2138 0
-2137 -2140 2038 0
-2143 -2137 -2140 0
-2137 -2141 0
-2143 -2137 -2141 0
-2138 -2140 0
-2143 -2138 -2140 0
-2138 -2141 0
-2143 -2138 -2141 0
-2149 2142 2150 0
-2146 2142 2150 0
-2146 -2149 2150 0
-2150 2140 0
-2147 2140 0
-2150 -2147 2141 0
-2148 2141 0
-2150 -2148 0
-2144 2140 0
-2150 -2144 2141 0
-2145 2141 0
-2150 -2145 0
-2144 -2147 2141 0
-2150 -2144 -2147 0
-2144 -2148 0
-2150 -2144 -2148 0
-2145 -2147 0
-2150 -2145 -2147 0
-2145 -2148 0
-2150 -2145 -2148 0
-2155 2149 2156 0
-2153 2149 2156 0
-2153 -2155 2156 0
-2156 2147 0
-2154 2147 0
-2156 -2154 2148 0
-2151 2147 0
-2156 -2151 2148 0
-2152 2148 0
-2156 -2152 0
-2151 -2154 2148 0
-2156 -2151 -2154 0
-2152 -2154 0
-2156 -2152 -2154 0
-29 2155 2159 0
-2158 2155 2159 0
-2158 -29 2159 0
-2159 2154 0
-2157 2154 0
-2159 -2157 0
-28 2158 2160 0
-27 2158 2160 0
-27 -28 2160 0
-2160 2157 0
-2164 2153 2165 0
-2162 2153 2165 0
-2162 -2164 2165 0
-2165 2151 0
-2163 2151 0
-2165 -2163 2152 0
-2161 2151 0
-2165 -2161 2152 0
-2161 -2163 2152 0
-2165 -2161 -2163 0
-26 2164 2166 0
-25 2164 2166 0
-25 -26 2166 0
-2166 2163 0
-24 2162 2167 0
-23 2162 2167 0
-23 -24 2167 0
-2167 2161 0
-2172 2146 2173 0
-2170 2146 2173 0
-2170 -2172 2173 0
-2173 2144 0
-2171 2144 0
-2173 -2171 2145 0
-2168 2144 0
-2173 -2168 2145 0
-2169 2145 0
-2173 -2169 0
-2168 -2171 2145 0
-2173 -2168 -2171 0
-2169 -2171 0
-2173 -2169 -2171 0
-22 2172 2176 0
-2175 2172 2176 0
-2175 -22 2176 0
-2176 2171 0
-2174 2171 0
-2176 -2174 0
-21 2175 2177 0
-20 2175 2177 0
-20 -21 2177 0
-2177 2174 0
-2181 2170 2182 0
-2179 2170 2182 0
-2179 -2181 2182 0
-2182 2168 0
-2180 2168 0
-2182 -2180 2169 0
-2178 2168 0
-2182 -2178 2169 0
-2178 -2180 2169 0
-2182 -2178 -2180 0
-19 2181 2183 0
-18 2181 2183 0
-18 -19 2183 0
-2183 2180 0
-17 2179 2184 0
-16 2179 2184 0
-16 -17 2184 0
-2184 2178 0
-2190 2139 2191 0
-2187 2139 2191 0
-2187 -2190 2191 0
-2191 2137 0
-2188 2137 0
-2191 -2188 2138 0
-2189 2138 0
-2191 -2189 0
-2185 2137 0
-2191 -2185 2138 0
-2186 2138 0
-2191 -2186 0
-2185 -2188 2138 0
-2191 -2185 -2188 0
-2185 -2189 0
-2191 -2185 -2189 0
-2186 -2188 0
-2191 -2186 -2188 0
-2186 -2189 0
-2191 -2186 -2189 0
-2196 2190 2197 0
-2194 2190 2197 0
-2194 -2196 2197 0
-2197 2188 0
-2195 2188 0
-2197 -2195 2189 0
-2192 2188 0
-2197 -2192 2189 0
-2193 2189 0
-2197 -2193 0
-2192 -2195 2189 0
-2197 -2192 -2195 0
-2193 -2195 0
-2197 -2193 -2195 0
-15 2196 2200 0
-2199 2196 2200 0
-2199 -15 2200 0
-2200 2195 0
-2198 2195 0
-2200 -2198 0
-14 2199 2201 0
-13 2199 2201 0
-13 -14 2201 0
-2201 2198 0
-2205 2194 2206 0
-2203 2194 2206 0
-2203 -2205 2206 0
-2206 2192 0
-2204 2192 0
-2206 -2204 2193 0
-2202 2192 0
-2206 -2202 2193 0
-2202 -2204 2193 0
-2206 -2202 -2204 0
-12 2205 2207 0
-11 2205 2207 0
-11 -12 2207 0
-2207 2204 0
-10 2203 2208 0
-9 2203 2208 0
-9 -10 2208 0
-2208 2202 0
-2214 2187 2215 0
-2211 2187 2215 0
-2211 -2214 2215 0
-2215 2185 0
-2212 2185 0
-2215 -2212 2186 0
-2213 2186 0
-2215 -2213 0
-2209 2185 0
-2215 -2209 2186 0
-2210 2186 0
-2215 -2210 0
-2209 -2212 2186 0
-2215 -2209 -2212 0
-2209 -2213 0
-2215 -2209 -2213 0
-2210 -2212 0
-2215 -2210 -2212 0
-2210 -2213 0
-2215 -2210 -2213 0
-2219 2214 2220 0
-2217 2214 2220 0
-2217 -2219 2220 0
-2220 2212 0
-2218 2212 0
-2220 -2218 2213 0
-2216 2212 0
-2220 -2216 2213 0
-2216 -2218 2213 0
-2220 -2216 -2218 0
-8 2219 2221 0
-7 2219 2221 0
-7 -8 2221 0
-2221 2218 0
-6 2217 2222 0
-5 2217 2222 0
-5 -6 2222 0
-2222 2216 0
-2226 2211 2227 0
-2224 2211 2227 0
-2224 -2226 2227 0
-2227 2209 0
-2225 2209 0
-2227 -2225 2210 0
-2223 2209 0
-2227 -2223 2210 0
-2223 -2225 2210 0
-2227 -2223 -2225 0
-4 2226 2228 0
-3 2226 2228 0
-3 -4 2228 0
-2228 2225 0
-2 2224 2229 0
-1 2224 2229 0
-1 -2 2229 0
-2229 2223 0
