p cnf 4516 14570
1 216 -445 0
-1 -216 -445 0
1 -216 445 0
-1 216 445 0
445 217 -446 0
-445 -217 -446 0
445 -217 446 0
-445 217 446 0
446 222 -447 0
-446 -222 -447 0
446 -222 447 0
-446 222 447 0
447 223 -448 0
-447 -223 -448 0
447 -223 448 0
-447 223 448 0
448 415 -449 0
-448 -415 -449 0
448 -415 449 0
-448 415 449 0
449 427 -450 0
-449 -427 -450 0
449 -427 450 0
-449 427 450 0
450 433 -451 0
-450 -433 -451 0
450 -433 451 0
-450 433 451 0
-451 0
1 2 -452 0
-1 -2 -452 0
1 -2 452 0
-1 2 452 0
452 217 -453 0
-452 -217 -453 0
452 -217 453 0
-452 217 453 0
453 218 -454 0
-453 -218 -454 0
453 -218 454 0
-453 218 454 0
454 224 -455 0
-454 -224 -455 0
454 -224 455 0
-454 224 455 0
455 416 -456 0
-455 -416 -456 0
455 -416 456 0
-455 416 456 0
456 428 -457 0
-456 -428 -457 0
456 -428 457 0
-456 428 457 0
457 434 -458 0
-457 -434 -458 0
457 -434 458 0
-457 434 458 0
-458 0
2 3 -459 0
-2 -3 -459 0
2 -3 459 0
-2 3 459 0
459 218 -460 0
-459 -218 -460 0
459 -218 460 0
-459 218 460 0
460 219 -461 0
-460 -219 -461 0
460 -219 461 0
-460 219 461 0
461 225 -462 0
-461 -225 -462 0
461 -225 462 0
-461 225 462 0
462 417 -463 0
-462 -417 -463 0
462 -417 463 0
-462 417 463 0
463 429 -464 0
-463 -429 -464 0
463 -429 464 0
-463 429 464 0
464 435 -465 0
-464 -435 -465 0
464 -435 465 0
-464 435 465 0
-465 0
3 4 -466 0
-3 -4 -466 0
3 -4 466 0
-3 4 466 0
466 219 -467 0
-466 -219 -467 0
466 -219 467 0
-466 219 467 0
467 220 -468 0
-467 -220 -468 0
467 -220 468 0
-467 220 468 0
468 226 -469 0
-468 -226 -469 0
468 -226 469 0
-468 226 469 0
469 418 -470 0
-469 -418 -470 0
469 -418 470 0
-469 418 470 0
470 430 -471 0
-470 -430 -471 0
470 -430 471 0
-470 430 471 0
471 436 -472 0
-471 -436 -472 0
471 -436 472 0
-471 436 472 0
-472 0
4 5 -473 0
-4 -5 -473 0
4 -5 473 0
-4 5 473 0
473 220 -474 0
-473 -220 -474 0
473 -220 474 0
-473 220 474 0
474 221 -475 0
-474 -221 -475 0
474 -221 475 0
-474 221 475 0
475 227 -476 0
-475 -227 -476 0
475 -227 476 0
-475 227 476 0
476 419 -477 0
-476 -419 -477 0
476 -419 477 0
-476 419 477 0
477 431 -478 0
-477 -431 -478 0
477 -431 478 0
-477 431 478 0
478 437 -479 0
-478 -437 -479 0
478 -437 479 0
-478 437 479 0
-479 0
5 6 -480 0
-5 -6 -480 0
5 -6 480 0
-5 6 480 0
480 221 -481 0
-480 -221 -481 0
480 -221 481 0
-480 221 481 0
481 222 -482 0
-481 -222 -482 0
481 -222 482 0
-481 222 482 0
482 228 -483 0
-482 -228 -483 0
482 -228 483 0
-482 228 483 0
483 420 -484 0
-483 -420 -484 0
483 -420 484 0
-483 420 484 0
484 432 -485 0
-484 -432 -485 0
484 -432 485 0
-484 432 485 0
485 438 -486 0
-485 -438 -486 0
485 -438 486 0
-485 438 486 0
-486 0
1 6 -487 0
-1 -6 -487 0
1 -6 487 0
-1 6 487 0
487 7 -488 0
-487 -7 -488 0
487 -7 488 0
-487 7 488 0
488 222 -489 0
-488 -222 -489 0
488 -222 489 0
-488 222 489 0
489 229 -490 0
-489 -229 -490 0
489 -229 490 0
-489 229 490 0
490 421 -491 0
-490 -421 -491 0
490 -421 491 0
-490 421 491 0
491 433 -492 0
-491 -433 -492 0
491 -433 492 0
-491 433 492 0
492 439 -493 0
-492 -439 -493 0
492 -439 493 0
-492 439 493 0
-493 0
1 2 -494 0
-1 -2 -494 0
1 -2 494 0
-1 2 494 0
494 7 -495 0
-494 -7 -495 0
494 -7 495 0
-494 7 495 0
495 8 -496 0
-495 -8 -496 0
495 -8 496 0
-495 8 496 0
496 230 -497 0
-496 -230 -497 0
496 -230 497 0
-496 230 497 0
497 422 -498 0
-497 -422 -498 0
497 -422 498 0
-497 422 498 0
498 434 -499 0
-498 -434 -499 0
498 -434 499 0
-498 434 499 0
499 440 -500 0
-499 -440 -500 0
499 -440 500 0
-499 440 500 0
-500 0
2 3 -501 0
-2 -3 -501 0
2 -3 501 0
-2 3 501 0
501 8 -502 0
-501 -8 -502 0
501 -8 502 0
-501 8 502 0
502 9 -503 0
-502 -9 -503 0
502 -9 503 0
-502 9 503 0
503 231 -504 0
-503 -231 -504 0
503 -231 504 0
-503 231 504 0
504 423 -505 0
-504 -423 -505 0
504 -423 505 0
-504 423 505 0
505 435 -506 0
-505 -435 -506 0
505 -435 506 0
-505 435 506 0
506 441 -507 0
-506 -441 -507 0
506 -441 507 0
-506 441 507 0
-507 0
3 4 -508 0
-3 -4 -508 0
3 -4 508 0
-3 4 508 0
508 9 -509 0
-508 -9 -509 0
508 -9 509 0
-508 9 509 0
509 10 -510 0
-509 -10 -510 0
509 -10 510 0
-509 10 510 0
510 232 -511 0
-510 -232 -511 0
510 -232 511 0
-510 232 511 0
511 424 -512 0
-511 -424 -512 0
511 -424 512 0
-511 424 512 0
512 436 -513 0
-512 -436 -513 0
512 -436 513 0
-512 436 513 0
513 442 -514 0
-513 -442 -514 0
513 -442 514 0
-513 442 514 0
-514 0
4 5 -515 0
-4 -5 -515 0
4 -5 515 0
-4 5 515 0
515 10 -516 0
-515 -10 -516 0
515 -10 516 0
-515 10 516 0
516 11 -517 0
-516 -11 -517 0
516 -11 517 0
-516 11 517 0
517 233 -518 0
-517 -233 -518 0
517 -233 518 0
-517 233 518 0
518 425 -519 0
-518 -425 -519 0
518 -425 519 0
-518 425 519 0
519 437 -520 0
-519 -437 -520 0
519 -437 520 0
-519 437 520 0
520 443 -521 0
-520 -443 -521 0
520 -443 521 0
-520 443 521 0
-521 0
5 6 -522 0
-5 -6 -522 0
5 -6 522 0
-5 6 522 0
522 11 -523 0
-522 -11 -523 0
522 -11 523 0
-522 11 523 0
523 12 -524 0
-523 -12 -524 0
523 -12 524 0
-523 12 524 0
524 234 -525 0
-524 -234 -525 0
524 -234 525 0
-524 234 525 0
525 426 -526 0
-525 -426 -526 0
525 -426 526 0
-525 426 526 0
526 438 -527 0
-526 -438 -527 0
526 -438 527 0
-526 438 527 0
527 444 -528 0
-527 -444 -528 0
527 -444 528 0
-527 444 528 0
-528 0
6 7 -529 0
-6 -7 -529 0
6 -7 529 0
-6 7 529 0
529 12 -530 0
-529 -12 -530 0
529 -12 530 0
-529 12 530 0
530 13 -531 0
-530 -13 -531 0
530 -13 531 0
-530 13 531 0
531 223 -532 0
-531 -223 -532 0
531 -223 532 0
-531 223 532 0
532 235 -533 0
-532 -235 -533 0
532 -235 533 0
-532 235 533 0
533 427 -534 0
-533 -427 -534 0
533 -427 534 0
-533 427 534 0
534 439 -535 0
-534 -439 -535 0
534 -439 535 0
-534 439 535 0
-535 0
7 8 -536 0
-7 -8 -536 0
7 -8 536 0
-7 8 536 0
536 13 -537 0
-536 -13 -537 0
536 -13 537 0
-536 13 537 0
537 14 -538 0
-537 -14 -538 0
537 -14 538 0
-537 14 538 0
538 224 -539 0
-538 -224 -539 0
538 -224 539 0
-538 224 539 0
539 236 -540 0
-539 -236 -540 0
539 -236 540 0
-539 236 540 0
540 428 -541 0
-540 -428 -541 0
540 -428 541 0
-540 428 541 0
541 440 -542 0
-541 -440 -542 0
541 -440 542 0
-541 440 542 0
-542 0
8 9 -543 0
-8 -9 -543 0
8 -9 543 0
-8 9 543 0
543 14 -544 0
-543 -14 -544 0
543 -14 544 0
-543 14 544 0
544 15 -545 0
-544 -15 -545 0
544 -15 545 0
-544 15 545 0
545 225 -546 0
-545 -225 -546 0
545 -225 546 0
-545 225 546 0
546 237 -547 0
-546 -237 -547 0
546 -237 547 0
-546 237 547 0
547 429 -548 0
-547 -429 -548 0
547 -429 548 0
-547 429 548 0
548 441 -549 0
-548 -441 -549 0
548 -441 549 0
-548 441 549 0
-549 0
9 10 -550 0
-9 -10 -550 0
9 -10 550 0
-9 10 550 0
550 15 -551 0
-550 -15 -551 0
550 -15 551 0
-550 15 551 0
551 16 -552 0
-551 -16 -552 0
551 -16 552 0
-551 16 552 0
552 226 -553 0
-552 -226 -553 0
552 -226 553 0
-552 226 553 0
553 238 -554 0
-553 -238 -554 0
553 -238 554 0
-553 238 554 0
554 430 -555 0
-554 -430 -555 0
554 -430 555 0
-554 430 555 0
555 442 -556 0
-555 -442 -556 0
555 -442 556 0
-555 442 556 0
-556 0
10 11 -557 0
-10 -11 -557 0
10 -11 557 0
-10 11 557 0
557 16 -558 0
-557 -16 -558 0
557 -16 558 0
-557 16 558 0
558 17 -559 0
-558 -17 -559 0
558 -17 559 0
-558 17 559 0
559 227 -560 0
-559 -227 -560 0
559 -227 560 0
-559 227 560 0
560 239 -561 0
-560 -239 -561 0
560 -239 561 0
-560 239 561 0
561 431 -562 0
-561 -431 -562 0
561 -431 562 0
-561 431 562 0
562 443 -563 0
-562 -443 -563 0
562 -443 563 0
-562 443 563 0
-563 0
11 12 -564 0
-11 -12 -564 0
11 -12 564 0
-11 12 564 0
564 17 -565 0
-564 -17 -565 0
564 -17 565 0
-564 17 565 0
565 18 -566 0
-565 -18 -566 0
565 -18 566 0
-565 18 566 0
566 228 -567 0
-566 -228 -567 0
566 -228 567 0
-566 228 567 0
567 240 -568 0
-567 -240 -568 0
567 -240 568 0
-567 240 568 0
568 432 -569 0
-568 -432 -569 0
568 -432 569 0
-568 432 569 0
569 444 -570 0
-569 -444 -570 0
569 -444 570 0
-569 444 570 0
-570 0
12 13 -571 0
-12 -13 -571 0
12 -13 571 0
-12 13 571 0
571 18 -572 0
-571 -18 -572 0
571 -18 572 0
-571 18 572 0
572 19 -573 0
-572 -19 -573 0
572 -19 573 0
-572 19 573 0
573 223 -574 0
-573 -223 -574 0
573 -223 574 0
-573 223 574 0
574 229 -575 0
-574 -229 -575 0
574 -229 575 0
-574 229 575 0
575 241 -576 0
-575 -241 -576 0
575 -241 576 0
-575 241 576 0
576 433 -577 0
-576 -433 -577 0
576 -433 577 0
-576 433 577 0
-577 0
13 14 -578 0
-13 -14 -578 0
13 -14 578 0
-13 14 578 0
578 19 -579 0
-578 -19 -579 0
578 -19 579 0
-578 19 579 0
579 20 -580 0
-579 -20 -580 0
579 -20 580 0
-579 20 580 0
580 224 -581 0
-580 -224 -581 0
580 -224 581 0
-580 224 581 0
581 230 -582 0
-581 -230 -582 0
581 -230 582 0
-581 230 582 0
582 242 -583 0
-582 -242 -583 0
582 -242 583 0
-582 242 583 0
583 434 -584 0
-583 -434 -584 0
583 -434 584 0
-583 434 584 0
-584 0
14 15 -585 0
-14 -15 -585 0
14 -15 585 0
-14 15 585 0
585 20 -586 0
-585 -20 -586 0
585 -20 586 0
-585 20 586 0
586 21 -587 0
-586 -21 -587 0
586 -21 587 0
-586 21 587 0
587 225 -588 0
-587 -225 -588 0
587 -225 588 0
-587 225 588 0
588 231 -589 0
-588 -231 -589 0
588 -231 589 0
-588 231 589 0
589 243 -590 0
-589 -243 -590 0
589 -243 590 0
-589 243 590 0
590 435 -591 0
-590 -435 -591 0
590 -435 591 0
-590 435 591 0
-591 0
15 16 -592 0
-15 -16 -592 0
15 -16 592 0
-15 16 592 0
592 21 -593 0
-592 -21 -593 0
592 -21 593 0
-592 21 593 0
593 22 -594 0
-593 -22 -594 0
593 -22 594 0
-593 22 594 0
594 226 -595 0
-594 -226 -595 0
594 -226 595 0
-594 226 595 0
595 232 -596 0
-595 -232 -596 0
595 -232 596 0
-595 232 596 0
596 244 -597 0
-596 -244 -597 0
596 -244 597 0
-596 244 597 0
597 436 -598 0
-597 -436 -598 0
597 -436 598 0
-597 436 598 0
-598 0
16 17 -599 0
-16 -17 -599 0
16 -17 599 0
-16 17 599 0
599 22 -600 0
-599 -22 -600 0
599 -22 600 0
-599 22 600 0
600 23 -601 0
-600 -23 -601 0
600 -23 601 0
-600 23 601 0
601 227 -602 0
-601 -227 -602 0
601 -227 602 0
-601 227 602 0
602 233 -603 0
-602 -233 -603 0
602 -233 603 0
-602 233 603 0
603 245 -604 0
-603 -245 -604 0
603 -245 604 0
-603 245 604 0
604 437 -605 0
-604 -437 -605 0
604 -437 605 0
-604 437 605 0
-605 0
17 18 -606 0
-17 -18 -606 0
17 -18 606 0
-17 18 606 0
606 23 -607 0
-606 -23 -607 0
606 -23 607 0
-606 23 607 0
607 24 -608 0
-607 -24 -608 0
607 -24 608 0
-607 24 608 0
608 228 -609 0
-608 -228 -609 0
608 -228 609 0
-608 228 609 0
609 234 -610 0
-609 -234 -610 0
609 -234 610 0
-609 234 610 0
610 246 -611 0
-610 -246 -611 0
610 -246 611 0
-610 246 611 0
611 438 -612 0
-611 -438 -612 0
611 -438 612 0
-611 438 612 0
-612 0
18 19 -613 0
-18 -19 -613 0
18 -19 613 0
-18 19 613 0
613 24 -614 0
-613 -24 -614 0
613 -24 614 0
-613 24 614 0
614 25 -615 0
-614 -25 -615 0
614 -25 615 0
-614 25 615 0
615 229 -616 0
-615 -229 -616 0
615 -229 616 0
-615 229 616 0
616 235 -617 0
-616 -235 -617 0
616 -235 617 0
-616 235 617 0
617 247 -618 0
-617 -247 -618 0
617 -247 618 0
-617 247 618 0
618 439 -619 0
-618 -439 -619 0
618 -439 619 0
-618 439 619 0
-619 0
19 20 -620 0
-19 -20 -620 0
19 -20 620 0
-19 20 620 0
620 25 -621 0
-620 -25 -621 0
620 -25 621 0
-620 25 621 0
621 26 -622 0
-621 -26 -622 0
621 -26 622 0
-621 26 622 0
622 230 -623 0
-622 -230 -623 0
622 -230 623 0
-622 230 623 0
623 236 -624 0
-623 -236 -624 0
623 -236 624 0
-623 236 624 0
624 248 -625 0
-624 -248 -625 0
624 -248 625 0
-624 248 625 0
625 440 -626 0
-625 -440 -626 0
625 -440 626 0
-625 440 626 0
-626 0
20 21 -627 0
-20 -21 -627 0
20 -21 627 0
-20 21 627 0
627 26 -628 0
-627 -26 -628 0
627 -26 628 0
-627 26 628 0
628 27 -629 0
-628 -27 -629 0
628 -27 629 0
-628 27 629 0
629 231 -630 0
-629 -231 -630 0
629 -231 630 0
-629 231 630 0
630 237 -631 0
-630 -237 -631 0
630 -237 631 0
-630 237 631 0
631 249 -632 0
-631 -249 -632 0
631 -249 632 0
-631 249 632 0
632 441 -633 0
-632 -441 -633 0
632 -441 633 0
-632 441 633 0
-633 0
21 22 -634 0
-21 -22 -634 0
21 -22 634 0
-21 22 634 0
634 27 -635 0
-634 -27 -635 0
634 -27 635 0
-634 27 635 0
635 28 -636 0
-635 -28 -636 0
635 -28 636 0
-635 28 636 0
636 232 -637 0
-636 -232 -637 0
636 -232 637 0
-636 232 637 0
637 238 -638 0
-637 -238 -638 0
637 -238 638 0
-637 238 638 0
638 250 -639 0
-638 -250 -639 0
638 -250 639 0
-638 250 639 0
639 442 -640 0
-639 -442 -640 0
639 -442 640 0
-639 442 640 0
-640 0
22 23 -641 0
-22 -23 -641 0
22 -23 641 0
-22 23 641 0
641 28 -642 0
-641 -28 -642 0
641 -28 642 0
-641 28 642 0
642 29 -643 0
-642 -29 -643 0
642 -29 643 0
-642 29 643 0
643 233 -644 0
-643 -233 -644 0
643 -233 644 0
-643 233 644 0
644 239 -645 0
-644 -239 -645 0
644 -239 645 0
-644 239 645 0
645 251 -646 0
-645 -251 -646 0
645 -251 646 0
-645 251 646 0
646 443 -647 0
-646 -443 -647 0
646 -443 647 0
-646 443 647 0
-647 0
23 24 -648 0
-23 -24 -648 0
23 -24 648 0
-23 24 648 0
648 29 -649 0
-648 -29 -649 0
648 -29 649 0
-648 29 649 0
649 30 -650 0
-649 -30 -650 0
649 -30 650 0
-649 30 650 0
650 234 -651 0
-650 -234 -651 0
650 -234 651 0
-650 234 651 0
651 240 -652 0
-651 -240 -652 0
651 -240 652 0
-651 240 652 0
652 252 -653 0
-652 -252 -653 0
652 -252 653 0
-652 252 653 0
653 444 -654 0
-653 -444 -654 0
653 -444 654 0
-653 444 654 0
-654 0
24 25 -655 0
-24 -25 -655 0
24 -25 655 0
-24 25 655 0
655 30 -656 0
-655 -30 -656 0
655 -30 656 0
-655 30 656 0
656 31 -657 0
-656 -31 -657 0
656 -31 657 0
-656 31 657 0
657 223 -658 0
-657 -223 -658 0
657 -223 658 0
-657 223 658 0
658 235 -659 0
-658 -235 -659 0
658 -235 659 0
-658 235 659 0
659 241 -660 0
-659 -241 -660 0
659 -241 660 0
-659 241 660 0
660 253 -661 0
-660 -253 -661 0
660 -253 661 0
-660 253 661 0
-661 0
25 26 -662 0
-25 -26 -662 0
25 -26 662 0
-25 26 662 0
662 31 -663 0
-662 -31 -663 0
662 -31 663 0
-662 31 663 0
663 32 -664 0
-663 -32 -664 0
663 -32 664 0
-663 32 664 0
664 224 -665 0
-664 -224 -665 0
664 -224 665 0
-664 224 665 0
665 236 -666 0
-665 -236 -666 0
665 -236 666 0
-665 236 666 0
666 242 -667 0
-666 -242 -667 0
666 -242 667 0
-666 242 667 0
667 254 -668 0
-667 -254 -668 0
667 -254 668 0
-667 254 668 0
-668 0
26 27 -669 0
-26 -27 -669 0
26 -27 669 0
-26 27 669 0
669 32 -670 0
-669 -32 -670 0
669 -32 670 0
-669 32 670 0
670 33 -671 0
-670 -33 -671 0
670 -33 671 0
-670 33 671 0
671 225 -672 0
-671 -225 -672 0
671 -225 672 0
-671 225 672 0
672 237 -673 0
-672 -237 -673 0
672 -237 673 0
-672 237 673 0
673 243 -674 0
-673 -243 -674 0
673 -243 674 0
-673 243 674 0
674 255 -675 0
-674 -255 -675 0
674 -255 675 0
-674 255 675 0
-675 0
27 28 -676 0
-27 -28 -676 0
27 -28 676 0
-27 28 676 0
676 33 -677 0
-676 -33 -677 0
676 -33 677 0
-676 33 677 0
677 34 -678 0
-677 -34 -678 0
677 -34 678 0
-677 34 678 0
678 226 -679 0
-678 -226 -679 0
678 -226 679 0
-678 226 679 0
679 238 -680 0
-679 -238 -680 0
679 -238 680 0
-679 238 680 0
680 244 -681 0
-680 -244 -681 0
680 -244 681 0
-680 244 681 0
681 256 -682 0
-681 -256 -682 0
681 -256 682 0
-681 256 682 0
-682 0
28 29 -683 0
-28 -29 -683 0
28 -29 683 0
-28 29 683 0
683 34 -684 0
-683 -34 -684 0
683 -34 684 0
-683 34 684 0
684 35 -685 0
-684 -35 -685 0
684 -35 685 0
-684 35 685 0
685 227 -686 0
-685 -227 -686 0
685 -227 686 0
-685 227 686 0
686 239 -687 0
-686 -239 -687 0
686 -239 687 0
-686 239 687 0
687 245 -688 0
-687 -245 -688 0
687 -245 688 0
-687 245 688 0
688 257 -689 0
-688 -257 -689 0
688 -257 689 0
-688 257 689 0
-689 0
29 30 -690 0
-29 -30 -690 0
29 -30 690 0
-29 30 690 0
690 35 -691 0
-690 -35 -691 0
690 -35 691 0
-690 35 691 0
691 36 -692 0
-691 -36 -692 0
691 -36 692 0
-691 36 692 0
692 228 -693 0
-692 -228 -693 0
692 -228 693 0
-692 228 693 0
693 240 -694 0
-693 -240 -694 0
693 -240 694 0
-693 240 694 0
694 246 -695 0
-694 -246 -695 0
694 -246 695 0
-694 246 695 0
695 258 -696 0
-695 -258 -696 0
695 -258 696 0
-695 258 696 0
-696 0
30 31 -697 0
-30 -31 -697 0
30 -31 697 0
-30 31 697 0
697 36 -698 0
-697 -36 -698 0
697 -36 698 0
-697 36 698 0
698 37 -699 0
-698 -37 -699 0
698 -37 699 0
-698 37 699 0
699 229 -700 0
-699 -229 -700 0
699 -229 700 0
-699 229 700 0
700 241 -701 0
-700 -241 -701 0
700 -241 701 0
-700 241 701 0
701 247 -702 0
-701 -247 -702 0
701 -247 702 0
-701 247 702 0
702 259 -703 0
-702 -259 -703 0
702 -259 703 0
-702 259 703 0
-703 0
31 32 -704 0
-31 -32 -704 0
31 -32 704 0
-31 32 704 0
704 37 -705 0
-704 -37 -705 0
704 -37 705 0
-704 37 705 0
705 38 -706 0
-705 -38 -706 0
705 -38 706 0
-705 38 706 0
706 230 -707 0
-706 -230 -707 0
706 -230 707 0
-706 230 707 0
707 242 -708 0
-707 -242 -708 0
707 -242 708 0
-707 242 708 0
708 248 -709 0
-708 -248 -709 0
708 -248 709 0
-708 248 709 0
709 260 -710 0
-709 -260 -710 0
709 -260 710 0
-709 260 710 0
-710 0
32 33 -711 0
-32 -33 -711 0
32 -33 711 0
-32 33 711 0
711 38 -712 0
-711 -38 -712 0
711 -38 712 0
-711 38 712 0
712 39 -713 0
-712 -39 -713 0
712 -39 713 0
-712 39 713 0
713 231 -714 0
-713 -231 -714 0
713 -231 714 0
-713 231 714 0
714 243 -715 0
-714 -243 -715 0
714 -243 715 0
-714 243 715 0
715 249 -716 0
-715 -249 -716 0
715 -249 716 0
-715 249 716 0
716 261 -717 0
-716 -261 -717 0
716 -261 717 0
-716 261 717 0
-717 0
33 34 -718 0
-33 -34 -718 0
33 -34 718 0
-33 34 718 0
718 39 -719 0
-718 -39 -719 0
718 -39 719 0
-718 39 719 0
719 40 -720 0
-719 -40 -720 0
719 -40 720 0
-719 40 720 0
720 232 -721 0
-720 -232 -721 0
720 -232 721 0
-720 232 721 0
721 244 -722 0
-721 -244 -722 0
721 -244 722 0
-721 244 722 0
722 250 -723 0
-722 -250 -723 0
722 -250 723 0
-722 250 723 0
723 262 -724 0
-723 -262 -724 0
723 -262 724 0
-723 262 724 0
-724 0
34 35 -725 0
-34 -35 -725 0
34 -35 725 0
-34 35 725 0
725 40 -726 0
-725 -40 -726 0
725 -40 726 0
-725 40 726 0
726 41 -727 0
-726 -41 -727 0
726 -41 727 0
-726 41 727 0
727 233 -728 0
-727 -233 -728 0
727 -233 728 0
-727 233 728 0
728 245 -729 0
-728 -245 -729 0
728 -245 729 0
-728 245 729 0
729 251 -730 0
-729 -251 -730 0
729 -251 730 0
-729 251 730 0
730 263 -731 0
-730 -263 -731 0
730 -263 731 0
-730 263 731 0
-731 0
35 36 -732 0
-35 -36 -732 0
35 -36 732 0
-35 36 732 0
732 41 -733 0
-732 -41 -733 0
732 -41 733 0
-732 41 733 0
733 42 -734 0
-733 -42 -734 0
733 -42 734 0
-733 42 734 0
734 234 -735 0
-734 -234 -735 0
734 -234 735 0
-734 234 735 0
735 246 -736 0
-735 -246 -736 0
735 -246 736 0
-735 246 736 0
736 252 -737 0
-736 -252 -737 0
736 -252 737 0
-736 252 737 0
737 264 -738 0
-737 -264 -738 0
737 -264 738 0
-737 264 738 0
-738 0
36 37 -739 0
-36 -37 -739 0
36 -37 739 0
-36 37 739 0
739 42 -740 0
-739 -42 -740 0
739 -42 740 0
-739 42 740 0
740 43 -741 0
-740 -43 -741 0
740 -43 741 0
-740 43 741 0
741 235 -742 0
-741 -235 -742 0
741 -235 742 0
-741 235 742 0
742 247 -743 0
-742 -247 -743 0
742 -247 743 0
-742 247 743 0
743 253 -744 0
-743 -253 -744 0
743 -253 744 0
-743 253 744 0
744 265 -745 0
-744 -265 -745 0
744 -265 745 0
-744 265 745 0
-745 0
37 38 -746 0
-37 -38 -746 0
37 -38 746 0
-37 38 746 0
746 43 -747 0
-746 -43 -747 0
746 -43 747 0
-746 43 747 0
747 44 -748 0
-747 -44 -748 0
747 -44 748 0
-747 44 748 0
748 236 -749 0
-748 -236 -749 0
748 -236 749 0
-748 236 749 0
749 248 -750 0
-749 -248 -750 0
749 -248 750 0
-749 248 750 0
750 254 -751 0
-750 -254 -751 0
750 -254 751 0
-750 254 751 0
751 266 -752 0
-751 -266 -752 0
751 -266 752 0
-751 266 752 0
-752 0
38 39 -753 0
-38 -39 -753 0
38 -39 753 0
-38 39 753 0
753 44 -754 0
-753 -44 -754 0
753 -44 754 0
-753 44 754 0
754 45 -755 0
-754 -45 -755 0
754 -45 755 0
-754 45 755 0
755 237 -756 0
-755 -237 -756 0
755 -237 756 0
-755 237 756 0
756 249 -757 0
-756 -249 -757 0
756 -249 757 0
-756 249 757 0
757 255 -758 0
-757 -255 -758 0
757 -255 758 0
-757 255 758 0
758 267 -759 0
-758 -267 -759 0
758 -267 759 0
-758 267 759 0
-759 0
39 40 -760 0
-39 -40 -760 0
39 -40 760 0
-39 40 760 0
760 45 -761 0
-760 -45 -761 0
760 -45 761 0
-760 45 761 0
761 46 -762 0
-761 -46 -762 0
761 -46 762 0
-761 46 762 0
762 238 -763 0
-762 -238 -763 0
762 -238 763 0
-762 238 763 0
763 250 -764 0
-763 -250 -764 0
763 -250 764 0
-763 250 764 0
764 256 -765 0
-764 -256 -765 0
764 -256 765 0
-764 256 765 0
765 268 -766 0
-765 -268 -766 0
765 -268 766 0
-765 268 766 0
-766 0
40 41 -767 0
-40 -41 -767 0
40 -41 767 0
-40 41 767 0
767 46 -768 0
-767 -46 -768 0
767 -46 768 0
-767 46 768 0
768 47 -769 0
-768 -47 -769 0
768 -47 769 0
-768 47 769 0
769 239 -770 0
-769 -239 -770 0
769 -239 770 0
-769 239 770 0
770 251 -771 0
-770 -251 -771 0
770 -251 771 0
-770 251 771 0
771 257 -772 0
-771 -257 -772 0
771 -257 772 0
-771 257 772 0
772 269 -773 0
-772 -269 -773 0
772 -269 773 0
-772 269 773 0
-773 0
41 42 -774 0
-41 -42 -774 0
41 -42 774 0
-41 42 774 0
774 47 -775 0
-774 -47 -775 0
774 -47 775 0
-774 47 775 0
775 48 -776 0
-775 -48 -776 0
775 -48 776 0
-775 48 776 0
776 240 -777 0
-776 -240 -777 0
776 -240 777 0
-776 240 777 0
777 252 -778 0
-777 -252 -778 0
777 -252 778 0
-777 252 778 0
778 258 -779 0
-778 -258 -779 0
778 -258 779 0
-778 258 779 0
779 270 -780 0
-779 -270 -780 0
779 -270 780 0
-779 270 780 0
-780 0
42 43 -781 0
-42 -43 -781 0
42 -43 781 0
-42 43 781 0
781 48 -782 0
-781 -48 -782 0
781 -48 782 0
-781 48 782 0
782 49 -783 0
-782 -49 -783 0
782 -49 783 0
-782 49 783 0
783 241 -784 0
-783 -241 -784 0
783 -241 784 0
-783 241 784 0
784 253 -785 0
-784 -253 -785 0
784 -253 785 0
-784 253 785 0
785 259 -786 0
-785 -259 -786 0
785 -259 786 0
-785 259 786 0
786 271 -787 0
-786 -271 -787 0
786 -271 787 0
-786 271 787 0
-787 0
43 44 -788 0
-43 -44 -788 0
43 -44 788 0
-43 44 788 0
788 49 -789 0
-788 -49 -789 0
788 -49 789 0
-788 49 789 0
789 50 -790 0
-789 -50 -790 0
789 -50 790 0
-789 50 790 0
790 242 -791 0
-790 -242 -791 0
790 -242 791 0
-790 242 791 0
791 254 -792 0
-791 -254 -792 0
791 -254 792 0
-791 254 792 0
792 260 -793 0
-792 -260 -793 0
792 -260 793 0
-792 260 793 0
793 272 -794 0
-793 -272 -794 0
793 -272 794 0
-793 272 794 0
-794 0
44 45 -795 0
-44 -45 -795 0
44 -45 795 0
-44 45 795 0
795 50 -796 0
-795 -50 -796 0
795 -50 796 0
-795 50 796 0
796 51 -797 0
-796 -51 -797 0
796 -51 797 0
-796 51 797 0
797 243 -798 0
-797 -243 -798 0
797 -243 798 0
-797 243 798 0
798 255 -799 0
-798 -255 -799 0
798 -255 799 0
-798 255 799 0
799 261 -800 0
-799 -261 -800 0
799 -261 800 0
-799 261 800 0
800 273 -801 0
-800 -273 -801 0
800 -273 801 0
-800 273 801 0
-801 0
45 46 -802 0
-45 -46 -802 0
45 -46 802 0
-45 46 802 0
802 51 -803 0
-802 -51 -803 0
802 -51 803 0
-802 51 803 0
803 52 -804 0
-803 -52 -804 0
803 -52 804 0
-803 52 804 0
804 244 -805 0
-804 -244 -805 0
804 -244 805 0
-804 244 805 0
805 256 -806 0
-805 -256 -806 0
805 -256 806 0
-805 256 806 0
806 262 -807 0
-806 -262 -807 0
806 -262 807 0
-806 262 807 0
807 274 -808 0
-807 -274 -808 0
807 -274 808 0
-807 274 808 0
-808 0
46 47 -809 0
-46 -47 -809 0
46 -47 809 0
-46 47 809 0
809 52 -810 0
-809 -52 -810 0
809 -52 810 0
-809 52 810 0
810 53 -811 0
-810 -53 -811 0
810 -53 811 0
-810 53 811 0
811 245 -812 0
-811 -245 -812 0
811 -245 812 0
-811 245 812 0
812 257 -813 0
-812 -257 -813 0
812 -257 813 0
-812 257 813 0
813 263 -814 0
-813 -263 -814 0
813 -263 814 0
-813 263 814 0
814 275 -815 0
-814 -275 -815 0
814 -275 815 0
-814 275 815 0
-815 0
47 48 -816 0
-47 -48 -816 0
47 -48 816 0
-47 48 816 0
816 53 -817 0
-816 -53 -817 0
816 -53 817 0
-816 53 817 0
817 54 -818 0
-817 -54 -818 0
817 -54 818 0
-817 54 818 0
818 246 -819 0
-818 -246 -819 0
818 -246 819 0
-818 246 819 0
819 258 -820 0
-819 -258 -820 0
819 -258 820 0
-819 258 820 0
820 264 -821 0
-820 -264 -821 0
820 -264 821 0
-820 264 821 0
821 276 -822 0
-821 -276 -822 0
821 -276 822 0
-821 276 822 0
-822 0
48 49 -823 0
-48 -49 -823 0
48 -49 823 0
-48 49 823 0
823 54 -824 0
-823 -54 -824 0
823 -54 824 0
-823 54 824 0
824 55 -825 0
-824 -55 -825 0
824 -55 825 0
-824 55 825 0
825 247 -826 0
-825 -247 -826 0
825 -247 826 0
-825 247 826 0
826 259 -827 0
-826 -259 -827 0
826 -259 827 0
-826 259 827 0
827 265 -828 0
-827 -265 -828 0
827 -265 828 0
-827 265 828 0
828 277 -829 0
-828 -277 -829 0
828 -277 829 0
-828 277 829 0
-829 0
49 50 -830 0
-49 -50 -830 0
49 -50 830 0
-49 50 830 0
830 55 -831 0
-830 -55 -831 0
830 -55 831 0
-830 55 831 0
831 56 -832 0
-831 -56 -832 0
831 -56 832 0
-831 56 832 0
832 248 -833 0
-832 -248 -833 0
832 -248 833 0
-832 248 833 0
833 260 -834 0
-833 -260 -834 0
833 -260 834 0
-833 260 834 0
834 266 -835 0
-834 -266 -835 0
834 -266 835 0
-834 266 835 0
835 278 -836 0
-835 -278 -836 0
835 -278 836 0
-835 278 836 0
-836 0
50 51 -837 0
-50 -51 -837 0
50 -51 837 0
-50 51 837 0
837 56 -838 0
-837 -56 -838 0
837 -56 838 0
-837 56 838 0
838 57 -839 0
-838 -57 -839 0
838 -57 839 0
-838 57 839 0
839 249 -840 0
-839 -249 -840 0
839 -249 840 0
-839 249 840 0
840 261 -841 0
-840 -261 -841 0
840 -261 841 0
-840 261 841 0
841 267 -842 0
-841 -267 -842 0
841 -267 842 0
-841 267 842 0
842 279 -843 0
-842 -279 -843 0
842 -279 843 0
-842 279 843 0
-843 0
51 52 -844 0
-51 -52 -844 0
51 -52 844 0
-51 52 844 0
844 57 -845 0
-844 -57 -845 0
844 -57 845 0
-844 57 845 0
845 58 -846 0
-845 -58 -846 0
845 -58 846 0
-845 58 846 0
846 250 -847 0
-846 -250 -847 0
846 -250 847 0
-846 250 847 0
847 262 -848 0
-847 -262 -848 0
847 -262 848 0
-847 262 848 0
848 268 -849 0
-848 -268 -849 0
848 -268 849 0
-848 268 849 0
849 280 -850 0
-849 -280 -850 0
849 -280 850 0
-849 280 850 0
-850 0
52 53 -851 0
-52 -53 -851 0
52 -53 851 0
-52 53 851 0
851 58 -852 0
-851 -58 -852 0
851 -58 852 0
-851 58 852 0
852 59 -853 0
-852 -59 -853 0
852 -59 853 0
-852 59 853 0
853 251 -854 0
-853 -251 -854 0
853 -251 854 0
-853 251 854 0
854 263 -855 0
-854 -263 -855 0
854 -263 855 0
-854 263 855 0
855 269 -856 0
-855 -269 -856 0
855 -269 856 0
-855 269 856 0
856 281 -857 0
-856 -281 -857 0
856 -281 857 0
-856 281 857 0
-857 0
53 54 -858 0
-53 -54 -858 0
53 -54 858 0
-53 54 858 0
858 59 -859 0
-858 -59 -859 0
858 -59 859 0
-858 59 859 0
859 60 -860 0
-859 -60 -860 0
859 -60 860 0
-859 60 860 0
860 252 -861 0
-860 -252 -861 0
860 -252 861 0
-860 252 861 0
861 264 -862 0
-861 -264 -862 0
861 -264 862 0
-861 264 862 0
862 270 -863 0
-862 -270 -863 0
862 -270 863 0
-862 270 863 0
863 282 -864 0
-863 -282 -864 0
863 -282 864 0
-863 282 864 0
-864 0
54 55 -865 0
-54 -55 -865 0
54 -55 865 0
-54 55 865 0
865 60 -866 0
-865 -60 -866 0
865 -60 866 0
-865 60 866 0
866 61 -867 0
-866 -61 -867 0
866 -61 867 0
-866 61 867 0
867 253 -868 0
-867 -253 -868 0
867 -253 868 0
-867 253 868 0
868 265 -869 0
-868 -265 -869 0
868 -265 869 0
-868 265 869 0
869 271 -870 0
-869 -271 -870 0
869 -271 870 0
-869 271 870 0
870 283 -871 0
-870 -283 -871 0
870 -283 871 0
-870 283 871 0
-871 0
55 56 -872 0
-55 -56 -872 0
55 -56 872 0
-55 56 872 0
872 61 -873 0
-872 -61 -873 0
872 -61 873 0
-872 61 873 0
873 62 -874 0
-873 -62 -874 0
873 -62 874 0
-873 62 874 0
874 254 -875 0
-874 -254 -875 0
874 -254 875 0
-874 254 875 0
875 266 -876 0
-875 -266 -876 0
875 -266 876 0
-875 266 876 0
876 272 -877 0
-876 -272 -877 0
876 -272 877 0
-876 272 877 0
877 284 -878 0
-877 -284 -878 0
877 -284 878 0
-877 284 878 0
-878 0
56 57 -879 0
-56 -57 -879 0
56 -57 879 0
-56 57 879 0
879 62 -880 0
-879 -62 -880 0
879 -62 880 0
-879 62 880 0
880 63 -881 0
-880 -63 -881 0
880 -63 881 0
-880 63 881 0
881 255 -882 0
-881 -255 -882 0
881 -255 882 0
-881 255 882 0
882 267 -883 0
-882 -267 -883 0
882 -267 883 0
-882 267 883 0
883 273 -884 0
-883 -273 -884 0
883 -273 884 0
-883 273 884 0
884 285 -885 0
-884 -285 -885 0
884 -285 885 0
-884 285 885 0
-885 0
57 58 -886 0
-57 -58 -886 0
57 -58 886 0
-57 58 886 0
886 63 -887 0
-886 -63 -887 0
886 -63 887 0
-886 63 887 0
887 64 -888 0
-887 -64 -888 0
887 -64 888 0
-887 64 888 0
888 256 -889 0
-888 -256 -889 0
888 -256 889 0
-888 256 889 0
889 268 -890 0
-889 -268 -890 0
889 -268 890 0
-889 268 890 0
890 274 -891 0
-890 -274 -891 0
890 -274 891 0
-890 274 891 0
891 286 -892 0
-891 -286 -892 0
891 -286 892 0
-891 286 892 0
-892 0
58 59 -893 0
-58 -59 -893 0
58 -59 893 0
-58 59 893 0
893 64 -894 0
-893 -64 -894 0
893 -64 894 0
-893 64 894 0
894 65 -895 0
-894 -65 -895 0
894 -65 895 0
-894 65 895 0
895 257 -896 0
-895 -257 -896 0
895 -257 896 0
-895 257 896 0
896 269 -897 0
-896 -269 -897 0
896 -269 897 0
-896 269 897 0
897 275 -898 0
-897 -275 -898 0
897 -275 898 0
-897 275 898 0
898 287 -899 0
-898 -287 -899 0
898 -287 899 0
-898 287 899 0
-899 0
59 60 -900 0
-59 -60 -900 0
59 -60 900 0
-59 60 900 0
900 65 -901 0
-900 -65 -901 0
900 -65 901 0
-900 65 901 0
901 66 -902 0
-901 -66 -902 0
901 -66 902 0
-901 66 902 0
902 258 -903 0
-902 -258 -903 0
902 -258 903 0
-902 258 903 0
903 270 -904 0
-903 -270 -904 0
903 -270 904 0
-903 270 904 0
904 276 -905 0
-904 -276 -905 0
904 -276 905 0
-904 276 905 0
905 288 -906 0
-905 -288 -906 0
905 -288 906 0
-905 288 906 0
-906 0
60 61 -907 0
-60 -61 -907 0
60 -61 907 0
-60 61 907 0
907 66 -908 0
-907 -66 -908 0
907 -66 908 0
-907 66 908 0
908 67 -909 0
-908 -67 -909 0
908 -67 909 0
-908 67 909 0
909 259 -910 0
-909 -259 -910 0
909 -259 910 0
-909 259 910 0
910 271 -911 0
-910 -271 -911 0
910 -271 911 0
-910 271 911 0
911 277 -912 0
-911 -277 -912 0
911 -277 912 0
-911 277 912 0
912 289 -913 0
-912 -289 -913 0
912 -289 913 0
-912 289 913 0
-913 0
61 62 -914 0
-61 -62 -914 0
61 -62 914 0
-61 62 914 0
914 67 -915 0
-914 -67 -915 0
914 -67 915 0
-914 67 915 0
915 68 -916 0
-915 -68 -916 0
915 -68 916 0
-915 68 916 0
916 260 -917 0
-916 -260 -917 0
916 -260 917 0
-916 260 917 0
917 272 -918 0
-917 -272 -918 0
917 -272 918 0
-917 272 918 0
918 278 -919 0
-918 -278 -919 0
918 -278 919 0
-918 278 919 0
919 290 -920 0
-919 -290 -920 0
919 -290 920 0
-919 290 920 0
-920 0
62 63 -921 0
-62 -63 -921 0
62 -63 921 0
-62 63 921 0
921 68 -922 0
-921 -68 -922 0
921 -68 922 0
-921 68 922 0
922 69 -923 0
-922 -69 -923 0
922 -69 923 0
-922 69 923 0
923 261 -924 0
-923 -261 -924 0
923 -261 924 0
-923 261 924 0
924 273 -925 0
-924 -273 -925 0
924 -273 925 0
-924 273 925 0
925 279 -926 0
-925 -279 -926 0
925 -279 926 0
-925 279 926 0
926 291 -927 0
-926 -291 -927 0
926 -291 927 0
-926 291 927 0
-927 0
63 64 -928 0
-63 -64 -928 0
63 -64 928 0
-63 64 928 0
928 69 -929 0
-928 -69 -929 0
928 -69 929 0
-928 69 929 0
929 70 -930 0
-929 -70 -930 0
929 -70 930 0
-929 70 930 0
930 262 -931 0
-930 -262 -931 0
930 -262 931 0
-930 262 931 0
931 274 -932 0
-931 -274 -932 0
931 -274 932 0
-931 274 932 0
932 280 -933 0
-932 -280 -933 0
932 -280 933 0
-932 280 933 0
933 292 -934 0
-933 -292 -934 0
933 -292 934 0
-933 292 934 0
-934 0
64 65 -935 0
-64 -65 -935 0
64 -65 935 0
-64 65 935 0
935 70 -936 0
-935 -70 -936 0
935 -70 936 0
-935 70 936 0
936 71 -937 0
-936 -71 -937 0
936 -71 937 0
-936 71 937 0
937 263 -938 0
-937 -263 -938 0
937 -263 938 0
-937 263 938 0
938 275 -939 0
-938 -275 -939 0
938 -275 939 0
-938 275 939 0
939 281 -940 0
-939 -281 -940 0
939 -281 940 0
-939 281 940 0
940 293 -941 0
-940 -293 -941 0
940 -293 941 0
-940 293 941 0
-941 0
65 66 -942 0
-65 -66 -942 0
65 -66 942 0
-65 66 942 0
942 71 -943 0
-942 -71 -943 0
942 -71 943 0
-942 71 943 0
943 72 -944 0
-943 -72 -944 0
943 -72 944 0
-943 72 944 0
944 264 -945 0
-944 -264 -945 0
944 -264 945 0
-944 264 945 0
945 276 -946 0
-945 -276 -946 0
945 -276 946 0
-945 276 946 0
946 282 -947 0
-946 -282 -947 0
946 -282 947 0
-946 282 947 0
947 294 -948 0
-947 -294 -948 0
947 -294 948 0
-947 294 948 0
-948 0
66 67 -949 0
-66 -67 -949 0
66 -67 949 0
-66 67 949 0
949 72 -950 0
-949 -72 -950 0
949 -72 950 0
-949 72 950 0
950 73 -951 0
-950 -73 -951 0
950 -73 951 0
-950 73 951 0
951 265 -952 0
-951 -265 -952 0
951 -265 952 0
-951 265 952 0
952 277 -953 0
-952 -277 -953 0
952 -277 953 0
-952 277 953 0
953 283 -954 0
-953 -283 -954 0
953 -283 954 0
-953 283 954 0
954 295 -955 0
-954 -295 -955 0
954 -295 955 0
-954 295 955 0
-955 0
67 68 -956 0
-67 -68 -956 0
67 -68 956 0
-67 68 956 0
956 73 -957 0
-956 -73 -957 0
956 -73 957 0
-956 73 957 0
957 74 -958 0
-957 -74 -958 0
957 -74 958 0
-957 74 958 0
958 266 -959 0
-958 -266 -959 0
958 -266 959 0
-958 266 959 0
959 278 -960 0
-959 -278 -960 0
959 -278 960 0
-959 278 960 0
960 284 -961 0
-960 -284 -961 0
960 -284 961 0
-960 284 961 0
961 296 -962 0
-961 -296 -962 0
961 -296 962 0
-961 296 962 0
-962 0
68 69 -963 0
-68 -69 -963 0
68 -69 963 0
-68 69 963 0
963 74 -964 0
-963 -74 -964 0
963 -74 964 0
-963 74 964 0
964 75 -965 0
-964 -75 -965 0
964 -75 965 0
-964 75 965 0
965 267 -966 0
-965 -267 -966 0
965 -267 966 0
-965 267 966 0
966 279 -967 0
-966 -279 -967 0
966 -279 967 0
-966 279 967 0
967 285 -968 0
-967 -285 -968 0
967 -285 968 0
-967 285 968 0
968 297 -969 0
-968 -297 -969 0
968 -297 969 0
-968 297 969 0
-969 0
69 70 -970 0
-69 -70 -970 0
69 -70 970 0
-69 70 970 0
970 75 -971 0
-970 -75 -971 0
970 -75 971 0
-970 75 971 0
971 76 -972 0
-971 -76 -972 0
971 -76 972 0
-971 76 972 0
972 268 -973 0
-972 -268 -973 0
972 -268 973 0
-972 268 973 0
973 280 -974 0
-973 -280 -974 0
973 -280 974 0
-973 280 974 0
974 286 -975 0
-974 -286 -975 0
974 -286 975 0
-974 286 975 0
975 298 -976 0
-975 -298 -976 0
975 -298 976 0
-975 298 976 0
-976 0
70 71 -977 0
-70 -71 -977 0
70 -71 977 0
-70 71 977 0
977 76 -978 0
-977 -76 -978 0
977 -76 978 0
-977 76 978 0
978 77 -979 0
-978 -77 -979 0
978 -77 979 0
-978 77 979 0
979 269 -980 0
-979 -269 -980 0
979 -269 980 0
-979 269 980 0
980 281 -981 0
-980 -281 -981 0
980 -281 981 0
-980 281 981 0
981 287 -982 0
-981 -287 -982 0
981 -287 982 0
-981 287 982 0
982 299 -983 0
-982 -299 -983 0
982 -299 983 0
-982 299 983 0
-983 0
71 72 -984 0
-71 -72 -984 0
71 -72 984 0
-71 72 984 0
984 77 -985 0
-984 -77 -985 0
984 -77 985 0
-984 77 985 0
985 78 -986 0
-985 -78 -986 0
985 -78 986 0
-985 78 986 0
986 270 -987 0
-986 -270 -987 0
986 -270 987 0
-986 270 987 0
987 282 -988 0
-987 -282 -988 0
987 -282 988 0
-987 282 988 0
988 288 -989 0
-988 -288 -989 0
988 -288 989 0
-988 288 989 0
989 300 -990 0
-989 -300 -990 0
989 -300 990 0
-989 300 990 0
-990 0
72 73 -991 0
-72 -73 -991 0
72 -73 991 0
-72 73 991 0
991 78 -992 0
-991 -78 -992 0
991 -78 992 0
-991 78 992 0
992 79 -993 0
-992 -79 -993 0
992 -79 993 0
-992 79 993 0
993 271 -994 0
-993 -271 -994 0
993 -271 994 0
-993 271 994 0
994 283 -995 0
-994 -283 -995 0
994 -283 995 0
-994 283 995 0
995 289 -996 0
-995 -289 -996 0
995 -289 996 0
-995 289 996 0
996 301 -997 0
-996 -301 -997 0
996 -301 997 0
-996 301 997 0
-997 0
73 74 -998 0
-73 -74 -998 0
73 -74 998 0
-73 74 998 0
998 79 -999 0
-998 -79 -999 0
998 -79 999 0
-998 79 999 0
999 80 -1000 0
-999 -80 -1000 0
999 -80 1000 0
-999 80 1000 0
1000 272 -1001 0
-1000 -272 -1001 0
1000 -272 1001 0
-1000 272 1001 0
1001 284 -1002 0
-1001 -284 -1002 0
1001 -284 1002 0
-1001 284 1002 0
1002 290 -1003 0
-1002 -290 -1003 0
1002 -290 1003 0
-1002 290 1003 0
1003 302 -1004 0
-1003 -302 -1004 0
1003 -302 1004 0
-1003 302 1004 0
-1004 0
74 75 -1005 0
-74 -75 -1005 0
74 -75 1005 0
-74 75 1005 0
1005 80 -1006 0
-1005 -80 -1006 0
1005 -80 1006 0
-1005 80 1006 0
1006 81 -1007 0
-1006 -81 -1007 0
1006 -81 1007 0
-1006 81 1007 0
1007 273 -1008 0
-1007 -273 -1008 0
1007 -273 1008 0
-1007 273 1008 0
1008 285 -1009 0
-1008 -285 -1009 0
1008 -285 1009 0
-1008 285 1009 0
1009 291 -1010 0
-1009 -291 -1010 0
1009 -291 1010 0
-1009 291 1010 0
1010 303 -1011 0
-1010 -303 -1011 0
1010 -303 1011 0
-1010 303 1011 0
-1011 0
75 76 -1012 0
-75 -76 -1012 0
75 -76 1012 0
-75 76 1012 0
1012 81 -1013 0
-1012 -81 -1013 0
1012 -81 1013 0
-1012 81 1013 0
1013 82 -1014 0
-1013 -82 -1014 0
1013 -82 1014 0
-1013 82 1014 0
1014 274 -1015 0
-1014 -274 -1015 0
1014 -274 1015 0
-1014 274 1015 0
1015 286 -1016 0
-1015 -286 -1016 0
1015 -286 1016 0
-1015 286 1016 0
1016 292 -1017 0
-1016 -292 -1017 0
1016 -292 1017 0
-1016 292 1017 0
1017 304 -1018 0
-1017 -304 -1018 0
1017 -304 1018 0
-1017 304 1018 0
-1018 0
76 77 -1019 0
-76 -77 -1019 0
76 -77 1019 0
-76 77 1019 0
1019 82 -1020 0
-1019 -82 -1020 0
1019 -82 1020 0
-1019 82 1020 0
1020 83 -1021 0
-1020 -83 -1021 0
1020 -83 1021 0
-1020 83 1021 0
1021 275 -1022 0
-1021 -275 -1022 0
1021 -275 1022 0
-1021 275 1022 0
1022 287 -1023 0
-1022 -287 -1023 0
1022 -287 1023 0
-1022 287 1023 0
1023 293 -1024 0
-1023 -293 -1024 0
1023 -293 1024 0
-1023 293 1024 0
1024 305 -1025 0
-1024 -305 -1025 0
1024 -305 1025 0
-1024 305 1025 0
-1025 0
77 78 -1026 0
-77 -78 -1026 0
77 -78 1026 0
-77 78 1026 0
1026 83 -1027 0
-1026 -83 -1027 0
1026 -83 1027 0
-1026 83 1027 0
1027 84 -1028 0
-1027 -84 -1028 0
1027 -84 1028 0
-1027 84 1028 0
1028 276 -1029 0
-1028 -276 -1029 0
1028 -276 1029 0
-1028 276 1029 0
1029 288 -1030 0
-1029 -288 -1030 0
1029 -288 1030 0
-1029 288 1030 0
1030 294 -1031 0
-1030 -294 -1031 0
1030 -294 1031 0
-1030 294 1031 0
1031 306 -1032 0
-1031 -306 -1032 0
1031 -306 1032 0
-1031 306 1032 0
-1032 0
78 79 -1033 0
-78 -79 -1033 0
78 -79 1033 0
-78 79 1033 0
1033 84 -1034 0
-1033 -84 -1034 0
1033 -84 1034 0
-1033 84 1034 0
1034 85 -1035 0
-1034 -85 -1035 0
1034 -85 1035 0
-1034 85 1035 0
1035 277 -1036 0
-1035 -277 -1036 0
1035 -277 1036 0
-1035 277 1036 0
1036 289 -1037 0
-1036 -289 -1037 0
1036 -289 1037 0
-1036 289 1037 0
1037 295 -1038 0
-1037 -295 -1038 0
1037 -295 1038 0
-1037 295 1038 0
1038 307 -1039 0
-1038 -307 -1039 0
1038 -307 1039 0
-1038 307 1039 0
-1039 0
79 80 -1040 0
-79 -80 -1040 0
79 -80 1040 0
-79 80 1040 0
1040 85 -1041 0
-1040 -85 -1041 0
1040 -85 1041 0
-1040 85 1041 0
1041 86 -1042 0
-1041 -86 -1042 0
1041 -86 1042 0
-1041 86 1042 0
1042 278 -1043 0
-1042 -278 -1043 0
1042 -278 1043 0
-1042 278 1043 0
1043 290 -1044 0
-1043 -290 -1044 0
1043 -290 1044 0
-1043 290 1044 0
1044 296 -1045 0
-1044 -296 -1045 0
1044 -296 1045 0
-1044 296 1045 0
1045 308 -1046 0
-1045 -308 -1046 0
1045 -308 1046 0
-1045 308 1046 0
-1046 0
80 81 -1047 0
-80 -81 -1047 0
80 -81 1047 0
-80 81 1047 0
1047 86 -1048 0
-1047 -86 -1048 0
1047 -86 1048 0
-1047 86 1048 0
1048 87 -1049 0
-1048 -87 -1049 0
1048 -87 1049 0
-1048 87 1049 0
1049 279 -1050 0
-1049 -279 -1050 0
1049 -279 1050 0
-1049 279 1050 0
1050 291 -1051 0
-1050 -291 -1051 0
1050 -291 1051 0
-1050 291 1051 0
1051 297 -1052 0
-1051 -297 -1052 0
1051 -297 1052 0
-1051 297 1052 0
1052 309 -1053 0
-1052 -309 -1053 0
1052 -309 1053 0
-1052 309 1053 0
-1053 0
81 82 -1054 0
-81 -82 -1054 0
81 -82 1054 0
-81 82 1054 0
1054 87 -1055 0
-1054 -87 -1055 0
1054 -87 1055 0
-1054 87 1055 0
1055 88 -1056 0
-1055 -88 -1056 0
1055 -88 1056 0
-1055 88 1056 0
1056 280 -1057 0
-1056 -280 -1057 0
1056 -280 1057 0
-1056 280 1057 0
1057 292 -1058 0
-1057 -292 -1058 0
1057 -292 1058 0
-1057 292 1058 0
1058 298 -1059 0
-1058 -298 -1059 0
1058 -298 1059 0
-1058 298 1059 0
1059 310 -1060 0
-1059 -310 -1060 0
1059 -310 1060 0
-1059 310 1060 0
-1060 0
82 83 -1061 0
-82 -83 -1061 0
82 -83 1061 0
-82 83 1061 0
1061 88 -1062 0
-1061 -88 -1062 0
1061 -88 1062 0
-1061 88 1062 0
1062 89 -1063 0
-1062 -89 -1063 0
1062 -89 1063 0
-1062 89 1063 0
1063 281 -1064 0
-1063 -281 -1064 0
1063 -281 1064 0
-1063 281 1064 0
1064 293 -1065 0
-1064 -293 -1065 0
1064 -293 1065 0
-1064 293 1065 0
1065 299 -1066 0
-1065 -299 -1066 0
1065 -299 1066 0
-1065 299 1066 0
1066 311 -1067 0
-1066 -311 -1067 0
1066 -311 1067 0
-1066 311 1067 0
-1067 0
83 84 -1068 0
-83 -84 -1068 0
83 -84 1068 0
-83 84 1068 0
1068 89 -1069 0
-1068 -89 -1069 0
1068 -89 1069 0
-1068 89 1069 0
1069 90 -1070 0
-1069 -90 -1070 0
1069 -90 1070 0
-1069 90 1070 0
1070 282 -1071 0
-1070 -282 -1071 0
1070 -282 1071 0
-1070 282 1071 0
1071 294 -1072 0
-1071 -294 -1072 0
1071 -294 1072 0
-1071 294 1072 0
1072 300 -1073 0
-1072 -300 -1073 0
1072 -300 1073 0
-1072 300 1073 0
1073 312 -1074 0
-1073 -312 -1074 0
1073 -312 1074 0
-1073 312 1074 0
-1074 0
84 85 -1075 0
-84 -85 -1075 0
84 -85 1075 0
-84 85 1075 0
1075 90 -1076 0
-1075 -90 -1076 0
1075 -90 1076 0
-1075 90 1076 0
1076 91 -1077 0
-1076 -91 -1077 0
1076 -91 1077 0
-1076 91 1077 0
1077 283 -1078 0
-1077 -283 -1078 0
1077 -283 1078 0
-1077 283 1078 0
1078 295 -1079 0
-1078 -295 -1079 0
1078 -295 1079 0
-1078 295 1079 0
1079 301 -1080 0
-1079 -301 -1080 0
1079 -301 1080 0
-1079 301 1080 0
1080 313 -1081 0
-1080 -313 -1081 0
1080 -313 1081 0
-1080 313 1081 0
-1081 0
85 86 -1082 0
-85 -86 -1082 0
85 -86 1082 0
-85 86 1082 0
1082 91 -1083 0
-1082 -91 -1083 0
1082 -91 1083 0
-1082 91 1083 0
1083 92 -1084 0
-1083 -92 -1084 0
1083 -92 1084 0
-1083 92 1084 0
1084 284 -1085 0
-1084 -284 -1085 0
1084 -284 1085 0
-1084 284 1085 0
1085 296 -1086 0
-1085 -296 -1086 0
1085 -296 1086 0
-1085 296 1086 0
1086 302 -1087 0
-1086 -302 -1087 0
1086 -302 1087 0
-1086 302 1087 0
1087 314 -1088 0
-1087 -314 -1088 0
1087 -314 1088 0
-1087 314 1088 0
-1088 0
86 87 -1089 0
-86 -87 -1089 0
86 -87 1089 0
-86 87 1089 0
1089 92 -1090 0
-1089 -92 -1090 0
1089 -92 1090 0
-1089 92 1090 0
1090 93 -1091 0
-1090 -93 -1091 0
1090 -93 1091 0
-1090 93 1091 0
1091 285 -1092 0
-1091 -285 -1092 0
1091 -285 1092 0
-1091 285 1092 0
1092 297 -1093 0
-1092 -297 -1093 0
1092 -297 1093 0
-1092 297 1093 0
1093 303 -1094 0
-1093 -303 -1094 0
1093 -303 1094 0
-1093 303 1094 0
1094 315 -1095 0
-1094 -315 -1095 0
1094 -315 1095 0
-1094 315 1095 0
-1095 0
87 88 -1096 0
-87 -88 -1096 0
87 -88 1096 0
-87 88 1096 0
1096 93 -1097 0
-1096 -93 -1097 0
1096 -93 1097 0
-1096 93 1097 0
1097 94 -1098 0
-1097 -94 -1098 0
1097 -94 1098 0
-1097 94 1098 0
1098 286 -1099 0
-1098 -286 -1099 0
1098 -286 1099 0
-1098 286 1099 0
1099 298 -1100 0
-1099 -298 -1100 0
1099 -298 1100 0
-1099 298 1100 0
1100 304 -1101 0
-1100 -304 -1101 0
1100 -304 1101 0
-1100 304 1101 0
1101 316 -1102 0
-1101 -316 -1102 0
1101 -316 1102 0
-1101 316 1102 0
-1102 0
88 89 -1103 0
-88 -89 -1103 0
88 -89 1103 0
-88 89 1103 0
1103 94 -1104 0
-1103 -94 -1104 0
1103 -94 1104 0
-1103 94 1104 0
1104 95 -1105 0
-1104 -95 -1105 0
1104 -95 1105 0
-1104 95 1105 0
1105 287 -1106 0
-1105 -287 -1106 0
1105 -287 1106 0
-1105 287 1106 0
1106 299 -1107 0
-1106 -299 -1107 0
1106 -299 1107 0
-1106 299 1107 0
1107 305 -1108 0
-1107 -305 -1108 0
1107 -305 1108 0
-1107 305 1108 0
1108 317 -1109 0
-1108 -317 -1109 0
1108 -317 1109 0
-1108 317 1109 0
-1109 0
89 90 -1110 0
-89 -90 -1110 0
89 -90 1110 0
-89 90 1110 0
1110 95 -1111 0
-1110 -95 -1111 0
1110 -95 1111 0
-1110 95 1111 0
1111 96 -1112 0
-1111 -96 -1112 0
1111 -96 1112 0
-1111 96 1112 0
1112 288 -1113 0
-1112 -288 -1113 0
1112 -288 1113 0
-1112 288 1113 0
1113 300 -1114 0
-1113 -300 -1114 0
1113 -300 1114 0
-1113 300 1114 0
1114 306 -1115 0
-1114 -306 -1115 0
1114 -306 1115 0
-1114 306 1115 0
1115 318 -1116 0
-1115 -318 -1116 0
1115 -318 1116 0
-1115 318 1116 0
-1116 0
90 91 -1117 0
-90 -91 -1117 0
90 -91 1117 0
-90 91 1117 0
1117 96 -1118 0
-1117 -96 -1118 0
1117 -96 1118 0
-1117 96 1118 0
1118 97 -1119 0
-1118 -97 -1119 0
1118 -97 1119 0
-1118 97 1119 0
1119 289 -1120 0
-1119 -289 -1120 0
1119 -289 1120 0
-1119 289 1120 0
1120 301 -1121 0
-1120 -301 -1121 0
1120 -301 1121 0
-1120 301 1121 0
1121 307 -1122 0
-1121 -307 -1122 0
1121 -307 1122 0
-1121 307 1122 0
1122 319 -1123 0
-1122 -319 -1123 0
1122 -319 1123 0
-1122 319 1123 0
-1123 0
91 92 -1124 0
-91 -92 -1124 0
91 -92 1124 0
-91 92 1124 0
1124 97 -1125 0
-1124 -97 -1125 0
1124 -97 1125 0
-1124 97 1125 0
1125 98 -1126 0
-1125 -98 -1126 0
1125 -98 1126 0
-1125 98 1126 0
1126 290 -1127 0
-1126 -290 -1127 0
1126 -290 1127 0
-1126 290 1127 0
1127 302 -1128 0
-1127 -302 -1128 0
1127 -302 1128 0
-1127 302 1128 0
1128 308 -1129 0
-1128 -308 -1129 0
1128 -308 1129 0
-1128 308 1129 0
1129 320 -1130 0
-1129 -320 -1130 0
1129 -320 1130 0
-1129 320 1130 0
-1130 0
92 93 -1131 0
-92 -93 -1131 0
92 -93 1131 0
-92 93 1131 0
1131 98 -1132 0
-1131 -98 -1132 0
1131 -98 1132 0
-1131 98 1132 0
1132 99 -1133 0
-1132 -99 -1133 0
1132 -99 1133 0
-1132 99 1133 0
1133 291 -1134 0
-1133 -291 -1134 0
1133 -291 1134 0
-1133 291 1134 0
1134 303 -1135 0
-1134 -303 -1135 0
1134 -303 1135 0
-1134 303 1135 0
1135 309 -1136 0
-1135 -309 -1136 0
1135 -309 1136 0
-1135 309 1136 0
1136 321 -1137 0
-1136 -321 -1137 0
1136 -321 1137 0
-1136 321 1137 0
-1137 0
93 94 -1138 0
-93 -94 -1138 0
93 -94 1138 0
-93 94 1138 0
1138 99 -1139 0
-1138 -99 -1139 0
1138 -99 1139 0
-1138 99 1139 0
1139 100 -1140 0
-1139 -100 -1140 0
1139 -100 1140 0
-1139 100 1140 0
1140 292 -1141 0
-1140 -292 -1141 0
1140 -292 1141 0
-1140 292 1141 0
1141 304 -1142 0
-1141 -304 -1142 0
1141 -304 1142 0
-1141 304 1142 0
1142 310 -1143 0
-1142 -310 -1143 0
1142 -310 1143 0
-1142 310 1143 0
1143 322 -1144 0
-1143 -322 -1144 0
1143 -322 1144 0
-1143 322 1144 0
-1144 0
94 95 -1145 0
-94 -95 -1145 0
94 -95 1145 0
-94 95 1145 0
1145 100 -1146 0
-1145 -100 -1146 0
1145 -100 1146 0
-1145 100 1146 0
1146 101 -1147 0
-1146 -101 -1147 0
1146 -101 1147 0
-1146 101 1147 0
1147 293 -1148 0
-1147 -293 -1148 0
1147 -293 1148 0
-1147 293 1148 0
1148 305 -1149 0
-1148 -305 -1149 0
1148 -305 1149 0
-1148 305 1149 0
1149 311 -1150 0
-1149 -311 -1150 0
1149 -311 1150 0
-1149 311 1150 0
1150 323 -1151 0
-1150 -323 -1151 0
1150 -323 1151 0
-1150 323 1151 0
-1151 0
95 96 -1152 0
-95 -96 -1152 0
95 -96 1152 0
-95 96 1152 0
1152 101 -1153 0
-1152 -101 -1153 0
1152 -101 1153 0
-1152 101 1153 0
1153 102 -1154 0
-1153 -102 -1154 0
1153 -102 1154 0
-1153 102 1154 0
1154 294 -1155 0
-1154 -294 -1155 0
1154 -294 1155 0
-1154 294 1155 0
1155 306 -1156 0
-1155 -306 -1156 0
1155 -306 1156 0
-1155 306 1156 0
1156 312 -1157 0
-1156 -312 -1157 0
1156 -312 1157 0
-1156 312 1157 0
1157 324 -1158 0
-1157 -324 -1158 0
1157 -324 1158 0
-1157 324 1158 0
-1158 0
96 97 -1159 0
-96 -97 -1159 0
96 -97 1159 0
-96 97 1159 0
1159 102 -1160 0
-1159 -102 -1160 0
1159 -102 1160 0
-1159 102 1160 0
1160 103 -1161 0
-1160 -103 -1161 0
1160 -103 1161 0
-1160 103 1161 0
1161 295 -1162 0
-1161 -295 -1162 0
1161 -295 1162 0
-1161 295 1162 0
1162 307 -1163 0
-1162 -307 -1163 0
1162 -307 1163 0
-1162 307 1163 0
1163 313 -1164 0
-1163 -313 -1164 0
1163 -313 1164 0
-1163 313 1164 0
1164 325 -1165 0
-1164 -325 -1165 0
1164 -325 1165 0
-1164 325 1165 0
-1165 0
97 98 -1166 0
-97 -98 -1166 0
97 -98 1166 0
-97 98 1166 0
1166 103 -1167 0
-1166 -103 -1167 0
1166 -103 1167 0
-1166 103 1167 0
1167 104 -1168 0
-1167 -104 -1168 0
1167 -104 1168 0
-1167 104 1168 0
1168 296 -1169 0
-1168 -296 -1169 0
1168 -296 1169 0
-1168 296 1169 0
1169 308 -1170 0
-1169 -308 -1170 0
1169 -308 1170 0
-1169 308 1170 0
1170 314 -1171 0
-1170 -314 -1171 0
1170 -314 1171 0
-1170 314 1171 0
1171 326 -1172 0
-1171 -326 -1172 0
1171 -326 1172 0
-1171 326 1172 0
-1172 0
98 99 -1173 0
-98 -99 -1173 0
98 -99 1173 0
-98 99 1173 0
1173 104 -1174 0
-1173 -104 -1174 0
1173 -104 1174 0
-1173 104 1174 0
1174 105 -1175 0
-1174 -105 -1175 0
1174 -105 1175 0
-1174 105 1175 0
1175 297 -1176 0
-1175 -297 -1176 0
1175 -297 1176 0
-1175 297 1176 0
1176 309 -1177 0
-1176 -309 -1177 0
1176 -309 1177 0
-1176 309 1177 0
1177 315 -1178 0
-1177 -315 -1178 0
1177 -315 1178 0
-1177 315 1178 0
1178 327 -1179 0
-1178 -327 -1179 0
1178 -327 1179 0
-1178 327 1179 0
-1179 0
99 100 -1180 0
-99 -100 -1180 0
99 -100 1180 0
-99 100 1180 0
1180 105 -1181 0
-1180 -105 -1181 0
1180 -105 1181 0
-1180 105 1181 0
1181 106 -1182 0
-1181 -106 -1182 0
1181 -106 1182 0
-1181 106 1182 0
1182 298 -1183 0
-1182 -298 -1183 0
1182 -298 1183 0
-1182 298 1183 0
1183 310 -1184 0
-1183 -310 -1184 0
1183 -310 1184 0
-1183 310 1184 0
1184 316 -1185 0
-1184 -316 -1185 0
1184 -316 1185 0
-1184 316 1185 0
1185 328 -1186 0
-1185 -328 -1186 0
1185 -328 1186 0
-1185 328 1186 0
-1186 0
100 101 -1187 0
-100 -101 -1187 0
100 -101 1187 0
-100 101 1187 0
1187 106 -1188 0
-1187 -106 -1188 0
1187 -106 1188 0
-1187 106 1188 0
1188 107 -1189 0
-1188 -107 -1189 0
1188 -107 1189 0
-1188 107 1189 0
1189 299 -1190 0
-1189 -299 -1190 0
1189 -299 1190 0
-1189 299 1190 0
1190 311 -1191 0
-1190 -311 -1191 0
1190 -311 1191 0
-1190 311 1191 0
1191 317 -1192 0
-1191 -317 -1192 0
1191 -317 1192 0
-1191 317 1192 0
1192 329 -1193 0
-1192 -329 -1193 0
1192 -329 1193 0
-1192 329 1193 0
-1193 0
101 102 -1194 0
-101 -102 -1194 0
101 -102 1194 0
-101 102 1194 0
1194 107 -1195 0
-1194 -107 -1195 0
1194 -107 1195 0
-1194 107 1195 0
1195 108 -1196 0
-1195 -108 -1196 0
1195 -108 1196 0
-1195 108 1196 0
1196 300 -1197 0
-1196 -300 -1197 0
1196 -300 1197 0
-1196 300 1197 0
1197 312 -1198 0
-1197 -312 -1198 0
1197 -312 1198 0
-1197 312 1198 0
1198 318 -1199 0
-1198 -318 -1199 0
1198 -318 1199 0
-1198 318 1199 0
1199 330 -1200 0
-1199 -330 -1200 0
1199 -330 1200 0
-1199 330 1200 0
-1200 0
102 103 -1201 0
-102 -103 -1201 0
102 -103 1201 0
-102 103 1201 0
1201 108 -1202 0
-1201 -108 -1202 0
1201 -108 1202 0
-1201 108 1202 0
1202 109 -1203 0
-1202 -109 -1203 0
1202 -109 1203 0
-1202 109 1203 0
1203 301 -1204 0
-1203 -301 -1204 0
1203 -301 1204 0
-1203 301 1204 0
1204 313 -1205 0
-1204 -313 -1205 0
1204 -313 1205 0
-1204 313 1205 0
1205 319 -1206 0
-1205 -319 -1206 0
1205 -319 1206 0
-1205 319 1206 0
1206 331 -1207 0
-1206 -331 -1207 0
1206 -331 1207 0
-1206 331 1207 0
-1207 0
103 104 -1208 0
-103 -104 -1208 0
103 -104 1208 0
-103 104 1208 0
1208 109 -1209 0
-1208 -109 -1209 0
1208 -109 1209 0
-1208 109 1209 0
1209 110 -1210 0
-1209 -110 -1210 0
1209 -110 1210 0
-1209 110 1210 0
1210 302 -1211 0
-1210 -302 -1211 0
1210 -302 1211 0
-1210 302 1211 0
1211 314 -1212 0
-1211 -314 -1212 0
1211 -314 1212 0
-1211 314 1212 0
1212 320 -1213 0
-1212 -320 -1213 0
1212 -320 1213 0
-1212 320 1213 0
1213 332 -1214 0
-1213 -332 -1214 0
1213 -332 1214 0
-1213 332 1214 0
-1214 0
104 105 -1215 0
-104 -105 -1215 0
104 -105 1215 0
-104 105 1215 0
1215 110 -1216 0
-1215 -110 -1216 0
1215 -110 1216 0
-1215 110 1216 0
1216 111 -1217 0
-1216 -111 -1217 0
1216 -111 1217 0
-1216 111 1217 0
1217 303 -1218 0
-1217 -303 -1218 0
1217 -303 1218 0
-1217 303 1218 0
1218 315 -1219 0
-1218 -315 -1219 0
1218 -315 1219 0
-1218 315 1219 0
1219 321 -1220 0
-1219 -321 -1220 0
1219 -321 1220 0
-1219 321 1220 0
1220 333 -1221 0
-1220 -333 -1221 0
1220 -333 1221 0
-1220 333 1221 0
-1221 0
105 106 -1222 0
-105 -106 -1222 0
105 -106 1222 0
-105 106 1222 0
1222 111 -1223 0
-1222 -111 -1223 0
1222 -111 1223 0
-1222 111 1223 0
1223 112 -1224 0
-1223 -112 -1224 0
1223 -112 1224 0
-1223 112 1224 0
1224 304 -1225 0
-1224 -304 -1225 0
1224 -304 1225 0
-1224 304 1225 0
1225 316 -1226 0
-1225 -316 -1226 0
1225 -316 1226 0
-1225 316 1226 0
1226 322 -1227 0
-1226 -322 -1227 0
1226 -322 1227 0
-1226 322 1227 0
1227 334 -1228 0
-1227 -334 -1228 0
1227 -334 1228 0
-1227 334 1228 0
-1228 0
106 107 -1229 0
-106 -107 -1229 0
106 -107 1229 0
-106 107 1229 0
1229 112 -1230 0
-1229 -112 -1230 0
1229 -112 1230 0
-1229 112 1230 0
1230 113 -1231 0
-1230 -113 -1231 0
1230 -113 1231 0
-1230 113 1231 0
1231 305 -1232 0
-1231 -305 -1232 0
1231 -305 1232 0
-1231 305 1232 0
1232 317 -1233 0
-1232 -317 -1233 0
1232 -317 1233 0
-1232 317 1233 0
1233 323 -1234 0
-1233 -323 -1234 0
1233 -323 1234 0
-1233 323 1234 0
1234 335 -1235 0
-1234 -335 -1235 0
1234 -335 1235 0
-1234 335 1235 0
-1235 0
107 108 -1236 0
-107 -108 -1236 0
107 -108 1236 0
-107 108 1236 0
1236 113 -1237 0
-1236 -113 -1237 0
1236 -113 1237 0
-1236 113 1237 0
1237 114 -1238 0
-1237 -114 -1238 0
1237 -114 1238 0
-1237 114 1238 0
1238 306 -1239 0
-1238 -306 -1239 0
1238 -306 1239 0
-1238 306 1239 0
1239 318 -1240 0
-1239 -318 -1240 0
1239 -318 1240 0
-1239 318 1240 0
1240 324 -1241 0
-1240 -324 -1241 0
1240 -324 1241 0
-1240 324 1241 0
1241 336 -1242 0
-1241 -336 -1242 0
1241 -336 1242 0
-1241 336 1242 0
-1242 0
108 109 -1243 0
-108 -109 -1243 0
108 -109 1243 0
-108 109 1243 0
1243 114 -1244 0
-1243 -114 -1244 0
1243 -114 1244 0
-1243 114 1244 0
1244 115 -1245 0
-1244 -115 -1245 0
1244 -115 1245 0
-1244 115 1245 0
1245 307 -1246 0
-1245 -307 -1246 0
1245 -307 1246 0
-1245 307 1246 0
1246 319 -1247 0
-1246 -319 -1247 0
1246 -319 1247 0
-1246 319 1247 0
1247 325 -1248 0
-1247 -325 -1248 0
1247 -325 1248 0
-1247 325 1248 0
1248 337 -1249 0
-1248 -337 -1249 0
1248 -337 1249 0
-1248 337 1249 0
-1249 0
109 110 -1250 0
-109 -110 -1250 0
109 -110 1250 0
-109 110 1250 0
1250 115 -1251 0
-1250 -115 -1251 0
1250 -115 1251 0
-1250 115 1251 0
1251 116 -1252 0
-1251 -116 -1252 0
1251 -116 1252 0
-1251 116 1252 0
1252 308 -1253 0
-1252 -308 -1253 0
1252 -308 1253 0
-1252 308 1253 0
1253 320 -1254 0
-1253 -320 -1254 0
1253 -320 1254 0
-1253 320 1254 0
1254 326 -1255 0
-1254 -326 -1255 0
1254 -326 1255 0
-1254 326 1255 0
1255 338 -1256 0
-1255 -338 -1256 0
1255 -338 1256 0
-1255 338 1256 0
-1256 0
110 111 -1257 0
-110 -111 -1257 0
110 -111 1257 0
-110 111 1257 0
1257 116 -1258 0
-1257 -116 -1258 0
1257 -116 1258 0
-1257 116 1258 0
1258 117 -1259 0
-1258 -117 -1259 0
1258 -117 1259 0
-1258 117 1259 0
1259 309 -1260 0
-1259 -309 -1260 0
1259 -309 1260 0
-1259 309 1260 0
1260 321 -1261 0
-1260 -321 -1261 0
1260 -321 1261 0
-1260 321 1261 0
1261 327 -1262 0
-1261 -327 -1262 0
1261 -327 1262 0
-1261 327 1262 0
1262 339 -1263 0
-1262 -339 -1263 0
1262 -339 1263 0
-1262 339 1263 0
-1263 0
111 112 -1264 0
-111 -112 -1264 0
111 -112 1264 0
-111 112 1264 0
1264 117 -1265 0
-1264 -117 -1265 0
1264 -117 1265 0
-1264 117 1265 0
1265 118 -1266 0
-1265 -118 -1266 0
1265 -118 1266 0
-1265 118 1266 0
1266 310 -1267 0
-1266 -310 -1267 0
1266 -310 1267 0
-1266 310 1267 0
1267 322 -1268 0
-1267 -322 -1268 0
1267 -322 1268 0
-1267 322 1268 0
1268 328 -1269 0
-1268 -328 -1269 0
1268 -328 1269 0
-1268 328 1269 0
1269 340 -1270 0
-1269 -340 -1270 0
1269 -340 1270 0
-1269 340 1270 0
-1270 0
112 113 -1271 0
-112 -113 -1271 0
112 -113 1271 0
-112 113 1271 0
1271 118 -1272 0
-1271 -118 -1272 0
1271 -118 1272 0
-1271 118 1272 0
1272 119 -1273 0
-1272 -119 -1273 0
1272 -119 1273 0
-1272 119 1273 0
1273 311 -1274 0
-1273 -311 -1274 0
1273 -311 1274 0
-1273 311 1274 0
1274 323 -1275 0
-1274 -323 -1275 0
1274 -323 1275 0
-1274 323 1275 0
1275 329 -1276 0
-1275 -329 -1276 0
1275 -329 1276 0
-1275 329 1276 0
1276 341 -1277 0
-1276 -341 -1277 0
1276 -341 1277 0
-1276 341 1277 0
-1277 0
113 114 -1278 0
-113 -114 -1278 0
113 -114 1278 0
-113 114 1278 0
1278 119 -1279 0
-1278 -119 -1279 0
1278 -119 1279 0
-1278 119 1279 0
1279 120 -1280 0
-1279 -120 -1280 0
1279 -120 1280 0
-1279 120 1280 0
1280 312 -1281 0
-1280 -312 -1281 0
1280 -312 1281 0
-1280 312 1281 0
1281 324 -1282 0
-1281 -324 -1282 0
1281 -324 1282 0
-1281 324 1282 0
1282 330 -1283 0
-1282 -330 -1283 0
1282 -330 1283 0
-1282 330 1283 0
1283 342 -1284 0
-1283 -342 -1284 0
1283 -342 1284 0
-1283 342 1284 0
-1284 0
114 115 -1285 0
-114 -115 -1285 0
114 -115 1285 0
-114 115 1285 0
1285 120 -1286 0
-1285 -120 -1286 0
1285 -120 1286 0
-1285 120 1286 0
1286 121 -1287 0
-1286 -121 -1287 0
1286 -121 1287 0
-1286 121 1287 0
1287 313 -1288 0
-1287 -313 -1288 0
1287 -313 1288 0
-1287 313 1288 0
1288 325 -1289 0
-1288 -325 -1289 0
1288 -325 1289 0
-1288 325 1289 0
1289 331 -1290 0
-1289 -331 -1290 0
1289 -331 1290 0
-1289 331 1290 0
1290 343 -1291 0
-1290 -343 -1291 0
1290 -343 1291 0
-1290 343 1291 0
-1291 0
115 116 -1292 0
-115 -116 -1292 0
115 -116 1292 0
-115 116 1292 0
1292 121 -1293 0
-1292 -121 -1293 0
1292 -121 1293 0
-1292 121 1293 0
1293 122 -1294 0
-1293 -122 -1294 0
1293 -122 1294 0
-1293 122 1294 0
1294 314 -1295 0
-1294 -314 -1295 0
1294 -314 1295 0
-1294 314 1295 0
1295 326 -1296 0
-1295 -326 -1296 0
1295 -326 1296 0
-1295 326 1296 0
1296 332 -1297 0
-1296 -332 -1297 0
1296 -332 1297 0
-1296 332 1297 0
1297 344 -1298 0
-1297 -344 -1298 0
1297 -344 1298 0
-1297 344 1298 0
-1298 0
116 117 -1299 0
-116 -117 -1299 0
116 -117 1299 0
-116 117 1299 0
1299 122 -1300 0
-1299 -122 -1300 0
1299 -122 1300 0
-1299 122 1300 0
1300 123 -1301 0
-1300 -123 -1301 0
1300 -123 1301 0
-1300 123 1301 0
1301 315 -1302 0
-1301 -315 -1302 0
1301 -315 1302 0
-1301 315 1302 0
1302 327 -1303 0
-1302 -327 -1303 0
1302 -327 1303 0
-1302 327 1303 0
1303 333 -1304 0
-1303 -333 -1304 0
1303 -333 1304 0
-1303 333 1304 0
1304 345 -1305 0
-1304 -345 -1305 0
1304 -345 1305 0
-1304 345 1305 0
-1305 0
117 118 -1306 0
-117 -118 -1306 0
117 -118 1306 0
-117 118 1306 0
1306 123 -1307 0
-1306 -123 -1307 0
1306 -123 1307 0
-1306 123 1307 0
1307 124 -1308 0
-1307 -124 -1308 0
1307 -124 1308 0
-1307 124 1308 0
1308 316 -1309 0
-1308 -316 -1309 0
1308 -316 1309 0
-1308 316 1309 0
1309 328 -1310 0
-1309 -328 -1310 0
1309 -328 1310 0
-1309 328 1310 0
1310 334 -1311 0
-1310 -334 -1311 0
1310 -334 1311 0
-1310 334 1311 0
1311 346 -1312 0
-1311 -346 -1312 0
1311 -346 1312 0
-1311 346 1312 0
-1312 0
118 119 -1313 0
-118 -119 -1313 0
118 -119 1313 0
-118 119 1313 0
1313 124 -1314 0
-1313 -124 -1314 0
1313 -124 1314 0
-1313 124 1314 0
1314 125 -1315 0
-1314 -125 -1315 0
1314 -125 1315 0
-1314 125 1315 0
1315 317 -1316 0
-1315 -317 -1316 0
1315 -317 1316 0
-1315 317 1316 0
1316 329 -1317 0
-1316 -329 -1317 0
1316 -329 1317 0
-1316 329 1317 0
1317 335 -1318 0
-1317 -335 -1318 0
1317 -335 1318 0
-1317 335 1318 0
1318 347 -1319 0
-1318 -347 -1319 0
1318 -347 1319 0
-1318 347 1319 0
-1319 0
119 120 -1320 0
-119 -120 -1320 0
119 -120 1320 0
-119 120 1320 0
1320 125 -1321 0
-1320 -125 -1321 0
1320 -125 1321 0
-1320 125 1321 0
1321 126 -1322 0
-1321 -126 -1322 0
1321 -126 1322 0
-1321 126 1322 0
1322 318 -1323 0
-1322 -318 -1323 0
1322 -318 1323 0
-1322 318 1323 0
1323 330 -1324 0
-1323 -330 -1324 0
1323 -330 1324 0
-1323 330 1324 0
1324 336 -1325 0
-1324 -336 -1325 0
1324 -336 1325 0
-1324 336 1325 0
1325 348 -1326 0
-1325 -348 -1326 0
1325 -348 1326 0
-1325 348 1326 0
-1326 0
120 121 -1327 0
-120 -121 -1327 0
120 -121 1327 0
-120 121 1327 0
1327 126 -1328 0
-1327 -126 -1328 0
1327 -126 1328 0
-1327 126 1328 0
1328 127 -1329 0
-1328 -127 -1329 0
1328 -127 1329 0
-1328 127 1329 0
1329 319 -1330 0
-1329 -319 -1330 0
1329 -319 1330 0
-1329 319 1330 0
1330 331 -1331 0
-1330 -331 -1331 0
1330 -331 1331 0
-1330 331 1331 0
1331 337 -1332 0
-1331 -337 -1332 0
1331 -337 1332 0
-1331 337 1332 0
1332 349 -1333 0
-1332 -349 -1333 0
1332 -349 1333 0
-1332 349 1333 0
-1333 0
121 122 -1334 0
-121 -122 -1334 0
121 -122 1334 0
-121 122 1334 0
1334 127 -1335 0
-1334 -127 -1335 0
1334 -127 1335 0
-1334 127 1335 0
1335 128 -1336 0
-1335 -128 -1336 0
1335 -128 1336 0
-1335 128 1336 0
1336 320 -1337 0
-1336 -320 -1337 0
1336 -320 1337 0
-1336 320 1337 0
1337 332 -1338 0
-1337 -332 -1338 0
1337 -332 1338 0
-1337 332 1338 0
1338 338 -1339 0
-1338 -338 -1339 0
1338 -338 1339 0
-1338 338 1339 0
1339 350 -1340 0
-1339 -350 -1340 0
1339 -350 1340 0
-1339 350 1340 0
-1340 0
122 123 -1341 0
-122 -123 -1341 0
122 -123 1341 0
-122 123 1341 0
1341 128 -1342 0
-1341 -128 -1342 0
1341 -128 1342 0
-1341 128 1342 0
1342 129 -1343 0
-1342 -129 -1343 0
1342 -129 1343 0
-1342 129 1343 0
1343 321 -1344 0
-1343 -321 -1344 0
1343 -321 1344 0
-1343 321 1344 0
1344 333 -1345 0
-1344 -333 -1345 0
1344 -333 1345 0
-1344 333 1345 0
1345 339 -1346 0
-1345 -339 -1346 0
1345 -339 1346 0
-1345 339 1346 0
1346 351 -1347 0
-1346 -351 -1347 0
1346 -351 1347 0
-1346 351 1347 0
-1347 0
123 124 -1348 0
-123 -124 -1348 0
123 -124 1348 0
-123 124 1348 0
1348 129 -1349 0
-1348 -129 -1349 0
1348 -129 1349 0
-1348 129 1349 0
1349 130 -1350 0
-1349 -130 -1350 0
1349 -130 1350 0
-1349 130 1350 0
1350 322 -1351 0
-1350 -322 -1351 0
1350 -322 1351 0
-1350 322 1351 0
1351 334 -1352 0
-1351 -334 -1352 0
1351 -334 1352 0
-1351 334 1352 0
1352 340 -1353 0
-1352 -340 -1353 0
1352 -340 1353 0
-1352 340 1353 0
1353 352 -1354 0
-1353 -352 -1354 0
1353 -352 1354 0
-1353 352 1354 0
-1354 0
124 125 -1355 0
-124 -125 -1355 0
124 -125 1355 0
-124 125 1355 0
1355 130 -1356 0
-1355 -130 -1356 0
1355 -130 1356 0
-1355 130 1356 0
1356 131 -1357 0
-1356 -131 -1357 0
1356 -131 1357 0
-1356 131 1357 0
1357 323 -1358 0
-1357 -323 -1358 0
1357 -323 1358 0
-1357 323 1358 0
1358 335 -1359 0
-1358 -335 -1359 0
1358 -335 1359 0
-1358 335 1359 0
1359 341 -1360 0
-1359 -341 -1360 0
1359 -341 1360 0
-1359 341 1360 0
1360 353 -1361 0
-1360 -353 -1361 0
1360 -353 1361 0
-1360 353 1361 0
-1361 0
125 126 -1362 0
-125 -126 -1362 0
125 -126 1362 0
-125 126 1362 0
1362 131 -1363 0
-1362 -131 -1363 0
1362 -131 1363 0
-1362 131 1363 0
1363 132 -1364 0
-1363 -132 -1364 0
1363 -132 1364 0
-1363 132 1364 0
1364 324 -1365 0
-1364 -324 -1365 0
1364 -324 1365 0
-1364 324 1365 0
1365 336 -1366 0
-1365 -336 -1366 0
1365 -336 1366 0
-1365 336 1366 0
1366 342 -1367 0
-1366 -342 -1367 0
1366 -342 1367 0
-1366 342 1367 0
1367 354 -1368 0
-1367 -354 -1368 0
1367 -354 1368 0
-1367 354 1368 0
-1368 0
126 127 -1369 0
-126 -127 -1369 0
126 -127 1369 0
-126 127 1369 0
1369 132 -1370 0
-1369 -132 -1370 0
1369 -132 1370 0
-1369 132 1370 0
1370 133 -1371 0
-1370 -133 -1371 0
1370 -133 1371 0
-1370 133 1371 0
1371 325 -1372 0
-1371 -325 -1372 0
1371 -325 1372 0
-1371 325 1372 0
1372 337 -1373 0
-1372 -337 -1373 0
1372 -337 1373 0
-1372 337 1373 0
1373 343 -1374 0
-1373 -343 -1374 0
1373 -343 1374 0
-1373 343 1374 0
1374 355 -1375 0
-1374 -355 -1375 0
1374 -355 1375 0
-1374 355 1375 0
-1375 0
127 128 -1376 0
-127 -128 -1376 0
127 -128 1376 0
-127 128 1376 0
1376 133 -1377 0
-1376 -133 -1377 0
1376 -133 1377 0
-1376 133 1377 0
1377 134 -1378 0
-1377 -134 -1378 0
1377 -134 1378 0
-1377 134 1378 0
1378 326 -1379 0
-1378 -326 -1379 0
1378 -326 1379 0
-1378 326 1379 0
1379 338 -1380 0
-1379 -338 -1380 0
1379 -338 1380 0
-1379 338 1380 0
1380 344 -1381 0
-1380 -344 -1381 0
1380 -344 1381 0
-1380 344 1381 0
1381 356 -1382 0
-1381 -356 -1382 0
1381 -356 1382 0
-1381 356 1382 0
-1382 0
128 129 -1383 0
-128 -129 -1383 0
128 -129 1383 0
-128 129 1383 0
1383 134 -1384 0
-1383 -134 -1384 0
1383 -134 1384 0
-1383 134 1384 0
1384 135 -1385 0
-1384 -135 -1385 0
1384 -135 1385 0
-1384 135 1385 0
1385 327 -1386 0
-1385 -327 -1386 0
1385 -327 1386 0
-1385 327 1386 0
1386 339 -1387 0
-1386 -339 -1387 0
1386 -339 1387 0
-1386 339 1387 0
1387 345 -1388 0
-1387 -345 -1388 0
1387 -345 1388 0
-1387 345 1388 0
1388 357 -1389 0
-1388 -357 -1389 0
1388 -357 1389 0
-1388 357 1389 0
-1389 0
129 130 -1390 0
-129 -130 -1390 0
129 -130 1390 0
-129 130 1390 0
1390 135 -1391 0
-1390 -135 -1391 0
1390 -135 1391 0
-1390 135 1391 0
1391 136 -1392 0
-1391 -136 -1392 0
1391 -136 1392 0
-1391 136 1392 0
1392 328 -1393 0
-1392 -328 -1393 0
1392 -328 1393 0
-1392 328 1393 0
1393 340 -1394 0
-1393 -340 -1394 0
1393 -340 1394 0
-1393 340 1394 0
1394 346 -1395 0
-1394 -346 -1395 0
1394 -346 1395 0
-1394 346 1395 0
1395 358 -1396 0
-1395 -358 -1396 0
1395 -358 1396 0
-1395 358 1396 0
-1396 0
130 131 -1397 0
-130 -131 -1397 0
130 -131 1397 0
-130 131 1397 0
1397 136 -1398 0
-1397 -136 -1398 0
1397 -136 1398 0
-1397 136 1398 0
1398 137 -1399 0
-1398 -137 -1399 0
1398 -137 1399 0
-1398 137 1399 0
1399 329 -1400 0
-1399 -329 -1400 0
1399 -329 1400 0
-1399 329 1400 0
1400 341 -1401 0
-1400 -341 -1401 0
1400 -341 1401 0
-1400 341 1401 0
1401 347 -1402 0
-1401 -347 -1402 0
1401 -347 1402 0
-1401 347 1402 0
1402 359 -1403 0
-1402 -359 -1403 0
1402 -359 1403 0
-1402 359 1403 0
-1403 0
131 132 -1404 0
-131 -132 -1404 0
131 -132 1404 0
-131 132 1404 0
1404 137 -1405 0
-1404 -137 -1405 0
1404 -137 1405 0
-1404 137 1405 0
1405 138 -1406 0
-1405 -138 -1406 0
1405 -138 1406 0
-1405 138 1406 0
1406 330 -1407 0
-1406 -330 -1407 0
1406 -330 1407 0
-1406 330 1407 0
1407 342 -1408 0
-1407 -342 -1408 0
1407 -342 1408 0
-1407 342 1408 0
1408 348 -1409 0
-1408 -348 -1409 0
1408 -348 1409 0
-1408 348 1409 0
1409 360 -1410 0
-1409 -360 -1410 0
1409 -360 1410 0
-1409 360 1410 0
-1410 0
132 133 -1411 0
-132 -133 -1411 0
132 -133 1411 0
-132 133 1411 0
1411 138 -1412 0
-1411 -138 -1412 0
1411 -138 1412 0
-1411 138 1412 0
1412 139 -1413 0
-1412 -139 -1413 0
1412 -139 1413 0
-1412 139 1413 0
1413 331 -1414 0
-1413 -331 -1414 0
1413 -331 1414 0
-1413 331 1414 0
1414 343 -1415 0
-1414 -343 -1415 0
1414 -343 1415 0
-1414 343 1415 0
1415 349 -1416 0
-1415 -349 -1416 0
1415 -349 1416 0
-1415 349 1416 0
1416 361 -1417 0
-1416 -361 -1417 0
1416 -361 1417 0
-1416 361 1417 0
-1417 0
133 134 -1418 0
-133 -134 -1418 0
133 -134 1418 0
-133 134 1418 0
1418 139 -1419 0
-1418 -139 -1419 0
1418 -139 1419 0
-1418 139 1419 0
1419 140 -1420 0
-1419 -140 -1420 0
1419 -140 1420 0
-1419 140 1420 0
1420 332 -1421 0
-1420 -332 -1421 0
1420 -332 1421 0
-1420 332 1421 0
1421 344 -1422 0
-1421 -344 -1422 0
1421 -344 1422 0
-1421 344 1422 0
1422 350 -1423 0
-1422 -350 -1423 0
1422 -350 1423 0
-1422 350 1423 0
1423 362 -1424 0
-1423 -362 -1424 0
1423 -362 1424 0
-1423 362 1424 0
-1424 0
134 135 -1425 0
-134 -135 -1425 0
134 -135 1425 0
-134 135 1425 0
1425 140 -1426 0
-1425 -140 -1426 0
1425 -140 1426 0
-1425 140 1426 0
1426 141 -1427 0
-1426 -141 -1427 0
1426 -141 1427 0
-1426 141 1427 0
1427 333 -1428 0
-1427 -333 -1428 0
1427 -333 1428 0
-1427 333 1428 0
1428 345 -1429 0
-1428 -345 -1429 0
1428 -345 1429 0
-1428 345 1429 0
1429 351 -1430 0
-1429 -351 -1430 0
1429 -351 1430 0
-1429 351 1430 0
1430 363 -1431 0
-1430 -363 -1431 0
1430 -363 1431 0
-1430 363 1431 0
-1431 0
135 136 -1432 0
-135 -136 -1432 0
135 -136 1432 0
-135 136 1432 0
1432 141 -1433 0
-1432 -141 -1433 0
1432 -141 1433 0
-1432 141 1433 0
1433 142 -1434 0
-1433 -142 -1434 0
1433 -142 1434 0
-1433 142 1434 0
1434 334 -1435 0
-1434 -334 -1435 0
1434 -334 1435 0
-1434 334 1435 0
1435 346 -1436 0
-1435 -346 -1436 0
1435 -346 1436 0
-1435 346 1436 0
1436 352 -1437 0
-1436 -352 -1437 0
1436 -352 1437 0
-1436 352 1437 0
1437 364 -1438 0
-1437 -364 -1438 0
1437 -364 1438 0
-1437 364 1438 0
-1438 0
136 137 -1439 0
-136 -137 -1439 0
136 -137 1439 0
-136 137 1439 0
1439 142 -1440 0
-1439 -142 -1440 0
1439 -142 1440 0
-1439 142 1440 0
1440 143 -1441 0
-1440 -143 -1441 0
1440 -143 1441 0
-1440 143 1441 0
1441 335 -1442 0
-1441 -335 -1442 0
1441 -335 1442 0
-1441 335 1442 0
1442 347 -1443 0
-1442 -347 -1443 0
1442 -347 1443 0
-1442 347 1443 0
1443 353 -1444 0
-1443 -353 -1444 0
1443 -353 1444 0
-1443 353 1444 0
1444 365 -1445 0
-1444 -365 -1445 0
1444 -365 1445 0
-1444 365 1445 0
-1445 0
137 138 -1446 0
-137 -138 -1446 0
137 -138 1446 0
-137 138 1446 0
1446 143 -1447 0
-1446 -143 -1447 0
1446 -143 1447 0
-1446 143 1447 0
1447 144 -1448 0
-1447 -144 -1448 0
1447 -144 1448 0
-1447 144 1448 0
1448 336 -1449 0
-1448 -336 -1449 0
1448 -336 1449 0
-1448 336 1449 0
1449 348 -1450 0
-1449 -348 -1450 0
1449 -348 1450 0
-1449 348 1450 0
1450 354 -1451 0
-1450 -354 -1451 0
1450 -354 1451 0
-1450 354 1451 0
1451 366 -1452 0
-1451 -366 -1452 0
1451 -366 1452 0
-1451 366 1452 0
-1452 0
138 139 -1453 0
-138 -139 -1453 0
138 -139 1453 0
-138 139 1453 0
1453 144 -1454 0
-1453 -144 -1454 0
1453 -144 1454 0
-1453 144 1454 0
1454 145 -1455 0
-1454 -145 -1455 0
1454 -145 1455 0
-1454 145 1455 0
1455 337 -1456 0
-1455 -337 -1456 0
1455 -337 1456 0
-1455 337 1456 0
1456 349 -1457 0
-1456 -349 -1457 0
1456 -349 1457 0
-1456 349 1457 0
1457 355 -1458 0
-1457 -355 -1458 0
1457 -355 1458 0
-1457 355 1458 0
1458 367 -1459 0
-1458 -367 -1459 0
1458 -367 1459 0
-1458 367 1459 0
-1459 0
139 140 -1460 0
-139 -140 -1460 0
139 -140 1460 0
-139 140 1460 0
1460 145 -1461 0
-1460 -145 -1461 0
1460 -145 1461 0
-1460 145 1461 0
1461 146 -1462 0
-1461 -146 -1462 0
1461 -146 1462 0
-1461 146 1462 0
1462 338 -1463 0
-1462 -338 -1463 0
1462 -338 1463 0
-1462 338 1463 0
1463 350 -1464 0
-1463 -350 -1464 0
1463 -350 1464 0
-1463 350 1464 0
1464 356 -1465 0
-1464 -356 -1465 0
1464 -356 1465 0
-1464 356 1465 0
1465 368 -1466 0
-1465 -368 -1466 0
1465 -368 1466 0
-1465 368 1466 0
-1466 0
140 141 -1467 0
-140 -141 -1467 0
140 -141 1467 0
-140 141 1467 0
1467 146 -1468 0
-1467 -146 -1468 0
1467 -146 1468 0
-1467 146 1468 0
1468 147 -1469 0
-1468 -147 -1469 0
1468 -147 1469 0
-1468 147 1469 0
1469 339 -1470 0
-1469 -339 -1470 0
1469 -339 1470 0
-1469 339 1470 0
1470 351 -1471 0
-1470 -351 -1471 0
1470 -351 1471 0
-1470 351 1471 0
1471 357 -1472 0
-1471 -357 -1472 0
1471 -357 1472 0
-1471 357 1472 0
1472 369 -1473 0
-1472 -369 -1473 0
1472 -369 1473 0
-1472 369 1473 0
-1473 0
141 142 -1474 0
-141 -142 -1474 0
141 -142 1474 0
-141 142 1474 0
1474 147 -1475 0
-1474 -147 -1475 0
1474 -147 1475 0
-1474 147 1475 0
1475 148 -1476 0
-1475 -148 -1476 0
1475 -148 1476 0
-1475 148 1476 0
1476 340 -1477 0
-1476 -340 -1477 0
1476 -340 1477 0
-1476 340 1477 0
1477 352 -1478 0
-1477 -352 -1478 0
1477 -352 1478 0
-1477 352 1478 0
1478 358 -1479 0
-1478 -358 -1479 0
1478 -358 1479 0
-1478 358 1479 0
1479 370 -1480 0
-1479 -370 -1480 0
1479 -370 1480 0
-1479 370 1480 0
-1480 0
142 143 -1481 0
-142 -143 -1481 0
142 -143 1481 0
-142 143 1481 0
1481 148 -1482 0
-1481 -148 -1482 0
1481 -148 1482 0
-1481 148 1482 0
1482 149 -1483 0
-1482 -149 -1483 0
1482 -149 1483 0
-1482 149 1483 0
1483 341 -1484 0
-1483 -341 -1484 0
1483 -341 1484 0
-1483 341 1484 0
1484 353 -1485 0
-1484 -353 -1485 0
1484 -353 1485 0
-1484 353 1485 0
1485 359 -1486 0
-1485 -359 -1486 0
1485 -359 1486 0
-1485 359 1486 0
1486 371 -1487 0
-1486 -371 -1487 0
1486 -371 1487 0
-1486 371 1487 0
-1487 0
143 144 -1488 0
-143 -144 -1488 0
143 -144 1488 0
-143 144 1488 0
1488 149 -1489 0
-1488 -149 -1489 0
1488 -149 1489 0
-1488 149 1489 0
1489 150 -1490 0
-1489 -150 -1490 0
1489 -150 1490 0
-1489 150 1490 0
1490 342 -1491 0
-1490 -342 -1491 0
1490 -342 1491 0
-1490 342 1491 0
1491 354 -1492 0
-1491 -354 -1492 0
1491 -354 1492 0
-1491 354 1492 0
1492 360 -1493 0
-1492 -360 -1493 0
1492 -360 1493 0
-1492 360 1493 0
1493 372 -1494 0
-1493 -372 -1494 0
1493 -372 1494 0
-1493 372 1494 0
-1494 0
144 145 -1495 0
-144 -145 -1495 0
144 -145 1495 0
-144 145 1495 0
1495 150 -1496 0
-1495 -150 -1496 0
1495 -150 1496 0
-1495 150 1496 0
1496 151 -1497 0
-1496 -151 -1497 0
1496 -151 1497 0
-1496 151 1497 0
1497 343 -1498 0
-1497 -343 -1498 0
1497 -343 1498 0
-1497 343 1498 0
1498 355 -1499 0
-1498 -355 -1499 0
1498 -355 1499 0
-1498 355 1499 0
1499 361 -1500 0
-1499 -361 -1500 0
1499 -361 1500 0
-1499 361 1500 0
1500 373 -1501 0
-1500 -373 -1501 0
1500 -373 1501 0
-1500 373 1501 0
-1501 0
145 146 -1502 0
-145 -146 -1502 0
145 -146 1502 0
-145 146 1502 0
1502 151 -1503 0
-1502 -151 -1503 0
1502 -151 1503 0
-1502 151 1503 0
1503 152 -1504 0
-1503 -152 -1504 0
1503 -152 1504 0
-1503 152 1504 0
1504 344 -1505 0
-1504 -344 -1505 0
1504 -344 1505 0
-1504 344 1505 0
1505 356 -1506 0
-1505 -356 -1506 0
1505 -356 1506 0
-1505 356 1506 0
1506 362 -1507 0
-1506 -362 -1507 0
1506 -362 1507 0
-1506 362 1507 0
1507 374 -1508 0
-1507 -374 -1508 0
1507 -374 1508 0
-1507 374 1508 0
-1508 0
146 147 -1509 0
-146 -147 -1509 0
146 -147 1509 0
-146 147 1509 0
1509 152 -1510 0
-1509 -152 -1510 0
1509 -152 1510 0
-1509 152 1510 0
1510 153 -1511 0
-1510 -153 -1511 0
1510 -153 1511 0
-1510 153 1511 0
1511 345 -1512 0
-1511 -345 -1512 0
1511 -345 1512 0
-1511 345 1512 0
1512 357 -1513 0
-1512 -357 -1513 0
1512 -357 1513 0
-1512 357 1513 0
1513 363 -1514 0
-1513 -363 -1514 0
1513 -363 1514 0
-1513 363 1514 0
1514 375 -1515 0
-1514 -375 -1515 0
1514 -375 1515 0
-1514 375 1515 0
-1515 0
147 148 -1516 0
-147 -148 -1516 0
147 -148 1516 0
-147 148 1516 0
1516 153 -1517 0
-1516 -153 -1517 0
1516 -153 1517 0
-1516 153 1517 0
1517 154 -1518 0
-1517 -154 -1518 0
1517 -154 1518 0
-1517 154 1518 0
1518 346 -1519 0
-1518 -346 -1519 0
1518 -346 1519 0
-1518 346 1519 0
1519 358 -1520 0
-1519 -358 -1520 0
1519 -358 1520 0
-1519 358 1520 0
1520 364 -1521 0
-1520 -364 -1521 0
1520 -364 1521 0
-1520 364 1521 0
1521 376 -1522 0
-1521 -376 -1522 0
1521 -376 1522 0
-1521 376 1522 0
-1522 0
148 149 -1523 0
-148 -149 -1523 0
148 -149 1523 0
-148 149 1523 0
1523 154 -1524 0
-1523 -154 -1524 0
1523 -154 1524 0
-1523 154 1524 0
1524 155 -1525 0
-1524 -155 -1525 0
1524 -155 1525 0
-1524 155 1525 0
1525 347 -1526 0
-1525 -347 -1526 0
1525 -347 1526 0
-1525 347 1526 0
1526 359 -1527 0
-1526 -359 -1527 0
1526 -359 1527 0
-1526 359 1527 0
1527 365 -1528 0
-1527 -365 -1528 0
1527 -365 1528 0
-1527 365 1528 0
1528 377 -1529 0
-1528 -377 -1529 0
1528 -377 1529 0
-1528 377 1529 0
-1529 0
149 150 -1530 0
-149 -150 -1530 0
149 -150 1530 0
-149 150 1530 0
1530 155 -1531 0
-1530 -155 -1531 0
1530 -155 1531 0
-1530 155 1531 0
1531 156 -1532 0
-1531 -156 -1532 0
1531 -156 1532 0
-1531 156 1532 0
1532 348 -1533 0
-1532 -348 -1533 0
1532 -348 1533 0
-1532 348 1533 0
1533 360 -1534 0
-1533 -360 -1534 0
1533 -360 1534 0
-1533 360 1534 0
1534 366 -1535 0
-1534 -366 -1535 0
1534 -366 1535 0
-1534 366 1535 0
1535 378 -1536 0
-1535 -378 -1536 0
1535 -378 1536 0
-1535 378 1536 0
-1536 0
150 151 -1537 0
-150 -151 -1537 0
150 -151 1537 0
-150 151 1537 0
1537 156 -1538 0
-1537 -156 -1538 0
1537 -156 1538 0
-1537 156 1538 0
1538 157 -1539 0
-1538 -157 -1539 0
1538 -157 1539 0
-1538 157 1539 0
1539 349 -1540 0
-1539 -349 -1540 0
1539 -349 1540 0
-1539 349 1540 0
1540 361 -1541 0
-1540 -361 -1541 0
1540 -361 1541 0
-1540 361 1541 0
1541 367 -1542 0
-1541 -367 -1542 0
1541 -367 1542 0
-1541 367 1542 0
1542 379 -1543 0
-1542 -379 -1543 0
1542 -379 1543 0
-1542 379 1543 0
-1543 0
151 152 -1544 0
-151 -152 -1544 0
151 -152 1544 0
-151 152 1544 0
1544 157 -1545 0
-1544 -157 -1545 0
1544 -157 1545 0
-1544 157 1545 0
1545 158 -1546 0
-1545 -158 -1546 0
1545 -158 1546 0
-1545 158 1546 0
1546 350 -1547 0
-1546 -350 -1547 0
1546 -350 1547 0
-1546 350 1547 0
1547 362 -1548 0
-1547 -362 -1548 0
1547 -362 1548 0
-1547 362 1548 0
1548 368 -1549 0
-1548 -368 -1549 0
1548 -368 1549 0
-1548 368 1549 0
1549 380 -1550 0
-1549 -380 -1550 0
1549 -380 1550 0
-1549 380 1550 0
-1550 0
152 153 -1551 0
-152 -153 -1551 0
152 -153 1551 0
-152 153 1551 0
1551 158 -1552 0
-1551 -158 -1552 0
1551 -158 1552 0
-1551 158 1552 0
1552 159 -1553 0
-1552 -159 -1553 0
1552 -159 1553 0
-1552 159 1553 0
1553 351 -1554 0
-1553 -351 -1554 0
1553 -351 1554 0
-1553 351 1554 0
1554 363 -1555 0
-1554 -363 -1555 0
1554 -363 1555 0
-1554 363 1555 0
1555 369 -1556 0
-1555 -369 -1556 0
1555 -369 1556 0
-1555 369 1556 0
1556 381 -1557 0
-1556 -381 -1557 0
1556 -381 1557 0
-1556 381 1557 0
-1557 0
153 154 -1558 0
-153 -154 -1558 0
153 -154 1558 0
-153 154 1558 0
1558 159 -1559 0
-1558 -159 -1559 0
1558 -159 1559 0
-1558 159 1559 0
1559 160 -1560 0
-1559 -160 -1560 0
1559 -160 1560 0
-1559 160 1560 0
1560 352 -1561 0
-1560 -352 -1561 0
1560 -352 1561 0
-1560 352 1561 0
1561 364 -1562 0
-1561 -364 -1562 0
1561 -364 1562 0
-1561 364 1562 0
1562 370 -1563 0
-1562 -370 -1563 0
1562 -370 1563 0
-1562 370 1563 0
1563 382 -1564 0
-1563 -382 -1564 0
1563 -382 1564 0
-1563 382 1564 0
-1564 0
154 155 -1565 0
-154 -155 -1565 0
154 -155 1565 0
-154 155 1565 0
1565 160 -1566 0
-1565 -160 -1566 0
1565 -160 1566 0
-1565 160 1566 0
1566 161 -1567 0
-1566 -161 -1567 0
1566 -161 1567 0
-1566 161 1567 0
1567 353 -1568 0
-1567 -353 -1568 0
1567 -353 1568 0
-1567 353 1568 0
1568 365 -1569 0
-1568 -365 -1569 0
1568 -365 1569 0
-1568 365 1569 0
1569 371 -1570 0
-1569 -371 -1570 0
1569 -371 1570 0
-1569 371 1570 0
1570 383 -1571 0
-1570 -383 -1571 0
1570 -383 1571 0
-1570 383 1571 0
-1571 0
155 156 -1572 0
-155 -156 -1572 0
155 -156 1572 0
-155 156 1572 0
1572 161 -1573 0
-1572 -161 -1573 0
1572 -161 1573 0
-1572 161 1573 0
1573 162 -1574 0
-1573 -162 -1574 0
1573 -162 1574 0
-1573 162 1574 0
1574 354 -1575 0
-1574 -354 -1575 0
1574 -354 1575 0
-1574 354 1575 0
1575 366 -1576 0
-1575 -366 -1576 0
1575 -366 1576 0
-1575 366 1576 0
1576 372 -1577 0
-1576 -372 -1577 0
1576 -372 1577 0
-1576 372 1577 0
1577 384 -1578 0
-1577 -384 -1578 0
1577 -384 1578 0
-1577 384 1578 0
-1578 0
156 157 -1579 0
-156 -157 -1579 0
156 -157 1579 0
-156 157 1579 0
1579 162 -1580 0
-1579 -162 -1580 0
1579 -162 1580 0
-1579 162 1580 0
1580 163 -1581 0
-1580 -163 -1581 0
1580 -163 1581 0
-1580 163 1581 0
1581 355 -1582 0
-1581 -355 -1582 0
1581 -355 1582 0
-1581 355 1582 0
1582 367 -1583 0
-1582 -367 -1583 0
1582 -367 1583 0
-1582 367 1583 0
1583 373 -1584 0
-1583 -373 -1584 0
1583 -373 1584 0
-1583 373 1584 0
1584 385 -1585 0
-1584 -385 -1585 0
1584 -385 1585 0
-1584 385 1585 0
-1585 0
157 158 -1586 0
-157 -158 -1586 0
157 -158 1586 0
-157 158 1586 0
1586 163 -1587 0
-1586 -163 -1587 0
1586 -163 1587 0
-1586 163 1587 0
1587 164 -1588 0
-1587 -164 -1588 0
1587 -164 1588 0
-1587 164 1588 0
1588 356 -1589 0
-1588 -356 -1589 0
1588 -356 1589 0
-1588 356 1589 0
1589 368 -1590 0
-1589 -368 -1590 0
1589 -368 1590 0
-1589 368 1590 0
1590 374 -1591 0
-1590 -374 -1591 0
1590 -374 1591 0
-1590 374 1591 0
1591 386 -1592 0
-1591 -386 -1592 0
1591 -386 1592 0
-1591 386 1592 0
-1592 0
158 159 -1593 0
-158 -159 -1593 0
158 -159 1593 0
-158 159 1593 0
1593 164 -1594 0
-1593 -164 -1594 0
1593 -164 1594 0
-1593 164 1594 0
1594 165 -1595 0
-1594 -165 -1595 0
1594 -165 1595 0
-1594 165 1595 0
1595 357 -1596 0
-1595 -357 -1596 0
1595 -357 1596 0
-1595 357 1596 0
1596 369 -1597 0
-1596 -369 -1597 0
1596 -369 1597 0
-1596 369 1597 0
1597 375 -1598 0
-1597 -375 -1598 0
1597 -375 1598 0
-1597 375 1598 0
1598 387 -1599 0
-1598 -387 -1599 0
1598 -387 1599 0
-1598 387 1599 0
-1599 0
159 160 -1600 0
-159 -160 -1600 0
159 -160 1600 0
-159 160 1600 0
1600 165 -1601 0
-1600 -165 -1601 0
1600 -165 1601 0
-1600 165 1601 0
1601 166 -1602 0
-1601 -166 -1602 0
1601 -166 1602 0
-1601 166 1602 0
1602 358 -1603 0
-1602 -358 -1603 0
1602 -358 1603 0
-1602 358 1603 0
1603 370 -1604 0
-1603 -370 -1604 0
1603 -370 1604 0
-1603 370 1604 0
1604 376 -1605 0
-1604 -376 -1605 0
1604 -376 1605 0
-1604 376 1605 0
1605 388 -1606 0
-1605 -388 -1606 0
1605 -388 1606 0
-1605 388 1606 0
-1606 0
160 161 -1607 0
-160 -161 -1607 0
160 -161 1607 0
-160 161 1607 0
1607 166 -1608 0
-1607 -166 -1608 0
1607 -166 1608 0
-1607 166 1608 0
1608 167 -1609 0
-1608 -167 -1609 0
1608 -167 1609 0
-1608 167 1609 0
1609 359 -1610 0
-1609 -359 -1610 0
1609 -359 1610 0
-1609 359 1610 0
1610 371 -1611 0
-1610 -371 -1611 0
1610 -371 1611 0
-1610 371 1611 0
1611 377 -1612 0
-1611 -377 -1612 0
1611 -377 1612 0
-1611 377 1612 0
1612 389 -1613 0
-1612 -389 -1613 0
1612 -389 1613 0
-1612 389 1613 0
-1613 0
161 162 -1614 0
-161 -162 -1614 0
161 -162 1614 0
-161 162 1614 0
1614 167 -1615 0
-1614 -167 -1615 0
1614 -167 1615 0
-1614 167 1615 0
1615 168 -1616 0
-1615 -168 -1616 0
1615 -168 1616 0
-1615 168 1616 0
1616 360 -1617 0
-1616 -360 -1617 0
1616 -360 1617 0
-1616 360 1617 0
1617 372 -1618 0
-1617 -372 -1618 0
1617 -372 1618 0
-1617 372 1618 0
1618 378 -1619 0
-1618 -378 -1619 0
1618 -378 1619 0
-1618 378 1619 0
1619 390 -1620 0
-1619 -390 -1620 0
1619 -390 1620 0
-1619 390 1620 0
-1620 0
162 163 -1621 0
-162 -163 -1621 0
162 -163 1621 0
-162 163 1621 0
1621 168 -1622 0
-1621 -168 -1622 0
1621 -168 1622 0
-1621 168 1622 0
1622 169 -1623 0
-1622 -169 -1623 0
1622 -169 1623 0
-1622 169 1623 0
1623 361 -1624 0
-1623 -361 -1624 0
1623 -361 1624 0
-1623 361 1624 0
1624 373 -1625 0
-1624 -373 -1625 0
1624 -373 1625 0
-1624 373 1625 0
1625 379 -1626 0
-1625 -379 -1626 0
1625 -379 1626 0
-1625 379 1626 0
1626 391 -1627 0
-1626 -391 -1627 0
1626 -391 1627 0
-1626 391 1627 0
-1627 0
163 164 -1628 0
-163 -164 -1628 0
163 -164 1628 0
-163 164 1628 0
1628 169 -1629 0
-1628 -169 -1629 0
1628 -169 1629 0
-1628 169 1629 0
1629 170 -1630 0
-1629 -170 -1630 0
1629 -170 1630 0
-1629 170 1630 0
1630 362 -1631 0
-1630 -362 -1631 0
1630 -362 1631 0
-1630 362 1631 0
1631 374 -1632 0
-1631 -374 -1632 0
1631 -374 1632 0
-1631 374 1632 0
1632 380 -1633 0
-1632 -380 -1633 0
1632 -380 1633 0
-1632 380 1633 0
1633 392 -1634 0
-1633 -392 -1634 0
1633 -392 1634 0
-1633 392 1634 0
-1634 0
164 165 -1635 0
-164 -165 -1635 0
164 -165 1635 0
-164 165 1635 0
1635 170 -1636 0
-1635 -170 -1636 0
1635 -170 1636 0
-1635 170 1636 0
1636 171 -1637 0
-1636 -171 -1637 0
1636 -171 1637 0
-1636 171 1637 0
1637 363 -1638 0
-1637 -363 -1638 0
1637 -363 1638 0
-1637 363 1638 0
1638 375 -1639 0
-1638 -375 -1639 0
1638 -375 1639 0
-1638 375 1639 0
1639 381 -1640 0
-1639 -381 -1640 0
1639 -381 1640 0
-1639 381 1640 0
1640 393 -1641 0
-1640 -393 -1641 0
1640 -393 1641 0
-1640 393 1641 0
-1641 0
165 166 -1642 0
-165 -166 -1642 0
165 -166 1642 0
-165 166 1642 0
1642 171 -1643 0
-1642 -171 -1643 0
1642 -171 1643 0
-1642 171 1643 0
1643 172 -1644 0
-1643 -172 -1644 0
1643 -172 1644 0
-1643 172 1644 0
1644 364 -1645 0
-1644 -364 -1645 0
1644 -364 1645 0
-1644 364 1645 0
1645 376 -1646 0
-1645 -376 -1646 0
1645 -376 1646 0
-1645 376 1646 0
1646 382 -1647 0
-1646 -382 -1647 0
1646 -382 1647 0
-1646 382 1647 0
1647 394 -1648 0
-1647 -394 -1648 0
1647 -394 1648 0
-1647 394 1648 0
-1648 0
166 167 -1649 0
-166 -167 -1649 0
166 -167 1649 0
-166 167 1649 0
1649 172 -1650 0
-1649 -172 -1650 0
1649 -172 1650 0
-1649 172 1650 0
1650 173 -1651 0
-1650 -173 -1651 0
1650 -173 1651 0
-1650 173 1651 0
1651 365 -1652 0
-1651 -365 -1652 0
1651 -365 1652 0
-1651 365 1652 0
1652 377 -1653 0
-1652 -377 -1653 0
1652 -377 1653 0
-1652 377 1653 0
1653 383 -1654 0
-1653 -383 -1654 0
1653 -383 1654 0
-1653 383 1654 0
1654 395 -1655 0
-1654 -395 -1655 0
1654 -395 1655 0
-1654 395 1655 0
-1655 0
167 168 -1656 0
-167 -168 -1656 0
167 -168 1656 0
-167 168 1656 0
1656 173 -1657 0
-1656 -173 -1657 0
1656 -173 1657 0
-1656 173 1657 0
1657 174 -1658 0
-1657 -174 -1658 0
1657 -174 1658 0
-1657 174 1658 0
1658 366 -1659 0
-1658 -366 -1659 0
1658 -366 1659 0
-1658 366 1659 0
1659 378 -1660 0
-1659 -378 -1660 0
1659 -378 1660 0
-1659 378 1660 0
1660 384 -1661 0
-1660 -384 -1661 0
1660 -384 1661 0
-1660 384 1661 0
1661 396 -1662 0
-1661 -396 -1662 0
1661 -396 1662 0
-1661 396 1662 0
-1662 0
168 169 -1663 0
-168 -169 -1663 0
168 -169 1663 0
-168 169 1663 0
1663 174 -1664 0
-1663 -174 -1664 0
1663 -174 1664 0
-1663 174 1664 0
1664 175 -1665 0
-1664 -175 -1665 0
1664 -175 1665 0
-1664 175 1665 0
1665 367 -1666 0
-1665 -367 -1666 0
1665 -367 1666 0
-1665 367 1666 0
1666 379 -1667 0
-1666 -379 -1667 0
1666 -379 1667 0
-1666 379 1667 0
1667 385 -1668 0
-1667 -385 -1668 0
1667 -385 1668 0
-1667 385 1668 0
1668 397 -1669 0
-1668 -397 -1669 0
1668 -397 1669 0
-1668 397 1669 0
-1669 0
169 170 -1670 0
-169 -170 -1670 0
169 -170 1670 0
-169 170 1670 0
1670 175 -1671 0
-1670 -175 -1671 0
1670 -175 1671 0
-1670 175 1671 0
1671 176 -1672 0
-1671 -176 -1672 0
1671 -176 1672 0
-1671 176 1672 0
1672 368 -1673 0
-1672 -368 -1673 0
1672 -368 1673 0
-1672 368 1673 0
1673 380 -1674 0
-1673 -380 -1674 0
1673 -380 1674 0
-1673 380 1674 0
1674 386 -1675 0
-1674 -386 -1675 0
1674 -386 1675 0
-1674 386 1675 0
1675 398 -1676 0
-1675 -398 -1676 0
1675 -398 1676 0
-1675 398 1676 0
-1676 0
170 171 -1677 0
-170 -171 -1677 0
170 -171 1677 0
-170 171 1677 0
1677 176 -1678 0
-1677 -176 -1678 0
1677 -176 1678 0
-1677 176 1678 0
1678 177 -1679 0
-1678 -177 -1679 0
1678 -177 1679 0
-1678 177 1679 0
1679 369 -1680 0
-1679 -369 -1680 0
1679 -369 1680 0
-1679 369 1680 0
1680 381 -1681 0
-1680 -381 -1681 0
1680 -381 1681 0
-1680 381 1681 0
1681 387 -1682 0
-1681 -387 -1682 0
1681 -387 1682 0
-1681 387 1682 0
1682 399 -1683 0
-1682 -399 -1683 0
1682 -399 1683 0
-1682 399 1683 0
-1683 0
171 172 -1684 0
-171 -172 -1684 0
171 -172 1684 0
-171 172 1684 0
1684 177 -1685 0
-1684 -177 -1685 0
1684 -177 1685 0
-1684 177 1685 0
1685 178 -1686 0
-1685 -178 -1686 0
1685 -178 1686 0
-1685 178 1686 0
1686 370 -1687 0
-1686 -370 -1687 0
1686 -370 1687 0
-1686 370 1687 0
1687 382 -1688 0
-1687 -382 -1688 0
1687 -382 1688 0
-1687 382 1688 0
1688 388 -1689 0
-1688 -388 -1689 0
1688 -388 1689 0
-1688 388 1689 0
1689 400 -1690 0
-1689 -400 -1690 0
1689 -400 1690 0
-1689 400 1690 0
-1690 0
172 173 -1691 0
-172 -173 -1691 0
172 -173 1691 0
-172 173 1691 0
1691 178 -1692 0
-1691 -178 -1692 0
1691 -178 1692 0
-1691 178 1692 0
1692 179 -1693 0
-1692 -179 -1693 0
1692 -179 1693 0
-1692 179 1693 0
1693 371 -1694 0
-1693 -371 -1694 0
1693 -371 1694 0
-1693 371 1694 0
1694 383 -1695 0
-1694 -383 -1695 0
1694 -383 1695 0
-1694 383 1695 0
1695 389 -1696 0
-1695 -389 -1696 0
1695 -389 1696 0
-1695 389 1696 0
1696 401 -1697 0
-1696 -401 -1697 0
1696 -401 1697 0
-1696 401 1697 0
-1697 0
173 174 -1698 0
-173 -174 -1698 0
173 -174 1698 0
-173 174 1698 0
1698 179 -1699 0
-1698 -179 -1699 0
1698 -179 1699 0
-1698 179 1699 0
1699 180 -1700 0
-1699 -180 -1700 0
1699 -180 1700 0
-1699 180 1700 0
1700 372 -1701 0
-1700 -372 -1701 0
1700 -372 1701 0
-1700 372 1701 0
1701 384 -1702 0
-1701 -384 -1702 0
1701 -384 1702 0
-1701 384 1702 0
1702 390 -1703 0
-1702 -390 -1703 0
1702 -390 1703 0
-1702 390 1703 0
1703 402 -1704 0
-1703 -402 -1704 0
1703 -402 1704 0
-1703 402 1704 0
-1704 0
174 175 -1705 0
-174 -175 -1705 0
174 -175 1705 0
-174 175 1705 0
1705 180 -1706 0
-1705 -180 -1706 0
1705 -180 1706 0
-1705 180 1706 0
1706 181 -1707 0
-1706 -181 -1707 0
1706 -181 1707 0
-1706 181 1707 0
1707 373 -1708 0
-1707 -373 -1708 0
1707 -373 1708 0
-1707 373 1708 0
1708 385 -1709 0
-1708 -385 -1709 0
1708 -385 1709 0
-1708 385 1709 0
1709 391 -1710 0
-1709 -391 -1710 0
1709 -391 1710 0
-1709 391 1710 0
1710 403 -1711 0
-1710 -403 -1711 0
1710 -403 1711 0
-1710 403 1711 0
-1711 0
175 176 -1712 0
-175 -176 -1712 0
175 -176 1712 0
-175 176 1712 0
1712 181 -1713 0
-1712 -181 -1713 0
1712 -181 1713 0
-1712 181 1713 0
1713 182 -1714 0
-1713 -182 -1714 0
1713 -182 1714 0
-1713 182 1714 0
1714 374 -1715 0
-1714 -374 -1715 0
1714 -374 1715 0
-1714 374 1715 0
1715 386 -1716 0
-1715 -386 -1716 0
1715 -386 1716 0
-1715 386 1716 0
1716 392 -1717 0
-1716 -392 -1717 0
1716 -392 1717 0
-1716 392 1717 0
1717 404 -1718 0
-1717 -404 -1718 0
1717 -404 1718 0
-1717 404 1718 0
-1718 0
176 177 -1719 0
-176 -177 -1719 0
176 -177 1719 0
-176 177 1719 0
1719 182 -1720 0
-1719 -182 -1720 0
1719 -182 1720 0
-1719 182 1720 0
1720 183 -1721 0
-1720 -183 -1721 0
1720 -183 1721 0
-1720 183 1721 0
1721 375 -1722 0
-1721 -375 -1722 0
1721 -375 1722 0
-1721 375 1722 0
1722 387 -1723 0
-1722 -387 -1723 0
1722 -387 1723 0
-1722 387 1723 0
1723 393 -1724 0
-1723 -393 -1724 0
1723 -393 1724 0
-1723 393 1724 0
1724 405 -1725 0
-1724 -405 -1725 0
1724 -405 1725 0
-1724 405 1725 0
-1725 0
177 178 -1726 0
-177 -178 -1726 0
177 -178 1726 0
-177 178 1726 0
1726 183 -1727 0
-1726 -183 -1727 0
1726 -183 1727 0
-1726 183 1727 0
1727 184 -1728 0
-1727 -184 -1728 0
1727 -184 1728 0
-1727 184 1728 0
1728 376 -1729 0
-1728 -376 -1729 0
1728 -376 1729 0
-1728 376 1729 0
1729 388 -1730 0
-1729 -388 -1730 0
1729 -388 1730 0
-1729 388 1730 0
1730 394 -1731 0
-1730 -394 -1731 0
1730 -394 1731 0
-1730 394 1731 0
1731 406 -1732 0
-1731 -406 -1732 0
1731 -406 1732 0
-1731 406 1732 0
-1732 0
178 179 -1733 0
-178 -179 -1733 0
178 -179 1733 0
-178 179 1733 0
1733 184 -1734 0
-1733 -184 -1734 0
1733 -184 1734 0
-1733 184 1734 0
1734 185 -1735 0
-1734 -185 -1735 0
1734 -185 1735 0
-1734 185 1735 0
1735 377 -1736 0
-1735 -377 -1736 0
1735 -377 1736 0
-1735 377 1736 0
1736 389 -1737 0
-1736 -389 -1737 0
1736 -389 1737 0
-1736 389 1737 0
1737 395 -1738 0
-1737 -395 -1738 0
1737 -395 1738 0
-1737 395 1738 0
1738 407 -1739 0
-1738 -407 -1739 0
1738 -407 1739 0
-1738 407 1739 0
-1739 0
179 180 -1740 0
-179 -180 -1740 0
179 -180 1740 0
-179 180 1740 0
1740 185 -1741 0
-1740 -185 -1741 0
1740 -185 1741 0
-1740 185 1741 0
1741 186 -1742 0
-1741 -186 -1742 0
1741 -186 1742 0
-1741 186 1742 0
1742 378 -1743 0
-1742 -378 -1743 0
1742 -378 1743 0
-1742 378 1743 0
1743 390 -1744 0
-1743 -390 -1744 0
1743 -390 1744 0
-1743 390 1744 0
1744 396 -1745 0
-1744 -396 -1745 0
1744 -396 1745 0
-1744 396 1745 0
1745 408 -1746 0
-1745 -408 -1746 0
1745 -408 1746 0
-1745 408 1746 0
-1746 0
180 181 -1747 0
-180 -181 -1747 0
180 -181 1747 0
-180 181 1747 0
1747 186 -1748 0
-1747 -186 -1748 0
1747 -186 1748 0
-1747 186 1748 0
1748 187 -1749 0
-1748 -187 -1749 0
1748 -187 1749 0
-1748 187 1749 0
1749 379 -1750 0
-1749 -379 -1750 0
1749 -379 1750 0
-1749 379 1750 0
1750 391 -1751 0
-1750 -391 -1751 0
1750 -391 1751 0
-1750 391 1751 0
1751 397 -1752 0
-1751 -397 -1752 0
1751 -397 1752 0
-1751 397 1752 0
1752 409 -1753 0
-1752 -409 -1753 0
1752 -409 1753 0
-1752 409 1753 0
-1753 0
181 182 -1754 0
-181 -182 -1754 0
181 -182 1754 0
-181 182 1754 0
1754 187 -1755 0
-1754 -187 -1755 0
1754 -187 1755 0
-1754 187 1755 0
1755 188 -1756 0
-1755 -188 -1756 0
1755 -188 1756 0
-1755 188 1756 0
1756 380 -1757 0
-1756 -380 -1757 0
1756 -380 1757 0
-1756 380 1757 0
1757 392 -1758 0
-1757 -392 -1758 0
1757 -392 1758 0
-1757 392 1758 0
1758 398 -1759 0
-1758 -398 -1759 0
1758 -398 1759 0
-1758 398 1759 0
1759 410 -1760 0
-1759 -410 -1760 0
1759 -410 1760 0
-1759 410 1760 0
-1760 0
182 183 -1761 0
-182 -183 -1761 0
182 -183 1761 0
-182 183 1761 0
1761 188 -1762 0
-1761 -188 -1762 0
1761 -188 1762 0
-1761 188 1762 0
1762 189 -1763 0
-1762 -189 -1763 0
1762 -189 1763 0
-1762 189 1763 0
1763 381 -1764 0
-1763 -381 -1764 0
1763 -381 1764 0
-1763 381 1764 0
1764 393 -1765 0
-1764 -393 -1765 0
1764 -393 1765 0
-1764 393 1765 0
1765 399 -1766 0
-1765 -399 -1766 0
1765 -399 1766 0
-1765 399 1766 0
1766 411 -1767 0
-1766 -411 -1767 0
1766 -411 1767 0
-1766 411 1767 0
-1767 0
183 184 -1768 0
-183 -184 -1768 0
183 -184 1768 0
-183 184 1768 0
1768 189 -1769 0
-1768 -189 -1769 0
1768 -189 1769 0
-1768 189 1769 0
1769 190 -1770 0
-1769 -190 -1770 0
1769 -190 1770 0
-1769 190 1770 0
1770 382 -1771 0
-1770 -382 -1771 0
1770 -382 1771 0
-1770 382 1771 0
1771 394 -1772 0
-1771 -394 -1772 0
1771 -394 1772 0
-1771 394 1772 0
1772 400 -1773 0
-1772 -400 -1773 0
1772 -400 1773 0
-1772 400 1773 0
1773 412 -1774 0
-1773 -412 -1774 0
1773 -412 1774 0
-1773 412 1774 0
-1774 0
184 185 -1775 0
-184 -185 -1775 0
184 -185 1775 0
-184 185 1775 0
1775 190 -1776 0
-1775 -190 -1776 0
1775 -190 1776 0
-1775 190 1776 0
1776 191 -1777 0
-1776 -191 -1777 0
1776 -191 1777 0
-1776 191 1777 0
1777 383 -1778 0
-1777 -383 -1778 0
1777 -383 1778 0
-1777 383 1778 0
1778 395 -1779 0
-1778 -395 -1779 0
1778 -395 1779 0
-1778 395 1779 0
1779 401 -1780 0
-1779 -401 -1780 0
1779 -401 1780 0
-1779 401 1780 0
1780 413 -1781 0
-1780 -413 -1781 0
1780 -413 1781 0
-1780 413 1781 0
-1781 0
185 186 -1782 0
-185 -186 -1782 0
185 -186 1782 0
-185 186 1782 0
1782 191 -1783 0
-1782 -191 -1783 0
1782 -191 1783 0
-1782 191 1783 0
1783 192 -1784 0
-1783 -192 -1784 0
1783 -192 1784 0
-1783 192 1784 0
1784 384 -1785 0
-1784 -384 -1785 0
1784 -384 1785 0
-1784 384 1785 0
1785 396 -1786 0
-1785 -396 -1786 0
1785 -396 1786 0
-1785 396 1786 0
1786 402 -1787 0
-1786 -402 -1787 0
1786 -402 1787 0
-1786 402 1787 0
1787 414 -1788 0
-1787 -414 -1788 0
1787 -414 1788 0
-1787 414 1788 0
-1788 0
186 187 -1789 0
-186 -187 -1789 0
186 -187 1789 0
-186 187 1789 0
1789 192 -1790 0
-1789 -192 -1790 0
1789 -192 1790 0
-1789 192 1790 0
1790 193 -1791 0
-1790 -193 -1791 0
1790 -193 1791 0
-1790 193 1791 0
1791 385 -1792 0
-1791 -385 -1792 0
1791 -385 1792 0
-1791 385 1792 0
1792 397 -1793 0
-1792 -397 -1793 0
1792 -397 1793 0
-1792 397 1793 0
1793 403 -1794 0
-1793 -403 -1794 0
1793 -403 1794 0
-1793 403 1794 0
1794 415 -1795 0
-1794 -415 -1795 0
1794 -415 1795 0
-1794 415 1795 0
-1795 0
187 188 -1796 0
-187 -188 -1796 0
187 -188 1796 0
-187 188 1796 0
1796 193 -1797 0
-1796 -193 -1797 0
1796 -193 1797 0
-1796 193 1797 0
1797 194 -1798 0
-1797 -194 -1798 0
1797 -194 1798 0
-1797 194 1798 0
1798 386 -1799 0
-1798 -386 -1799 0
1798 -386 1799 0
-1798 386 1799 0
1799 398 -1800 0
-1799 -398 -1800 0
1799 -398 1800 0
-1799 398 1800 0
1800 404 -1801 0
-1800 -404 -1801 0
1800 -404 1801 0
-1800 404 1801 0
1801 416 -1802 0
-1801 -416 -1802 0
1801 -416 1802 0
-1801 416 1802 0
-1802 0
188 189 -1803 0
-188 -189 -1803 0
188 -189 1803 0
-188 189 1803 0
1803 194 -1804 0
-1803 -194 -1804 0
1803 -194 1804 0
-1803 194 1804 0
1804 195 -1805 0
-1804 -195 -1805 0
1804 -195 1805 0
-1804 195 1805 0
1805 387 -1806 0
-1805 -387 -1806 0
1805 -387 1806 0
-1805 387 1806 0
1806 399 -1807 0
-1806 -399 -1807 0
1806 -399 1807 0
-1806 399 1807 0
1807 405 -1808 0
-1807 -405 -1808 0
1807 -405 1808 0
-1807 405 1808 0
1808 417 -1809 0
-1808 -417 -1809 0
1808 -417 1809 0
-1808 417 1809 0
-1809 0
189 190 -1810 0
-189 -190 -1810 0
189 -190 1810 0
-189 190 1810 0
1810 195 -1811 0
-1810 -195 -1811 0
1810 -195 1811 0
-1810 195 1811 0
1811 196 -1812 0
-1811 -196 -1812 0
1811 -196 1812 0
-1811 196 1812 0
1812 388 -1813 0
-1812 -388 -1813 0
1812 -388 1813 0
-1812 388 1813 0
1813 400 -1814 0
-1813 -400 -1814 0
1813 -400 1814 0
-1813 400 1814 0
1814 406 -1815 0
-1814 -406 -1815 0
1814 -406 1815 0
-1814 406 1815 0
1815 418 -1816 0
-1815 -418 -1816 0
1815 -418 1816 0
-1815 418 1816 0
-1816 0
190 191 -1817 0
-190 -191 -1817 0
190 -191 1817 0
-190 191 1817 0
1817 196 -1818 0
-1817 -196 -1818 0
1817 -196 1818 0
-1817 196 1818 0
1818 197 -1819 0
-1818 -197 -1819 0
1818 -197 1819 0
-1818 197 1819 0
1819 389 -1820 0
-1819 -389 -1820 0
1819 -389 1820 0
-1819 389 1820 0
1820 401 -1821 0
-1820 -401 -1821 0
1820 -401 1821 0
-1820 401 1821 0
1821 407 -1822 0
-1821 -407 -1822 0
1821 -407 1822 0
-1821 407 1822 0
1822 419 -1823 0
-1822 -419 -1823 0
1822 -419 1823 0
-1822 419 1823 0
-1823 0
191 192 -1824 0
-191 -192 -1824 0
191 -192 1824 0
-191 192 1824 0
1824 197 -1825 0
-1824 -197 -1825 0
1824 -197 1825 0
-1824 197 1825 0
1825 198 -1826 0
-1825 -198 -1826 0
1825 -198 1826 0
-1825 198 1826 0
1826 390 -1827 0
-1826 -390 -1827 0
1826 -390 1827 0
-1826 390 1827 0
1827 402 -1828 0
-1827 -402 -1828 0
1827 -402 1828 0
-1827 402 1828 0
1828 408 -1829 0
-1828 -408 -1829 0
1828 -408 1829 0
-1828 408 1829 0
1829 420 -1830 0
-1829 -420 -1830 0
1829 -420 1830 0
-1829 420 1830 0
-1830 0
192 193 -1831 0
-192 -193 -1831 0
192 -193 1831 0
-192 193 1831 0
1831 198 -1832 0
-1831 -198 -1832 0
1831 -198 1832 0
-1831 198 1832 0
1832 199 -1833 0
-1832 -199 -1833 0
1832 -199 1833 0
-1832 199 1833 0
1833 391 -1834 0
-1833 -391 -1834 0
1833 -391 1834 0
-1833 391 1834 0
1834 403 -1835 0
-1834 -403 -1835 0
1834 -403 1835 0
-1834 403 1835 0
1835 409 -1836 0
-1835 -409 -1836 0
1835 -409 1836 0
-1835 409 1836 0
1836 421 -1837 0
-1836 -421 -1837 0
1836 -421 1837 0
-1836 421 1837 0
-1837 0
193 194 -1838 0
-193 -194 -1838 0
193 -194 1838 0
-193 194 1838 0
1838 199 -1839 0
-1838 -199 -1839 0
1838 -199 1839 0
-1838 199 1839 0
1839 200 -1840 0
-1839 -200 -1840 0
1839 -200 1840 0
-1839 200 1840 0
1840 392 -1841 0
-1840 -392 -1841 0
1840 -392 1841 0
-1840 392 1841 0
1841 404 -1842 0
-1841 -404 -1842 0
1841 -404 1842 0
-1841 404 1842 0
1842 410 -1843 0
-1842 -410 -1843 0
1842 -410 1843 0
-1842 410 1843 0
1843 422 -1844 0
-1843 -422 -1844 0
1843 -422 1844 0
-1843 422 1844 0
-1844 0
194 195 -1845 0
-194 -195 -1845 0
194 -195 1845 0
-194 195 1845 0
1845 200 -1846 0
-1845 -200 -1846 0
1845 -200 1846 0
-1845 200 1846 0
1846 201 -1847 0
-1846 -201 -1847 0
1846 -201 1847 0
-1846 201 1847 0
1847 393 -1848 0
-1847 -393 -1848 0
1847 -393 1848 0
-1847 393 1848 0
1848 405 -1849 0
-1848 -405 -1849 0
1848 -405 1849 0
-1848 405 1849 0
1849 411 -1850 0
-1849 -411 -1850 0
1849 -411 1850 0
-1849 411 1850 0
1850 423 -1851 0
-1850 -423 -1851 0
1850 -423 1851 0
-1850 423 1851 0
-1851 0
195 196 -1852 0
-195 -196 -1852 0
195 -196 1852 0
-195 196 1852 0
1852 201 -1853 0
-1852 -201 -1853 0
1852 -201 1853 0
-1852 201 1853 0
1853 202 -1854 0
-1853 -202 -1854 0
1853 -202 1854 0
-1853 202 1854 0
1854 394 -1855 0
-1854 -394 -1855 0
1854 -394 1855 0
-1854 394 1855 0
1855 406 -1856 0
-1855 -406 -1856 0
1855 -406 1856 0
-1855 406 1856 0
1856 412 -1857 0
-1856 -412 -1857 0
1856 -412 1857 0
-1856 412 1857 0
1857 424 -1858 0
-1857 -424 -1858 0
1857 -424 1858 0
-1857 424 1858 0
-1858 0
196 197 -1859 0
-196 -197 -1859 0
196 -197 1859 0
-196 197 1859 0
1859 202 -1860 0
-1859 -202 -1860 0
1859 -202 1860 0
-1859 202 1860 0
1860 203 -1861 0
-1860 -203 -1861 0
1860 -203 1861 0
-1860 203 1861 0
1861 395 -1862 0
-1861 -395 -1862 0
1861 -395 1862 0
-1861 395 1862 0
1862 407 -1863 0
-1862 -407 -1863 0
1862 -407 1863 0
-1862 407 1863 0
1863 413 -1864 0
-1863 -413 -1864 0
1863 -413 1864 0
-1863 413 1864 0
1864 425 -1865 0
-1864 -425 -1865 0
1864 -425 1865 0
-1864 425 1865 0
-1865 0
197 198 -1866 0
-197 -198 -1866 0
197 -198 1866 0
-197 198 1866 0
1866 203 -1867 0
-1866 -203 -1867 0
1866 -203 1867 0
-1866 203 1867 0
1867 204 -1868 0
-1867 -204 -1868 0
1867 -204 1868 0
-1867 204 1868 0
1868 396 -1869 0
-1868 -396 -1869 0
1868 -396 1869 0
-1868 396 1869 0
1869 408 -1870 0
-1869 -408 -1870 0
1869 -408 1870 0
-1869 408 1870 0
1870 414 -1871 0
-1870 -414 -1871 0
1870 -414 1871 0
-1870 414 1871 0
1871 426 -1872 0
-1871 -426 -1872 0
1871 -426 1872 0
-1871 426 1872 0
-1872 0
198 199 -1873 0
-198 -199 -1873 0
198 -199 1873 0
-198 199 1873 0
1873 204 -1874 0
-1873 -204 -1874 0
1873 -204 1874 0
-1873 204 1874 0
1874 205 -1875 0
-1874 -205 -1875 0
1874 -205 1875 0
-1874 205 1875 0
1875 397 -1876 0
-1875 -397 -1876 0
1875 -397 1876 0
-1875 397 1876 0
1876 409 -1877 0
-1876 -409 -1877 0
1876 -409 1877 0
-1876 409 1877 0
1877 415 -1878 0
-1877 -415 -1878 0
1877 -415 1878 0
-1877 415 1878 0
1878 427 -1879 0
-1878 -427 -1879 0
1878 -427 1879 0
-1878 427 1879 0
-1879 0
199 200 -1880 0
-199 -200 -1880 0
199 -200 1880 0
-199 200 1880 0
1880 205 -1881 0
-1880 -205 -1881 0
1880 -205 1881 0
-1880 205 1881 0
1881 206 -1882 0
-1881 -206 -1882 0
1881 -206 1882 0
-1881 206 1882 0
1882 398 -1883 0
-1882 -398 -1883 0
1882 -398 1883 0
-1882 398 1883 0
1883 410 -1884 0
-1883 -410 -1884 0
1883 -410 1884 0
-1883 410 1884 0
1884 416 -1885 0
-1884 -416 -1885 0
1884 -416 1885 0
-1884 416 1885 0
1885 428 -1886 0
-1885 -428 -1886 0
1885 -428 1886 0
-1885 428 1886 0
-1886 0
200 201 -1887 0
-200 -201 -1887 0
200 -201 1887 0
-200 201 1887 0
1887 206 -1888 0
-1887 -206 -1888 0
1887 -206 1888 0
-1887 206 1888 0
1888 207 -1889 0
-1888 -207 -1889 0
1888 -207 1889 0
-1888 207 1889 0
1889 399 -1890 0
-1889 -399 -1890 0
1889 -399 1890 0
-1889 399 1890 0
1890 411 -1891 0
-1890 -411 -1891 0
1890 -411 1891 0
-1890 411 1891 0
1891 417 -1892 0
-1891 -417 -1892 0
1891 -417 1892 0
-1891 417 1892 0
1892 429 -1893 0
-1892 -429 -1893 0
1892 -429 1893 0
-1892 429 1893 0
-1893 0
201 202 -1894 0
-201 -202 -1894 0
201 -202 1894 0
-201 202 1894 0
1894 207 -1895 0
-1894 -207 -1895 0
1894 -207 1895 0
-1894 207 1895 0
1895 208 -1896 0
-1895 -208 -1896 0
1895 -208 1896 0
-1895 208 1896 0
1896 400 -1897 0
-1896 -400 -1897 0
1896 -400 1897 0
-1896 400 1897 0
1897 412 -1898 0
-1897 -412 -1898 0
1897 -412 1898 0
-1897 412 1898 0
1898 418 -1899 0
-1898 -418 -1899 0
1898 -418 1899 0
-1898 418 1899 0
1899 430 -1900 0
-1899 -430 -1900 0
1899 -430 1900 0
-1899 430 1900 0
-1900 0
202 203 -1901 0
-202 -203 -1901 0
202 -203 1901 0
-202 203 1901 0
1901 208 -1902 0
-1901 -208 -1902 0
1901 -208 1902 0
-1901 208 1902 0
1902 209 -1903 0
-1902 -209 -1903 0
1902 -209 1903 0
-1902 209 1903 0
1903 401 -1904 0
-1903 -401 -1904 0
1903 -401 1904 0
-1903 401 1904 0
1904 413 -1905 0
-1904 -413 -1905 0
1904 -413 1905 0
-1904 413 1905 0
1905 419 -1906 0
-1905 -419 -1906 0
1905 -419 1906 0
-1905 419 1906 0
1906 431 -1907 0
-1906 -431 -1907 0
1906 -431 1907 0
-1906 431 1907 0
-1907 0
203 204 -1908 0
-203 -204 -1908 0
203 -204 1908 0
-203 204 1908 0
1908 209 -1909 0
-1908 -209 -1909 0
1908 -209 1909 0
-1908 209 1909 0
1909 210 -1910 0
-1909 -210 -1910 0
1909 -210 1910 0
-1909 210 1910 0
1910 402 -1911 0
-1910 -402 -1911 0
1910 -402 1911 0
-1910 402 1911 0
1911 414 -1912 0
-1911 -414 -1912 0
1911 -414 1912 0
-1911 414 1912 0
1912 420 -1913 0
-1912 -420 -1913 0
1912 -420 1913 0
-1912 420 1913 0
1913 432 -1914 0
-1913 -432 -1914 0
1913 -432 1914 0
-1913 432 1914 0
-1914 0
204 205 -1915 0
-204 -205 -1915 0
204 -205 1915 0
-204 205 1915 0
1915 210 -1916 0
-1915 -210 -1916 0
1915 -210 1916 0
-1915 210 1916 0
1916 211 -1917 0
-1916 -211 -1917 0
1916 -211 1917 0
-1916 211 1917 0
1917 403 -1918 0
-1917 -403 -1918 0
1917 -403 1918 0
-1917 403 1918 0
1918 415 -1919 0
-1918 -415 -1919 0
1918 -415 1919 0
-1918 415 1919 0
1919 421 -1920 0
-1919 -421 -1920 0
1919 -421 1920 0
-1919 421 1920 0
1920 433 -1921 0
-1920 -433 -1921 0
1920 -433 1921 0
-1920 433 1921 0
-1921 0
205 206 -1922 0
-205 -206 -1922 0
205 -206 1922 0
-205 206 1922 0
1922 211 -1923 0
-1922 -211 -1923 0
1922 -211 1923 0
-1922 211 1923 0
1923 212 -1924 0
-1923 -212 -1924 0
1923 -212 1924 0
-1923 212 1924 0
1924 404 -1925 0
-1924 -404 -1925 0
1924 -404 1925 0
-1924 404 1925 0
1925 416 -1926 0
-1925 -416 -1926 0
1925 -416 1926 0
-1925 416 1926 0
1926 422 -1927 0
-1926 -422 -1927 0
1926 -422 1927 0
-1926 422 1927 0
1927 434 -1928 0
-1927 -434 -1928 0
1927 -434 1928 0
-1927 434 1928 0
-1928 0
206 207 -1929 0
-206 -207 -1929 0
206 -207 1929 0
-206 207 1929 0
1929 212 -1930 0
-1929 -212 -1930 0
1929 -212 1930 0
-1929 212 1930 0
1930 213 -1931 0
-1930 -213 -1931 0
1930 -213 1931 0
-1930 213 1931 0
1931 405 -1932 0
-1931 -405 -1932 0
1931 -405 1932 0
-1931 405 1932 0
1932 417 -1933 0
-1932 -417 -1933 0
1932 -417 1933 0
-1932 417 1933 0
1933 423 -1934 0
-1933 -423 -1934 0
1933 -423 1934 0
-1933 423 1934 0
1934 435 -1935 0
-1934 -435 -1935 0
1934 -435 1935 0
-1934 435 1935 0
-1935 0
207 208 -1936 0
-207 -208 -1936 0
207 -208 1936 0
-207 208 1936 0
1936 213 -1937 0
-1936 -213 -1937 0
1936 -213 1937 0
-1936 213 1937 0
1937 214 -1938 0
-1937 -214 -1938 0
1937 -214 1938 0
-1937 214 1938 0
1938 406 -1939 0
-1938 -406 -1939 0
1938 -406 1939 0
-1938 406 1939 0
1939 418 -1940 0
-1939 -418 -1940 0
1939 -418 1940 0
-1939 418 1940 0
1940 424 -1941 0
-1940 -424 -1941 0
1940 -424 1941 0
-1940 424 1941 0
1941 436 -1942 0
-1941 -436 -1942 0
1941 -436 1942 0
-1941 436 1942 0
-1942 0
208 209 -1943 0
-208 -209 -1943 0
208 -209 1943 0
-208 209 1943 0
1943 214 -1944 0
-1943 -214 -1944 0
1943 -214 1944 0
-1943 214 1944 0
1944 215 -1945 0
-1944 -215 -1945 0
1944 -215 1945 0
-1944 215 1945 0
1945 407 -1946 0
-1945 -407 -1946 0
1945 -407 1946 0
-1945 407 1946 0
1946 419 -1947 0
-1946 -419 -1947 0
1946 -419 1947 0
-1946 419 1947 0
1947 425 -1948 0
-1947 -425 -1948 0
1947 -425 1948 0
-1947 425 1948 0
1948 437 -1949 0
-1948 -437 -1949 0
1948 -437 1949 0
-1948 437 1949 0
-1949 0
209 210 -1950 0
-209 -210 -1950 0
209 -210 1950 0
-209 210 1950 0
1950 215 -1951 0
-1950 -215 -1951 0
1950 -215 1951 0
-1950 215 1951 0
1951 216 -1952 0
-1951 -216 -1952 0
1951 -216 1952 0
-1951 216 1952 0
1952 408 -1953 0
-1952 -408 -1953 0
1952 -408 1953 0
-1952 408 1953 0
1953 420 -1954 0
-1953 -420 -1954 0
1953 -420 1954 0
-1953 420 1954 0
1954 426 -1955 0
-1954 -426 -1955 0
1954 -426 1955 0
-1954 426 1955 0
1955 438 -1956 0
-1955 -438 -1956 0
1955 -438 1956 0
-1955 438 1956 0
-1956 0
210 211 -1957 0
-210 -211 -1957 0
210 -211 1957 0
-210 211 1957 0
1957 216 -1958 0
-1957 -216 -1958 0
1957 -216 1958 0
-1957 216 1958 0
1958 217 -1959 0
-1958 -217 -1959 0
1958 -217 1959 0
-1958 217 1959 0
1959 409 -1960 0
-1959 -409 -1960 0
1959 -409 1960 0
-1959 409 1960 0
1960 421 -1961 0
-1960 -421 -1961 0
1960 -421 1961 0
-1960 421 1961 0
1961 427 -1962 0
-1961 -427 -1962 0
1961 -427 1962 0
-1961 427 1962 0
1962 439 -1963 0
-1962 -439 -1963 0
1962 -439 1963 0
-1962 439 1963 0
-1963 0
211 212 -1964 0
-211 -212 -1964 0
211 -212 1964 0
-211 212 1964 0
1964 217 -1965 0
-1964 -217 -1965 0
1964 -217 1965 0
-1964 217 1965 0
1965 218 -1966 0
-1965 -218 -1966 0
1965 -218 1966 0
-1965 218 1966 0
1966 410 -1967 0
-1966 -410 -1967 0
1966 -410 1967 0
-1966 410 1967 0
1967 422 -1968 0
-1967 -422 -1968 0
1967 -422 1968 0
-1967 422 1968 0
1968 428 -1969 0
-1968 -428 -1969 0
1968 -428 1969 0
-1968 428 1969 0
1969 440 -1970 0
-1969 -440 -1970 0
1969 -440 1970 0
-1969 440 1970 0
-1970 0
212 213 -1971 0
-212 -213 -1971 0
212 -213 1971 0
-212 213 1971 0
1971 218 -1972 0
-1971 -218 -1972 0
1971 -218 1972 0
-1971 218 1972 0
1972 219 -1973 0
-1972 -219 -1973 0
1972 -219 1973 0
-1972 219 1973 0
1973 411 -1974 0
-1973 -411 -1974 0
1973 -411 1974 0
-1973 411 1974 0
1974 423 -1975 0
-1974 -423 -1975 0
1974 -423 1975 0
-1974 423 1975 0
1975 429 -1976 0
-1975 -429 -1976 0
1975 -429 1976 0
-1975 429 1976 0
1976 441 -1977 0
-1976 -441 -1977 0
1976 -441 1977 0
-1976 441 1977 0
-1977 0
213 214 -1978 0
-213 -214 -1978 0
213 -214 1978 0
-213 214 1978 0
1978 219 -1979 0
-1978 -219 -1979 0
1978 -219 1979 0
-1978 219 1979 0
1979 220 -1980 0
-1979 -220 -1980 0
1979 -220 1980 0
-1979 220 1980 0
1980 412 -1981 0
-1980 -412 -1981 0
1980 -412 1981 0
-1980 412 1981 0
1981 424 -1982 0
-1981 -424 -1982 0
1981 -424 1982 0
-1981 424 1982 0
1982 430 -1983 0
-1982 -430 -1983 0
1982 -430 1983 0
-1982 430 1983 0
1983 442 -1984 0
-1983 -442 -1984 0
1983 -442 1984 0
-1983 442 1984 0
-1984 0
214 215 -1985 0
-214 -215 -1985 0
214 -215 1985 0
-214 215 1985 0
1985 220 -1986 0
-1985 -220 -1986 0
1985 -220 1986 0
-1985 220 1986 0
1986 221 -1987 0
-1986 -221 -1987 0
1986 -221 1987 0
-1986 221 1987 0
1987 413 -1988 0
-1987 -413 -1988 0
1987 -413 1988 0
-1987 413 1988 0
1988 425 -1989 0
-1988 -425 -1989 0
1988 -425 1989 0
-1988 425 1989 0
1989 431 -1990 0
-1989 -431 -1990 0
1989 -431 1990 0
-1989 431 1990 0
1990 443 -1991 0
-1990 -443 -1991 0
1990 -443 1991 0
-1990 443 1991 0
-1991 0
215 216 -1992 0
-215 -216 -1992 0
215 -216 1992 0
-215 216 1992 0
1992 221 -1993 0
-1992 -221 -1993 0
1992 -221 1993 0
-1992 221 1993 0
1993 222 -1994 0
-1993 -222 -1994 0
1993 -222 1994 0
-1993 222 1994 0
1994 414 -1995 0
-1994 -414 -1995 0
1994 -414 1995 0
-1994 414 1995 0
1995 426 -1996 0
-1995 -426 -1996 0
1995 -426 1996 0
-1995 426 1996 0
1996 432 -1997 0
-1996 -432 -1997 0
1996 -432 1997 0
-1996 432 1997 0
1997 444 -1998 0
-1997 -444 -1998 0
1997 -444 1998 0
-1997 444 1998 0
-1998 0
1 229 -1999 0
-1 -229 -1999 0
1 -229 1999 0
-1 229 1999 0
1999 235 -2000 0
-1999 -235 -2000 0
1999 -235 2000 0
-1999 235 2000 0
2000 241 -2001 0
-2000 -241 -2001 0
2000 -241 2001 0
-2000 241 2001 0
2001 247 -2002 0
-2001 -247 -2002 0
2001 -247 2002 0
-2001 247 2002 0
2002 253 -2003 0
-2002 -253 -2003 0
2002 -253 2003 0
-2002 253 2003 0
2003 259 -2004 0
-2003 -259 -2004 0
2003 -259 2004 0
-2003 259 2004 0
2004 265 -2005 0
-2004 -265 -2005 0
2004 -265 2005 0
-2004 265 2005 0
2005 271 -2006 0
-2005 -271 -2006 0
2005 -271 2006 0
-2005 271 2006 0
2006 277 -2007 0
-2006 -277 -2007 0
2006 -277 2007 0
-2006 277 2007 0
2007 283 -2008 0
-2007 -283 -2008 0
2007 -283 2008 0
-2007 283 2008 0
2008 289 -2009 0
-2008 -289 -2009 0
2008 -289 2009 0
-2008 289 2009 0
2009 295 -2010 0
-2009 -295 -2010 0
2009 -295 2010 0
-2009 295 2010 0
2010 301 -2011 0
-2010 -301 -2011 0
2010 -301 2011 0
-2010 301 2011 0
2011 307 -2012 0
-2011 -307 -2012 0
2011 -307 2012 0
-2011 307 2012 0
2012 313 -2013 0
-2012 -313 -2013 0
2012 -313 2013 0
-2012 313 2013 0
2013 319 -2014 0
-2013 -319 -2014 0
2013 -319 2014 0
-2013 319 2014 0
2014 325 -2015 0
-2014 -325 -2015 0
2014 -325 2015 0
-2014 325 2015 0
2015 331 -2016 0
-2015 -331 -2016 0
2015 -331 2016 0
-2015 331 2016 0
2016 337 -2017 0
-2016 -337 -2017 0
2016 -337 2017 0
-2016 337 2017 0
2017 343 -2018 0
-2017 -343 -2018 0
2017 -343 2018 0
-2017 343 2018 0
2018 349 -2019 0
-2018 -349 -2019 0
2018 -349 2019 0
-2018 349 2019 0
2019 355 -2020 0
-2019 -355 -2020 0
2019 -355 2020 0
-2019 355 2020 0
2020 361 -2021 0
-2020 -361 -2021 0
2020 -361 2021 0
-2020 361 2021 0
2021 367 -2022 0
-2021 -367 -2022 0
2021 -367 2022 0
-2021 367 2022 0
2022 373 -2023 0
-2022 -373 -2023 0
2022 -373 2023 0
-2022 373 2023 0
2023 379 -2024 0
-2023 -379 -2024 0
2023 -379 2024 0
-2023 379 2024 0
2024 385 -2025 0
-2024 -385 -2025 0
2024 -385 2025 0
-2024 385 2025 0
2025 391 -2026 0
-2025 -391 -2026 0
2025 -391 2026 0
-2025 391 2026 0
2026 397 -2027 0
-2026 -397 -2027 0
2026 -397 2027 0
-2026 397 2027 0
2027 403 -2028 0
-2027 -403 -2028 0
2027 -403 2028 0
-2027 403 2028 0
2028 409 -2029 0
-2028 -409 -2029 0
2028 -409 2029 0
-2028 409 2029 0
2029 415 -2030 0
-2029 -415 -2030 0
2029 -415 2030 0
-2029 415 2030 0
2030 421 -2031 0
-2030 -421 -2031 0
2030 -421 2031 0
-2030 421 2031 0
2031 422 -2032 0
-2031 -422 -2032 0
2031 -422 2032 0
-2031 422 2032 0
2032 423 -2033 0
-2032 -423 -2033 0
2032 -423 2033 0
-2032 423 2033 0
2033 424 -2034 0
-2033 -424 -2034 0
2033 -424 2034 0
-2033 424 2034 0
2034 425 -2035 0
-2034 -425 -2035 0
2034 -425 2035 0
-2034 425 2035 0
2035 426 -2036 0
-2035 -426 -2036 0
2035 -426 2036 0
-2035 426 2036 0
2036 433 -2037 0
-2036 -433 -2037 0
2036 -433 2037 0
-2036 433 2037 0
2037 439 -2038 0
-2037 -439 -2038 0
2037 -439 2038 0
-2037 439 2038 0
2038 440 -2039 0
-2038 -440 -2039 0
2038 -440 2039 0
-2038 440 2039 0
2039 441 -2040 0
-2039 -441 -2040 0
2039 -441 2040 0
-2039 441 2040 0
2040 442 -2041 0
-2040 -442 -2041 0
2040 -442 2041 0
-2040 442 2041 0
2041 443 -2042 0
-2041 -443 -2042 0
2041 -443 2042 0
-2041 443 2042 0
2042 444 -2043 0
-2042 -444 -2043 0
2042 -444 2043 0
-2042 444 2043 0
2 229 -2044 0
-2 -229 -2044 0
2 -229 2044 0
-2 229 2044 0
2044 230 -2045 0
-2044 -230 -2045 0
2044 -230 2045 0
-2044 230 2045 0
2045 235 -2046 0
-2045 -235 -2046 0
2045 -235 2046 0
-2045 235 2046 0
2046 236 -2047 0
-2046 -236 -2047 0
2046 -236 2047 0
-2046 236 2047 0
2047 241 -2048 0
-2047 -241 -2048 0
2047 -241 2048 0
-2047 241 2048 0
2048 242 -2049 0
-2048 -242 -2049 0
2048 -242 2049 0
-2048 242 2049 0
2049 247 -2050 0
-2049 -247 -2050 0
2049 -247 2050 0
-2049 247 2050 0
2050 248 -2051 0
-2050 -248 -2051 0
2050 -248 2051 0
-2050 248 2051 0
2051 253 -2052 0
-2051 -253 -2052 0
2051 -253 2052 0
-2051 253 2052 0
2052 254 -2053 0
-2052 -254 -2053 0
2052 -254 2053 0
-2052 254 2053 0
2053 259 -2054 0
-2053 -259 -2054 0
2053 -259 2054 0
-2053 259 2054 0
2054 260 -2055 0
-2054 -260 -2055 0
2054 -260 2055 0
-2054 260 2055 0
2055 265 -2056 0
-2055 -265 -2056 0
2055 -265 2056 0
-2055 265 2056 0
2056 266 -2057 0
-2056 -266 -2057 0
2056 -266 2057 0
-2056 266 2057 0
2057 271 -2058 0
-2057 -271 -2058 0
2057 -271 2058 0
-2057 271 2058 0
2058 272 -2059 0
-2058 -272 -2059 0
2058 -272 2059 0
-2058 272 2059 0
2059 277 -2060 0
-2059 -277 -2060 0
2059 -277 2060 0
-2059 277 2060 0
2060 278 -2061 0
-2060 -278 -2061 0
2060 -278 2061 0
-2060 278 2061 0
2061 283 -2062 0
-2061 -283 -2062 0
2061 -283 2062 0
-2061 283 2062 0
2062 284 -2063 0
-2062 -284 -2063 0
2062 -284 2063 0
-2062 284 2063 0
2063 289 -2064 0
-2063 -289 -2064 0
2063 -289 2064 0
-2063 289 2064 0
2064 290 -2065 0
-2064 -290 -2065 0
2064 -290 2065 0
-2064 290 2065 0
2065 295 -2066 0
-2065 -295 -2066 0
2065 -295 2066 0
-2065 295 2066 0
2066 296 -2067 0
-2066 -296 -2067 0
2066 -296 2067 0
-2066 296 2067 0
2067 301 -2068 0
-2067 -301 -2068 0
2067 -301 2068 0
-2067 301 2068 0
2068 302 -2069 0
-2068 -302 -2069 0
2068 -302 2069 0
-2068 302 2069 0
2069 307 -2070 0
-2069 -307 -2070 0
2069 -307 2070 0
-2069 307 2070 0
2070 308 -2071 0
-2070 -308 -2071 0
2070 -308 2071 0
-2070 308 2071 0
2071 313 -2072 0
-2071 -313 -2072 0
2071 -313 2072 0
-2071 313 2072 0
2072 314 -2073 0
-2072 -314 -2073 0
2072 -314 2073 0
-2072 314 2073 0
2073 319 -2074 0
-2073 -319 -2074 0
2073 -319 2074 0
-2073 319 2074 0
2074 320 -2075 0
-2074 -320 -2075 0
2074 -320 2075 0
-2074 320 2075 0
2075 325 -2076 0
-2075 -325 -2076 0
2075 -325 2076 0
-2075 325 2076 0
2076 326 -2077 0
-2076 -326 -2077 0
2076 -326 2077 0
-2076 326 2077 0
2077 331 -2078 0
-2077 -331 -2078 0
2077 -331 2078 0
-2077 331 2078 0
2078 332 -2079 0
-2078 -332 -2079 0
2078 -332 2079 0
-2078 332 2079 0
2079 337 -2080 0
-2079 -337 -2080 0
2079 -337 2080 0
-2079 337 2080 0
2080 338 -2081 0
-2080 -338 -2081 0
2080 -338 2081 0
-2080 338 2081 0
2081 343 -2082 0
-2081 -343 -2082 0
2081 -343 2082 0
-2081 343 2082 0
2082 344 -2083 0
-2082 -344 -2083 0
2082 -344 2083 0
-2082 344 2083 0
2083 349 -2084 0
-2083 -349 -2084 0
2083 -349 2084 0
-2083 349 2084 0
2084 350 -2085 0
-2084 -350 -2085 0
2084 -350 2085 0
-2084 350 2085 0
2085 355 -2086 0
-2085 -355 -2086 0
2085 -355 2086 0
-2085 355 2086 0
2086 356 -2087 0
-2086 -356 -2087 0
2086 -356 2087 0
-2086 356 2087 0
2087 361 -2088 0
-2087 -361 -2088 0
2087 -361 2088 0
-2087 361 2088 0
2088 362 -2089 0
-2088 -362 -2089 0
2088 -362 2089 0
-2088 362 2089 0
2089 367 -2090 0
-2089 -367 -2090 0
2089 -367 2090 0
-2089 367 2090 0
2090 368 -2091 0
-2090 -368 -2091 0
2090 -368 2091 0
-2090 368 2091 0
2091 373 -2092 0
-2091 -373 -2092 0
2091 -373 2092 0
-2091 373 2092 0
2092 374 -2093 0
-2092 -374 -2093 0
2092 -374 2093 0
-2092 374 2093 0
2093 379 -2094 0
-2093 -379 -2094 0
2093 -379 2094 0
-2093 379 2094 0
2094 380 -2095 0
-2094 -380 -2095 0
2094 -380 2095 0
-2094 380 2095 0
2095 385 -2096 0
-2095 -385 -2096 0
2095 -385 2096 0
-2095 385 2096 0
2096 386 -2097 0
-2096 -386 -2097 0
2096 -386 2097 0
-2096 386 2097 0
2097 391 -2098 0
-2097 -391 -2098 0
2097 -391 2098 0
-2097 391 2098 0
2098 392 -2099 0
-2098 -392 -2099 0
2098 -392 2099 0
-2098 392 2099 0
2099 397 -2100 0
-2099 -397 -2100 0
2099 -397 2100 0
-2099 397 2100 0
2100 398 -2101 0
-2100 -398 -2101 0
2100 -398 2101 0
-2100 398 2101 0
2101 403 -2102 0
-2101 -403 -2102 0
2101 -403 2102 0
-2101 403 2102 0
2102 404 -2103 0
-2102 -404 -2103 0
2102 -404 2103 0
-2102 404 2103 0
2103 409 -2104 0
-2103 -409 -2104 0
2103 -409 2104 0
-2103 409 2104 0
2104 410 -2105 0
-2104 -410 -2105 0
2104 -410 2105 0
-2104 410 2105 0
2105 415 -2106 0
-2105 -415 -2106 0
2105 -415 2106 0
-2105 415 2106 0
2106 416 -2107 0
-2106 -416 -2107 0
2106 -416 2107 0
-2106 416 2107 0
2107 421 -2108 0
-2107 -421 -2108 0
2107 -421 2108 0
-2107 421 2108 0
2108 422 -2109 0
-2108 -422 -2109 0
2108 -422 2109 0
-2108 422 2109 0
2109 423 -2110 0
-2109 -423 -2110 0
2109 -423 2110 0
-2109 423 2110 0
2110 424 -2111 0
-2110 -424 -2111 0
2110 -424 2111 0
-2110 424 2111 0
2111 425 -2112 0
-2111 -425 -2112 0
2111 -425 2112 0
-2111 425 2112 0
2112 426 -2113 0
-2112 -426 -2113 0
2112 -426 2113 0
-2112 426 2113 0
2113 433 -2114 0
-2113 -433 -2114 0
2113 -433 2114 0
-2113 433 2114 0
2114 434 -2115 0
-2114 -434 -2115 0
2114 -434 2115 0
-2114 434 2115 0
2115 439 -2116 0
-2115 -439 -2116 0
2115 -439 2116 0
-2115 439 2116 0
2116 440 -2117 0
-2116 -440 -2117 0
2116 -440 2117 0
-2116 440 2117 0
2117 441 -2118 0
-2117 -441 -2118 0
2117 -441 2118 0
-2117 441 2118 0
2118 442 -2119 0
-2118 -442 -2119 0
2118 -442 2119 0
-2118 442 2119 0
2119 443 -2120 0
-2119 -443 -2120 0
2119 -443 2120 0
-2119 443 2120 0
2120 444 -2121 0
-2120 -444 -2121 0
2120 -444 2121 0
-2120 444 2121 0
3 229 -2122 0
-3 -229 -2122 0
3 -229 2122 0
-3 229 2122 0
2122 230 -2123 0
-2122 -230 -2123 0
2122 -230 2123 0
-2122 230 2123 0
2123 231 -2124 0
-2123 -231 -2124 0
2123 -231 2124 0
-2123 231 2124 0
2124 235 -2125 0
-2124 -235 -2125 0
2124 -235 2125 0
-2124 235 2125 0
2125 236 -2126 0
-2125 -236 -2126 0
2125 -236 2126 0
-2125 236 2126 0
2126 237 -2127 0
-2126 -237 -2127 0
2126 -237 2127 0
-2126 237 2127 0
2127 241 -2128 0
-2127 -241 -2128 0
2127 -241 2128 0
-2127 241 2128 0
2128 242 -2129 0
-2128 -242 -2129 0
2128 -242 2129 0
-2128 242 2129 0
2129 243 -2130 0
-2129 -243 -2130 0
2129 -243 2130 0
-2129 243 2130 0
2130 247 -2131 0
-2130 -247 -2131 0
2130 -247 2131 0
-2130 247 2131 0
2131 248 -2132 0
-2131 -248 -2132 0
2131 -248 2132 0
-2131 248 2132 0
2132 249 -2133 0
-2132 -249 -2133 0
2132 -249 2133 0
-2132 249 2133 0
2133 253 -2134 0
-2133 -253 -2134 0
2133 -253 2134 0
-2133 253 2134 0
2134 254 -2135 0
-2134 -254 -2135 0
2134 -254 2135 0
-2134 254 2135 0
2135 255 -2136 0
-2135 -255 -2136 0
2135 -255 2136 0
-2135 255 2136 0
2136 259 -2137 0
-2136 -259 -2137 0
2136 -259 2137 0
-2136 259 2137 0
2137 260 -2138 0
-2137 -260 -2138 0
2137 -260 2138 0
-2137 260 2138 0
2138 261 -2139 0
-2138 -261 -2139 0
2138 -261 2139 0
-2138 261 2139 0
2139 265 -2140 0
-2139 -265 -2140 0
2139 -265 2140 0
-2139 265 2140 0
2140 266 -2141 0
-2140 -266 -2141 0
2140 -266 2141 0
-2140 266 2141 0
2141 267 -2142 0
-2141 -267 -2142 0
2141 -267 2142 0
-2141 267 2142 0
2142 271 -2143 0
-2142 -271 -2143 0
2142 -271 2143 0
-2142 271 2143 0
2143 272 -2144 0
-2143 -272 -2144 0
2143 -272 2144 0
-2143 272 2144 0
2144 273 -2145 0
-2144 -273 -2145 0
2144 -273 2145 0
-2144 273 2145 0
2145 277 -2146 0
-2145 -277 -2146 0
2145 -277 2146 0
-2145 277 2146 0
2146 278 -2147 0
-2146 -278 -2147 0
2146 -278 2147 0
-2146 278 2147 0
2147 279 -2148 0
-2147 -279 -2148 0
2147 -279 2148 0
-2147 279 2148 0
2148 283 -2149 0
-2148 -283 -2149 0
2148 -283 2149 0
-2148 283 2149 0
2149 284 -2150 0
-2149 -284 -2150 0
2149 -284 2150 0
-2149 284 2150 0
2150 285 -2151 0
-2150 -285 -2151 0
2150 -285 2151 0
-2150 285 2151 0
2151 289 -2152 0
-2151 -289 -2152 0
2151 -289 2152 0
-2151 289 2152 0
2152 290 -2153 0
-2152 -290 -2153 0
2152 -290 2153 0
-2152 290 2153 0
2153 291 -2154 0
-2153 -291 -2154 0
2153 -291 2154 0
-2153 291 2154 0
2154 295 -2155 0
-2154 -295 -2155 0
2154 -295 2155 0
-2154 295 2155 0
2155 296 -2156 0
-2155 -296 -2156 0
2155 -296 2156 0
-2155 296 2156 0
2156 297 -2157 0
-2156 -297 -2157 0
2156 -297 2157 0
-2156 297 2157 0
2157 301 -2158 0
-2157 -301 -2158 0
2157 -301 2158 0
-2157 301 2158 0
2158 302 -2159 0
-2158 -302 -2159 0
2158 -302 2159 0
-2158 302 2159 0
2159 303 -2160 0
-2159 -303 -2160 0
2159 -303 2160 0
-2159 303 2160 0
2160 307 -2161 0
-2160 -307 -2161 0
2160 -307 2161 0
-2160 307 2161 0
2161 308 -2162 0
-2161 -308 -2162 0
2161 -308 2162 0
-2161 308 2162 0
2162 309 -2163 0
-2162 -309 -2163 0
2162 -309 2163 0
-2162 309 2163 0
2163 313 -2164 0
-2163 -313 -2164 0
2163 -313 2164 0
-2163 313 2164 0
2164 314 -2165 0
-2164 -314 -2165 0
2164 -314 2165 0
-2164 314 2165 0
2165 315 -2166 0
-2165 -315 -2166 0
2165 -315 2166 0
-2165 315 2166 0
2166 319 -2167 0
-2166 -319 -2167 0
2166 -319 2167 0
-2166 319 2167 0
2167 320 -2168 0
-2167 -320 -2168 0
2167 -320 2168 0
-2167 320 2168 0
2168 321 -2169 0
-2168 -321 -2169 0
2168 -321 2169 0
-2168 321 2169 0
2169 325 -2170 0
-2169 -325 -2170 0
2169 -325 2170 0
-2169 325 2170 0
2170 326 -2171 0
-2170 -326 -2171 0
2170 -326 2171 0
-2170 326 2171 0
2171 327 -2172 0
-2171 -327 -2172 0
2171 -327 2172 0
-2171 327 2172 0
2172 331 -2173 0
-2172 -331 -2173 0
2172 -331 2173 0
-2172 331 2173 0
2173 332 -2174 0
-2173 -332 -2174 0
2173 -332 2174 0
-2173 332 2174 0
2174 333 -2175 0
-2174 -333 -2175 0
2174 -333 2175 0
-2174 333 2175 0
2175 337 -2176 0
-2175 -337 -2176 0
2175 -337 2176 0
-2175 337 2176 0
2176 338 -2177 0
-2176 -338 -2177 0
2176 -338 2177 0
-2176 338 2177 0
2177 339 -2178 0
-2177 -339 -2178 0
2177 -339 2178 0
-2177 339 2178 0
2178 343 -2179 0
-2178 -343 -2179 0
2178 -343 2179 0
-2178 343 2179 0
2179 344 -2180 0
-2179 -344 -2180 0
2179 -344 2180 0
-2179 344 2180 0
2180 345 -2181 0
-2180 -345 -2181 0
2180 -345 2181 0
-2180 345 2181 0
2181 349 -2182 0
-2181 -349 -2182 0
2181 -349 2182 0
-2181 349 2182 0
2182 350 -2183 0
-2182 -350 -2183 0
2182 -350 2183 0
-2182 350 2183 0
2183 351 -2184 0
-2183 -351 -2184 0
2183 -351 2184 0
-2183 351 2184 0
2184 355 -2185 0
-2184 -355 -2185 0
2184 -355 2185 0
-2184 355 2185 0
2185 356 -2186 0
-2185 -356 -2186 0
2185 -356 2186 0
-2185 356 2186 0
2186 357 -2187 0
-2186 -357 -2187 0
2186 -357 2187 0
-2186 357 2187 0
2187 361 -2188 0
-2187 -361 -2188 0
2187 -361 2188 0
-2187 361 2188 0
2188 362 -2189 0
-2188 -362 -2189 0
2188 -362 2189 0
-2188 362 2189 0
2189 363 -2190 0
-2189 -363 -2190 0
2189 -363 2190 0
-2189 363 2190 0
2190 367 -2191 0
-2190 -367 -2191 0
2190 -367 2191 0
-2190 367 2191 0
2191 368 -2192 0
-2191 -368 -2192 0
2191 -368 2192 0
-2191 368 2192 0
2192 369 -2193 0
-2192 -369 -2193 0
2192 -369 2193 0
-2192 369 2193 0
2193 373 -2194 0
-2193 -373 -2194 0
2193 -373 2194 0
-2193 373 2194 0
2194 374 -2195 0
-2194 -374 -2195 0
2194 -374 2195 0
-2194 374 2195 0
2195 375 -2196 0
-2195 -375 -2196 0
2195 -375 2196 0
-2195 375 2196 0
2196 379 -2197 0
-2196 -379 -2197 0
2196 -379 2197 0
-2196 379 2197 0
2197 380 -2198 0
-2197 -380 -2198 0
2197 -380 2198 0
-2197 380 2198 0
2198 381 -2199 0
-2198 -381 -2199 0
2198 -381 2199 0
-2198 381 2199 0
2199 385 -2200 0
-2199 -385 -2200 0
2199 -385 2200 0
-2199 385 2200 0
2200 386 -2201 0
-2200 -386 -2201 0
2200 -386 2201 0
-2200 386 2201 0
2201 387 -2202 0
-2201 -387 -2202 0
2201 -387 2202 0
-2201 387 2202 0
2202 391 -2203 0
-2202 -391 -2203 0
2202 -391 2203 0
-2202 391 2203 0
2203 392 -2204 0
-2203 -392 -2204 0
2203 -392 2204 0
-2203 392 2204 0
2204 393 -2205 0
-2204 -393 -2205 0
2204 -393 2205 0
-2204 393 2205 0
2205 397 -2206 0
-2205 -397 -2206 0
2205 -397 2206 0
-2205 397 2206 0
2206 398 -2207 0
-2206 -398 -2207 0
2206 -398 2207 0
-2206 398 2207 0
2207 399 -2208 0
-2207 -399 -2208 0
2207 -399 2208 0
-2207 399 2208 0
2208 403 -2209 0
-2208 -403 -2209 0
2208 -403 2209 0
-2208 403 2209 0
2209 404 -2210 0
-2209 -404 -2210 0
2209 -404 2210 0
-2209 404 2210 0
2210 405 -2211 0
-2210 -405 -2211 0
2210 -405 2211 0
-2210 405 2211 0
2211 409 -2212 0
-2211 -409 -2212 0
2211 -409 2212 0
-2211 409 2212 0
2212 410 -2213 0
-2212 -410 -2213 0
2212 -410 2213 0
-2212 410 2213 0
2213 411 -2214 0
-2213 -411 -2214 0
2213 -411 2214 0
-2213 411 2214 0
2214 415 -2215 0
-2214 -415 -2215 0
2214 -415 2215 0
-2214 415 2215 0
2215 416 -2216 0
-2215 -416 -2216 0
2215 -416 2216 0
-2215 416 2216 0
2216 417 -2217 0
-2216 -417 -2217 0
2216 -417 2217 0
-2216 417 2217 0
2217 421 -2218 0
-2217 -421 -2218 0
2217 -421 2218 0
-2217 421 2218 0
2218 422 -2219 0
-2218 -422 -2219 0
2218 -422 2219 0
-2218 422 2219 0
2219 423 -2220 0
-2219 -423 -2220 0
2219 -423 2220 0
-2219 423 2220 0
2220 424 -2221 0
-2220 -424 -2221 0
2220 -424 2221 0
-2220 424 2221 0
2221 425 -2222 0
-2221 -425 -2222 0
2221 -425 2222 0
-2221 425 2222 0
2222 426 -2223 0
-2222 -426 -2223 0
2222 -426 2223 0
-2222 426 2223 0
2223 433 -2224 0
-2223 -433 -2224 0
2223 -433 2224 0
-2223 433 2224 0
2224 434 -2225 0
-2224 -434 -2225 0
2224 -434 2225 0
-2224 434 2225 0
2225 435 -2226 0
-2225 -435 -2226 0
2225 -435 2226 0
-2225 435 2226 0
2226 439 -2227 0
-2226 -439 -2227 0
2226 -439 2227 0
-2226 439 2227 0
2227 440 -2228 0
-2227 -440 -2228 0
2227 -440 2228 0
-2227 440 2228 0
2228 441 -2229 0
-2228 -441 -2229 0
2228 -441 2229 0
-2228 441 2229 0
2229 442 -2230 0
-2229 -442 -2230 0
2229 -442 2230 0
-2229 442 2230 0
2230 443 -2231 0
-2230 -443 -2231 0
2230 -443 2231 0
-2230 443 2231 0
2231 444 -2232 0
-2231 -444 -2232 0
2231 -444 2232 0
-2231 444 2232 0
4 229 -2233 0
-4 -229 -2233 0
4 -229 2233 0
-4 229 2233 0
2233 230 -2234 0
-2233 -230 -2234 0
2233 -230 2234 0
-2233 230 2234 0
2234 231 -2235 0
-2234 -231 -2235 0
2234 -231 2235 0
-2234 231 2235 0
2235 232 -2236 0
-2235 -232 -2236 0
2235 -232 2236 0
-2235 232 2236 0
2236 235 -2237 0
-2236 -235 -2237 0
2236 -235 2237 0
-2236 235 2237 0
2237 236 -2238 0
-2237 -236 -2238 0
2237 -236 2238 0
-2237 236 2238 0
2238 237 -2239 0
-2238 -237 -2239 0
2238 -237 2239 0
-2238 237 2239 0
2239 238 -2240 0
-2239 -238 -2240 0
2239 -238 2240 0
-2239 238 2240 0
2240 241 -2241 0
-2240 -241 -2241 0
2240 -241 2241 0
-2240 241 2241 0
2241 242 -2242 0
-2241 -242 -2242 0
2241 -242 2242 0
-2241 242 2242 0
2242 243 -2243 0
-2242 -243 -2243 0
2242 -243 2243 0
-2242 243 2243 0
2243 244 -2244 0
-2243 -244 -2244 0
2243 -244 2244 0
-2243 244 2244 0
2244 247 -2245 0
-2244 -247 -2245 0
2244 -247 2245 0
-2244 247 2245 0
2245 248 -2246 0
-2245 -248 -2246 0
2245 -248 2246 0
-2245 248 2246 0
2246 249 -2247 0
-2246 -249 -2247 0
2246 -249 2247 0
-2246 249 2247 0
2247 250 -2248 0
-2247 -250 -2248 0
2247 -250 2248 0
-2247 250 2248 0
2248 253 -2249 0
-2248 -253 -2249 0
2248 -253 2249 0
-2248 253 2249 0
2249 254 -2250 0
-2249 -254 -2250 0
2249 -254 2250 0
-2249 254 2250 0
2250 255 -2251 0
-2250 -255 -2251 0
2250 -255 2251 0
-2250 255 2251 0
2251 256 -2252 0
-2251 -256 -2252 0
2251 -256 2252 0
-2251 256 2252 0
2252 259 -2253 0
-2252 -259 -2253 0
2252 -259 2253 0
-2252 259 2253 0
2253 260 -2254 0
-2253 -260 -2254 0
2253 -260 2254 0
-2253 260 2254 0
2254 261 -2255 0
-2254 -261 -2255 0
2254 -261 2255 0
-2254 261 2255 0
2255 262 -2256 0
-2255 -262 -2256 0
2255 -262 2256 0
-2255 262 2256 0
2256 265 -2257 0
-2256 -265 -2257 0
2256 -265 2257 0
-2256 265 2257 0
2257 266 -2258 0
-2257 -266 -2258 0
2257 -266 2258 0
-2257 266 2258 0
2258 267 -2259 0
-2258 -267 -2259 0
2258 -267 2259 0
-2258 267 2259 0
2259 268 -2260 0
-2259 -268 -2260 0
2259 -268 2260 0
-2259 268 2260 0
2260 271 -2261 0
-2260 -271 -2261 0
2260 -271 2261 0
-2260 271 2261 0
2261 272 -2262 0
-2261 -272 -2262 0
2261 -272 2262 0
-2261 272 2262 0
2262 273 -2263 0
-2262 -273 -2263 0
2262 -273 2263 0
-2262 273 2263 0
2263 274 -2264 0
-2263 -274 -2264 0
2263 -274 2264 0
-2263 274 2264 0
2264 277 -2265 0
-2264 -277 -2265 0
2264 -277 2265 0
-2264 277 2265 0
2265 278 -2266 0
-2265 -278 -2266 0
2265 -278 2266 0
-2265 278 2266 0
2266 279 -2267 0
-2266 -279 -2267 0
2266 -279 2267 0
-2266 279 2267 0
2267 280 -2268 0
-2267 -280 -2268 0
2267 -280 2268 0
-2267 280 2268 0
2268 283 -2269 0
-2268 -283 -2269 0
2268 -283 2269 0
-2268 283 2269 0
2269 284 -2270 0
-2269 -284 -2270 0
2269 -284 2270 0
-2269 284 2270 0
2270 285 -2271 0
-2270 -285 -2271 0
2270 -285 2271 0
-2270 285 2271 0
2271 286 -2272 0
-2271 -286 -2272 0
2271 -286 2272 0
-2271 286 2272 0
2272 289 -2273 0
-2272 -289 -2273 0
2272 -289 2273 0
-2272 289 2273 0
2273 290 -2274 0
-2273 -290 -2274 0
2273 -290 2274 0
-2273 290 2274 0
2274 291 -2275 0
-2274 -291 -2275 0
2274 -291 2275 0
-2274 291 2275 0
2275 292 -2276 0
-2275 -292 -2276 0
2275 -292 2276 0
-2275 292 2276 0
2276 295 -2277 0
-2276 -295 -2277 0
2276 -295 2277 0
-2276 295 2277 0
2277 296 -2278 0
-2277 -296 -2278 0
2277 -296 2278 0
-2277 296 2278 0
2278 297 -2279 0
-2278 -297 -2279 0
2278 -297 2279 0
-2278 297 2279 0
2279 298 -2280 0
-2279 -298 -2280 0
2279 -298 2280 0
-2279 298 2280 0
2280 301 -2281 0
-2280 -301 -2281 0
2280 -301 2281 0
-2280 301 2281 0
2281 302 -2282 0
-2281 -302 -2282 0
2281 -302 2282 0
-2281 302 2282 0
2282 303 -2283 0
-2282 -303 -2283 0
2282 -303 2283 0
-2282 303 2283 0
2283 304 -2284 0
-2283 -304 -2284 0
2283 -304 2284 0
-2283 304 2284 0
2284 307 -2285 0
-2284 -307 -2285 0
2284 -307 2285 0
-2284 307 2285 0
2285 308 -2286 0
-2285 -308 -2286 0
2285 -308 2286 0
-2285 308 2286 0
2286 309 -2287 0
-2286 -309 -2287 0
2286 -309 2287 0
-2286 309 2287 0
2287 310 -2288 0
-2287 -310 -2288 0
2287 -310 2288 0
-2287 310 2288 0
2288 313 -2289 0
-2288 -313 -2289 0
2288 -313 2289 0
-2288 313 2289 0
2289 314 -2290 0
-2289 -314 -2290 0
2289 -314 2290 0
-2289 314 2290 0
2290 315 -2291 0
-2290 -315 -2291 0
2290 -315 2291 0
-2290 315 2291 0
2291 316 -2292 0
-2291 -316 -2292 0
2291 -316 2292 0
-2291 316 2292 0
2292 319 -2293 0
-2292 -319 -2293 0
2292 -319 2293 0
-2292 319 2293 0
2293 320 -2294 0
-2293 -320 -2294 0
2293 -320 2294 0
-2293 320 2294 0
2294 321 -2295 0
-2294 -321 -2295 0
2294 -321 2295 0
-2294 321 2295 0
2295 322 -2296 0
-2295 -322 -2296 0
2295 -322 2296 0
-2295 322 2296 0
2296 325 -2297 0
-2296 -325 -2297 0
2296 -325 2297 0
-2296 325 2297 0
2297 326 -2298 0
-2297 -326 -2298 0
2297 -326 2298 0
-2297 326 2298 0
2298 327 -2299 0
-2298 -327 -2299 0
2298 -327 2299 0
-2298 327 2299 0
2299 328 -2300 0
-2299 -328 -2300 0
2299 -328 2300 0
-2299 328 2300 0
2300 331 -2301 0
-2300 -331 -2301 0
2300 -331 2301 0
-2300 331 2301 0
2301 332 -2302 0
-2301 -332 -2302 0
2301 -332 2302 0
-2301 332 2302 0
2302 333 -2303 0
-2302 -333 -2303 0
2302 -333 2303 0
-2302 333 2303 0
2303 334 -2304 0
-2303 -334 -2304 0
2303 -334 2304 0
-2303 334 2304 0
2304 337 -2305 0
-2304 -337 -2305 0
2304 -337 2305 0
-2304 337 2305 0
2305 338 -2306 0
-2305 -338 -2306 0
2305 -338 2306 0
-2305 338 2306 0
2306 339 -2307 0
-2306 -339 -2307 0
2306 -339 2307 0
-2306 339 2307 0
2307 340 -2308 0
-2307 -340 -2308 0
2307 -340 2308 0
-2307 340 2308 0
2308 343 -2309 0
-2308 -343 -2309 0
2308 -343 2309 0
-2308 343 2309 0
2309 344 -2310 0
-2309 -344 -2310 0
2309 -344 2310 0
-2309 344 2310 0
2310 345 -2311 0
-2310 -345 -2311 0
2310 -345 2311 0
-2310 345 2311 0
2311 346 -2312 0
-2311 -346 -2312 0
2311 -346 2312 0
-2311 346 2312 0
2312 349 -2313 0
-2312 -349 -2313 0
2312 -349 2313 0
-2312 349 2313 0
2313 350 -2314 0
-2313 -350 -2314 0
2313 -350 2314 0
-2313 350 2314 0
2314 351 -2315 0
-2314 -351 -2315 0
2314 -351 2315 0
-2314 351 2315 0
2315 352 -2316 0
-2315 -352 -2316 0
2315 -352 2316 0
-2315 352 2316 0
2316 355 -2317 0
-2316 -355 -2317 0
2316 -355 2317 0
-2316 355 2317 0
2317 356 -2318 0
-2317 -356 -2318 0
2317 -356 2318 0
-2317 356 2318 0
2318 357 -2319 0
-2318 -357 -2319 0
2318 -357 2319 0
-2318 357 2319 0
2319 358 -2320 0
-2319 -358 -2320 0
2319 -358 2320 0
-2319 358 2320 0
2320 361 -2321 0
-2320 -361 -2321 0
2320 -361 2321 0
-2320 361 2321 0
2321 362 -2322 0
-2321 -362 -2322 0
2321 -362 2322 0
-2321 362 2322 0
2322 363 -2323 0
-2322 -363 -2323 0
2322 -363 2323 0
-2322 363 2323 0
2323 364 -2324 0
-2323 -364 -2324 0
2323 -364 2324 0
-2323 364 2324 0
2324 367 -2325 0
-2324 -367 -2325 0
2324 -367 2325 0
-2324 367 2325 0
2325 368 -2326 0
-2325 -368 -2326 0
2325 -368 2326 0
-2325 368 2326 0
2326 369 -2327 0
-2326 -369 -2327 0
2326 -369 2327 0
-2326 369 2327 0
2327 370 -2328 0
-2327 -370 -2328 0
2327 -370 2328 0
-2327 370 2328 0
2328 373 -2329 0
-2328 -373 -2329 0
2328 -373 2329 0
-2328 373 2329 0
2329 374 -2330 0
-2329 -374 -2330 0
2329 -374 2330 0
-2329 374 2330 0
2330 375 -2331 0
-2330 -375 -2331 0
2330 -375 2331 0
-2330 375 2331 0
2331 376 -2332 0
-2331 -376 -2332 0
2331 -376 2332 0
-2331 376 2332 0
2332 379 -2333 0
-2332 -379 -2333 0
2332 -379 2333 0
-2332 379 2333 0
2333 380 -2334 0
-2333 -380 -2334 0
2333 -380 2334 0
-2333 380 2334 0
2334 381 -2335 0
-2334 -381 -2335 0
2334 -381 2335 0
-2334 381 2335 0
2335 382 -2336 0
-2335 -382 -2336 0
2335 -382 2336 0
-2335 382 2336 0
2336 385 -2337 0
-2336 -385 -2337 0
2336 -385 2337 0
-2336 385 2337 0
2337 386 -2338 0
-2337 -386 -2338 0
2337 -386 2338 0
-2337 386 2338 0
2338 387 -2339 0
-2338 -387 -2339 0
2338 -387 2339 0
-2338 387 2339 0
2339 388 -2340 0
-2339 -388 -2340 0
2339 -388 2340 0
-2339 388 2340 0
2340 391 -2341 0
-2340 -391 -2341 0
2340 -391 2341 0
-2340 391 2341 0
2341 392 -2342 0
-2341 -392 -2342 0
2341 -392 2342 0
-2341 392 2342 0
2342 393 -2343 0
-2342 -393 -2343 0
2342 -393 2343 0
-2342 393 2343 0
2343 394 -2344 0
-2343 -394 -2344 0
2343 -394 2344 0
-2343 394 2344 0
2344 397 -2345 0
-2344 -397 -2345 0
2344 -397 2345 0
-2344 397 2345 0
2345 398 -2346 0
-2345 -398 -2346 0
2345 -398 2346 0
-2345 398 2346 0
2346 399 -2347 0
-2346 -399 -2347 0
2346 -399 2347 0
-2346 399 2347 0
2347 400 -2348 0
-2347 -400 -2348 0
2347 -400 2348 0
-2347 400 2348 0
2348 403 -2349 0
-2348 -403 -2349 0
2348 -403 2349 0
-2348 403 2349 0
2349 404 -2350 0
-2349 -404 -2350 0
2349 -404 2350 0
-2349 404 2350 0
2350 405 -2351 0
-2350 -405 -2351 0
2350 -405 2351 0
-2350 405 2351 0
2351 406 -2352 0
-2351 -406 -2352 0
2351 -406 2352 0
-2351 406 2352 0
2352 409 -2353 0
-2352 -409 -2353 0
2352 -409 2353 0
-2352 409 2353 0
2353 410 -2354 0
-2353 -410 -2354 0
2353 -410 2354 0
-2353 410 2354 0
2354 411 -2355 0
-2354 -411 -2355 0
2354 -411 2355 0
-2354 411 2355 0
2355 412 -2356 0
-2355 -412 -2356 0
2355 -412 2356 0
-2355 412 2356 0
2356 415 -2357 0
-2356 -415 -2357 0
2356 -415 2357 0
-2356 415 2357 0
2357 416 -2358 0
-2357 -416 -2358 0
2357 -416 2358 0
-2357 416 2358 0
2358 417 -2359 0
-2358 -417 -2359 0
2358 -417 2359 0
-2358 417 2359 0
2359 418 -2360 0
-2359 -418 -2360 0
2359 -418 2360 0
-2359 418 2360 0
2360 421 -2361 0
-2360 -421 -2361 0
2360 -421 2361 0
-2360 421 2361 0
2361 422 -2362 0
-2361 -422 -2362 0
2361 -422 2362 0
-2361 422 2362 0
2362 423 -2363 0
-2362 -423 -2363 0
2362 -423 2363 0
-2362 423 2363 0
2363 424 -2364 0
-2363 -424 -2364 0
2363 -424 2364 0
-2363 424 2364 0
2364 425 -2365 0
-2364 -425 -2365 0
2364 -425 2365 0
-2364 425 2365 0
2365 426 -2366 0
-2365 -426 -2366 0
2365 -426 2366 0
-2365 426 2366 0
2366 433 -2367 0
-2366 -433 -2367 0
2366 -433 2367 0
-2366 433 2367 0
2367 434 -2368 0
-2367 -434 -2368 0
2367 -434 2368 0
-2367 434 2368 0
2368 435 -2369 0
-2368 -435 -2369 0
2368 -435 2369 0
-2368 435 2369 0
2369 436 -2370 0
-2369 -436 -2370 0
2369 -436 2370 0
-2369 436 2370 0
2370 439 -2371 0
-2370 -439 -2371 0
2370 -439 2371 0
-2370 439 2371 0
2371 440 -2372 0
-2371 -440 -2372 0
2371 -440 2372 0
-2371 440 2372 0
2372 441 -2373 0
-2372 -441 -2373 0
2372 -441 2373 0
-2372 441 2373 0
2373 442 -2374 0
-2373 -442 -2374 0
2373 -442 2374 0
-2373 442 2374 0
2374 443 -2375 0
-2374 -443 -2375 0
2374 -443 2375 0
-2374 443 2375 0
2375 444 -2376 0
-2375 -444 -2376 0
2375 -444 2376 0
-2375 444 2376 0
5 229 -2377 0
-5 -229 -2377 0
5 -229 2377 0
-5 229 2377 0
2377 230 -2378 0
-2377 -230 -2378 0
2377 -230 2378 0
-2377 230 2378 0
2378 231 -2379 0
-2378 -231 -2379 0
2378 -231 2379 0
-2378 231 2379 0
2379 232 -2380 0
-2379 -232 -2380 0
2379 -232 2380 0
-2379 232 2380 0
2380 233 -2381 0
-2380 -233 -2381 0
2380 -233 2381 0
-2380 233 2381 0
2381 235 -2382 0
-2381 -235 -2382 0
2381 -235 2382 0
-2381 235 2382 0
2382 236 -2383 0
-2382 -236 -2383 0
2382 -236 2383 0
-2382 236 2383 0
2383 237 -2384 0
-2383 -237 -2384 0
2383 -237 2384 0
-2383 237 2384 0
2384 238 -2385 0
-2384 -238 -2385 0
2384 -238 2385 0
-2384 238 2385 0
2385 239 -2386 0
-2385 -239 -2386 0
2385 -239 2386 0
-2385 239 2386 0
2386 241 -2387 0
-2386 -241 -2387 0
2386 -241 2387 0
-2386 241 2387 0
2387 242 -2388 0
-2387 -242 -2388 0
2387 -242 2388 0
-2387 242 2388 0
2388 243 -2389 0
-2388 -243 -2389 0
2388 -243 2389 0
-2388 243 2389 0
2389 244 -2390 0
-2389 -244 -2390 0
2389 -244 2390 0
-2389 244 2390 0
2390 245 -2391 0
-2390 -245 -2391 0
2390 -245 2391 0
-2390 245 2391 0
2391 247 -2392 0
-2391 -247 -2392 0
2391 -247 2392 0
-2391 247 2392 0
2392 248 -2393 0
-2392 -248 -2393 0
2392 -248 2393 0
-2392 248 2393 0
2393 249 -2394 0
-2393 -249 -2394 0
2393 -249 2394 0
-2393 249 2394 0
2394 250 -2395 0
-2394 -250 -2395 0
2394 -250 2395 0
-2394 250 2395 0
2395 251 -2396 0
-2395 -251 -2396 0
2395 -251 2396 0
-2395 251 2396 0
2396 253 -2397 0
-2396 -253 -2397 0
2396 -253 2397 0
-2396 253 2397 0
2397 254 -2398 0
-2397 -254 -2398 0
2397 -254 2398 0
-2397 254 2398 0
2398 255 -2399 0
-2398 -255 -2399 0
2398 -255 2399 0
-2398 255 2399 0
2399 256 -2400 0
-2399 -256 -2400 0
2399 -256 2400 0
-2399 256 2400 0
2400 257 -2401 0
-2400 -257 -2401 0
2400 -257 2401 0
-2400 257 2401 0
2401 259 -2402 0
-2401 -259 -2402 0
2401 -259 2402 0
-2401 259 2402 0
2402 260 -2403 0
-2402 -260 -2403 0
2402 -260 2403 0
-2402 260 2403 0
2403 261 -2404 0
-2403 -261 -2404 0
2403 -261 2404 0
-2403 261 2404 0
2404 262 -2405 0
-2404 -262 -2405 0
2404 -262 2405 0
-2404 262 2405 0
2405 263 -2406 0
-2405 -263 -2406 0
2405 -263 2406 0
-2405 263 2406 0
2406 265 -2407 0
-2406 -265 -2407 0
2406 -265 2407 0
-2406 265 2407 0
2407 266 -2408 0
-2407 -266 -2408 0
2407 -266 2408 0
-2407 266 2408 0
2408 267 -2409 0
-2408 -267 -2409 0
2408 -267 2409 0
-2408 267 2409 0
2409 268 -2410 0
-2409 -268 -2410 0
2409 -268 2410 0
-2409 268 2410 0
2410 269 -2411 0
-2410 -269 -2411 0
2410 -269 2411 0
-2410 269 2411 0
2411 271 -2412 0
-2411 -271 -2412 0
2411 -271 2412 0
-2411 271 2412 0
2412 272 -2413 0
-2412 -272 -2413 0
2412 -272 2413 0
-2412 272 2413 0
2413 273 -2414 0
-2413 -273 -2414 0
2413 -273 2414 0
-2413 273 2414 0
2414 274 -2415 0
-2414 -274 -2415 0
2414 -274 2415 0
-2414 274 2415 0
2415 275 -2416 0
-2415 -275 -2416 0
2415 -275 2416 0
-2415 275 2416 0
2416 277 -2417 0
-2416 -277 -2417 0
2416 -277 2417 0
-2416 277 2417 0
2417 278 -2418 0
-2417 -278 -2418 0
2417 -278 2418 0
-2417 278 2418 0
2418 279 -2419 0
-2418 -279 -2419 0
2418 -279 2419 0
-2418 279 2419 0
2419 280 -2420 0
-2419 -280 -2420 0
2419 -280 2420 0
-2419 280 2420 0
2420 281 -2421 0
-2420 -281 -2421 0
2420 -281 2421 0
-2420 281 2421 0
2421 283 -2422 0
-2421 -283 -2422 0
2421 -283 2422 0
-2421 283 2422 0
2422 284 -2423 0
-2422 -284 -2423 0
2422 -284 2423 0
-2422 284 2423 0
2423 285 -2424 0
-2423 -285 -2424 0
2423 -285 2424 0
-2423 285 2424 0
2424 286 -2425 0
-2424 -286 -2425 0
2424 -286 2425 0
-2424 286 2425 0
2425 287 -2426 0
-2425 -287 -2426 0
2425 -287 2426 0
-2425 287 2426 0
2426 289 -2427 0
-2426 -289 -2427 0
2426 -289 2427 0
-2426 289 2427 0
2427 290 -2428 0
-2427 -290 -2428 0
2427 -290 2428 0
-2427 290 2428 0
2428 291 -2429 0
-2428 -291 -2429 0
2428 -291 2429 0
-2428 291 2429 0
2429 292 -2430 0
-2429 -292 -2430 0
2429 -292 2430 0
-2429 292 2430 0
2430 293 -2431 0
-2430 -293 -2431 0
2430 -293 2431 0
-2430 293 2431 0
2431 295 -2432 0
-2431 -295 -2432 0
2431 -295 2432 0
-2431 295 2432 0
2432 296 -2433 0
-2432 -296 -2433 0
2432 -296 2433 0
-2432 296 2433 0
2433 297 -2434 0
-2433 -297 -2434 0
2433 -297 2434 0
-2433 297 2434 0
2434 298 -2435 0
-2434 -298 -2435 0
2434 -298 2435 0
-2434 298 2435 0
2435 299 -2436 0
-2435 -299 -2436 0
2435 -299 2436 0
-2435 299 2436 0
2436 301 -2437 0
-2436 -301 -2437 0
2436 -301 2437 0
-2436 301 2437 0
2437 302 -2438 0
-2437 -302 -2438 0
2437 -302 2438 0
-2437 302 2438 0
2438 303 -2439 0
-2438 -303 -2439 0
2438 -303 2439 0
-2438 303 2439 0
2439 304 -2440 0
-2439 -304 -2440 0
2439 -304 2440 0
-2439 304 2440 0
2440 305 -2441 0
-2440 -305 -2441 0
2440 -305 2441 0
-2440 305 2441 0
2441 307 -2442 0
-2441 -307 -2442 0
2441 -307 2442 0
-2441 307 2442 0
2442 308 -2443 0
-2442 -308 -2443 0
2442 -308 2443 0
-2442 308 2443 0
2443 309 -2444 0
-2443 -309 -2444 0
2443 -309 2444 0
-2443 309 2444 0
2444 310 -2445 0
-2444 -310 -2445 0
2444 -310 2445 0
-2444 310 2445 0
2445 311 -2446 0
-2445 -311 -2446 0
2445 -311 2446 0
-2445 311 2446 0
2446 313 -2447 0
-2446 -313 -2447 0
2446 -313 2447 0
-2446 313 2447 0
2447 314 -2448 0
-2447 -314 -2448 0
2447 -314 2448 0
-2447 314 2448 0
2448 315 -2449 0
-2448 -315 -2449 0
2448 -315 2449 0
-2448 315 2449 0
2449 316 -2450 0
-2449 -316 -2450 0
2449 -316 2450 0
-2449 316 2450 0
2450 317 -2451 0
-2450 -317 -2451 0
2450 -317 2451 0
-2450 317 2451 0
2451 319 -2452 0
-2451 -319 -2452 0
2451 -319 2452 0
-2451 319 2452 0
2452 320 -2453 0
-2452 -320 -2453 0
2452 -320 2453 0
-2452 320 2453 0
2453 321 -2454 0
-2453 -321 -2454 0
2453 -321 2454 0
-2453 321 2454 0
2454 322 -2455 0
-2454 -322 -2455 0
2454 -322 2455 0
-2454 322 2455 0
2455 323 -2456 0
-2455 -323 -2456 0
2455 -323 2456 0
-2455 323 2456 0
2456 325 -2457 0
-2456 -325 -2457 0
2456 -325 2457 0
-2456 325 2457 0
2457 326 -2458 0
-2457 -326 -2458 0
2457 -326 2458 0
-2457 326 2458 0
2458 327 -2459 0
-2458 -327 -2459 0
2458 -327 2459 0
-2458 327 2459 0
2459 328 -2460 0
-2459 -328 -2460 0
2459 -328 2460 0
-2459 328 2460 0
2460 329 -2461 0
-2460 -329 -2461 0
2460 -329 2461 0
-2460 329 2461 0
2461 331 -2462 0
-2461 -331 -2462 0
2461 -331 2462 0
-2461 331 2462 0
2462 332 -2463 0
-2462 -332 -2463 0
2462 -332 2463 0
-2462 332 2463 0
2463 333 -2464 0
-2463 -333 -2464 0
2463 -333 2464 0
-2463 333 2464 0
2464 334 -2465 0
-2464 -334 -2465 0
2464 -334 2465 0
-2464 334 2465 0
2465 335 -2466 0
-2465 -335 -2466 0
2465 -335 2466 0
-2465 335 2466 0
2466 337 -2467 0
-2466 -337 -2467 0
2466 -337 2467 0
-2466 337 2467 0
2467 338 -2468 0
-2467 -338 -2468 0
2467 -338 2468 0
-2467 338 2468 0
2468 339 -2469 0
-2468 -339 -2469 0
2468 -339 2469 0
-2468 339 2469 0
2469 340 -2470 0
-2469 -340 -2470 0
2469 -340 2470 0
-2469 340 2470 0
2470 341 -2471 0
-2470 -341 -2471 0
2470 -341 2471 0
-2470 341 2471 0
2471 343 -2472 0
-2471 -343 -2472 0
2471 -343 2472 0
-2471 343 2472 0
2472 344 -2473 0
-2472 -344 -2473 0
2472 -344 2473 0
-2472 344 2473 0
2473 345 -2474 0
-2473 -345 -2474 0
2473 -345 2474 0
-2473 345 2474 0
2474 346 -2475 0
-2474 -346 -2475 0
2474 -346 2475 0
-2474 346 2475 0
2475 347 -2476 0
-2475 -347 -2476 0
2475 -347 2476 0
-2475 347 2476 0
2476 349 -2477 0
-2476 -349 -2477 0
2476 -349 2477 0
-2476 349 2477 0
2477 350 -2478 0
-2477 -350 -2478 0
2477 -350 2478 0
-2477 350 2478 0
2478 351 -2479 0
-2478 -351 -2479 0
2478 -351 2479 0
-2478 351 2479 0
2479 352 -2480 0
-2479 -352 -2480 0
2479 -352 2480 0
-2479 352 2480 0
2480 353 -2481 0
-2480 -353 -2481 0
2480 -353 2481 0
-2480 353 2481 0
2481 355 -2482 0
-2481 -355 -2482 0
2481 -355 2482 0
-2481 355 2482 0
2482 356 -2483 0
-2482 -356 -2483 0
2482 -356 2483 0
-2482 356 2483 0
2483 357 -2484 0
-2483 -357 -2484 0
2483 -357 2484 0
-2483 357 2484 0
2484 358 -2485 0
-2484 -358 -2485 0
2484 -358 2485 0
-2484 358 2485 0
2485 359 -2486 0
-2485 -359 -2486 0
2485 -359 2486 0
-2485 359 2486 0
2486 361 -2487 0
-2486 -361 -2487 0
2486 -361 2487 0
-2486 361 2487 0
2487 362 -2488 0
-2487 -362 -2488 0
2487 -362 2488 0
-2487 362 2488 0
2488 363 -2489 0
-2488 -363 -2489 0
2488 -363 2489 0
-2488 363 2489 0
2489 364 -2490 0
-2489 -364 -2490 0
2489 -364 2490 0
-2489 364 2490 0
2490 365 -2491 0
-2490 -365 -2491 0
2490 -365 2491 0
-2490 365 2491 0
2491 367 -2492 0
-2491 -367 -2492 0
2491 -367 2492 0
-2491 367 2492 0
2492 368 -2493 0
-2492 -368 -2493 0
2492 -368 2493 0
-2492 368 2493 0
2493 369 -2494 0
-2493 -369 -2494 0
2493 -369 2494 0
-2493 369 2494 0
2494 370 -2495 0
-2494 -370 -2495 0
2494 -370 2495 0
-2494 370 2495 0
2495 371 -2496 0
-2495 -371 -2496 0
2495 -371 2496 0
-2495 371 2496 0
2496 373 -2497 0
-2496 -373 -2497 0
2496 -373 2497 0
-2496 373 2497 0
2497 374 -2498 0
-2497 -374 -2498 0
2497 -374 2498 0
-2497 374 2498 0
2498 375 -2499 0
-2498 -375 -2499 0
2498 -375 2499 0
-2498 375 2499 0
2499 376 -2500 0
-2499 -376 -2500 0
2499 -376 2500 0
-2499 376 2500 0
2500 377 -2501 0
-2500 -377 -2501 0
2500 -377 2501 0
-2500 377 2501 0
2501 379 -2502 0
-2501 -379 -2502 0
2501 -379 2502 0
-2501 379 2502 0
2502 380 -2503 0
-2502 -380 -2503 0
2502 -380 2503 0
-2502 380 2503 0
2503 381 -2504 0
-2503 -381 -2504 0
2503 -381 2504 0
-2503 381 2504 0
2504 382 -2505 0
-2504 -382 -2505 0
2504 -382 2505 0
-2504 382 2505 0
2505 383 -2506 0
-2505 -383 -2506 0
2505 -383 2506 0
-2505 383 2506 0
2506 385 -2507 0
-2506 -385 -2507 0
2506 -385 2507 0
-2506 385 2507 0
2507 386 -2508 0
-2507 -386 -2508 0
2507 -386 2508 0
-2507 386 2508 0
2508 387 -2509 0
-2508 -387 -2509 0
2508 -387 2509 0
-2508 387 2509 0
2509 388 -2510 0
-2509 -388 -2510 0
2509 -388 2510 0
-2509 388 2510 0
2510 389 -2511 0
-2510 -389 -2511 0
2510 -389 2511 0
-2510 389 2511 0
2511 391 -2512 0
-2511 -391 -2512 0
2511 -391 2512 0
-2511 391 2512 0
2512 392 -2513 0
-2512 -392 -2513 0
2512 -392 2513 0
-2512 392 2513 0
2513 393 -2514 0
-2513 -393 -2514 0
2513 -393 2514 0
-2513 393 2514 0
2514 394 -2515 0
-2514 -394 -2515 0
2514 -394 2515 0
-2514 394 2515 0
2515 395 -2516 0
-2515 -395 -2516 0
2515 -395 2516 0
-2515 395 2516 0
2516 397 -2517 0
-2516 -397 -2517 0
2516 -397 2517 0
-2516 397 2517 0
2517 398 -2518 0
-2517 -398 -2518 0
2517 -398 2518 0
-2517 398 2518 0
2518 399 -2519 0
-2518 -399 -2519 0
2518 -399 2519 0
-2518 399 2519 0
2519 400 -2520 0
-2519 -400 -2520 0
2519 -400 2520 0
-2519 400 2520 0
2520 401 -2521 0
-2520 -401 -2521 0
2520 -401 2521 0
-2520 401 2521 0
2521 403 -2522 0
-2521 -403 -2522 0
2521 -403 2522 0
-2521 403 2522 0
2522 404 -2523 0
-2522 -404 -2523 0
2522 -404 2523 0
-2522 404 2523 0
2523 405 -2524 0
-2523 -405 -2524 0
2523 -405 2524 0
-2523 405 2524 0
2524 406 -2525 0
-2524 -406 -2525 0
2524 -406 2525 0
-2524 406 2525 0
2525 407 -2526 0
-2525 -407 -2526 0
2525 -407 2526 0
-2525 407 2526 0
2526 409 -2527 0
-2526 -409 -2527 0
2526 -409 2527 0
-2526 409 2527 0
2527 410 -2528 0
-2527 -410 -2528 0
2527 -410 2528 0
-2527 410 2528 0
2528 411 -2529 0
-2528 -411 -2529 0
2528 -411 2529 0
-2528 411 2529 0
2529 412 -2530 0
-2529 -412 -2530 0
2529 -412 2530 0
-2529 412 2530 0
2530 413 -2531 0
-2530 -413 -2531 0
2530 -413 2531 0
-2530 413 2531 0
2531 415 -2532 0
-2531 -415 -2532 0
2531 -415 2532 0
-2531 415 2532 0
2532 416 -2533 0
-2532 -416 -2533 0
2532 -416 2533 0
-2532 416 2533 0
2533 417 -2534 0
-2533 -417 -2534 0
2533 -417 2534 0
-2533 417 2534 0
2534 418 -2535 0
-2534 -418 -2535 0
2534 -418 2535 0
-2534 418 2535 0
2535 419 -2536 0
-2535 -419 -2536 0
2535 -419 2536 0
-2535 419 2536 0
2536 421 -2537 0
-2536 -421 -2537 0
2536 -421 2537 0
-2536 421 2537 0
2537 422 -2538 0
-2537 -422 -2538 0
2537 -422 2538 0
-2537 422 2538 0
2538 423 -2539 0
-2538 -423 -2539 0
2538 -423 2539 0
-2538 423 2539 0
2539 424 -2540 0
-2539 -424 -2540 0
2539 -424 2540 0
-2539 424 2540 0
2540 425 -2541 0
-2540 -425 -2541 0
2540 -425 2541 0
-2540 425 2541 0
2541 426 -2542 0
-2541 -426 -2542 0
2541 -426 2542 0
-2541 426 2542 0
2542 433 -2543 0
-2542 -433 -2543 0
2542 -433 2543 0
-2542 433 2543 0
2543 434 -2544 0
-2543 -434 -2544 0
2543 -434 2544 0
-2543 434 2544 0
2544 435 -2545 0
-2544 -435 -2545 0
2544 -435 2545 0
-2544 435 2545 0
2545 436 -2546 0
-2545 -436 -2546 0
2545 -436 2546 0
-2545 436 2546 0
2546 437 -2547 0
-2546 -437 -2547 0
2546 -437 2547 0
-2546 437 2547 0
2547 439 -2548 0
-2547 -439 -2548 0
2547 -439 2548 0
-2547 439 2548 0
2548 440 -2549 0
-2548 -440 -2549 0
2548 -440 2549 0
-2548 440 2549 0
2549 441 -2550 0
-2549 -441 -2550 0
2549 -441 2550 0
-2549 441 2550 0
2550 442 -2551 0
-2550 -442 -2551 0
2550 -442 2551 0
-2550 442 2551 0
2551 443 -2552 0
-2551 -443 -2552 0
2551 -443 2552 0
-2551 443 2552 0
2552 444 -2553 0
-2552 -444 -2553 0
2552 -444 2553 0
-2552 444 2553 0
6 229 -2554 0
-6 -229 -2554 0
6 -229 2554 0
-6 229 2554 0
2554 230 -2555 0
-2554 -230 -2555 0
2554 -230 2555 0
-2554 230 2555 0
2555 231 -2556 0
-2555 -231 -2556 0
2555 -231 2556 0
-2555 231 2556 0
2556 232 -2557 0
-2556 -232 -2557 0
2556 -232 2557 0
-2556 232 2557 0
2557 233 -2558 0
-2557 -233 -2558 0
2557 -233 2558 0
-2557 233 2558 0
2558 234 -2559 0
-2558 -234 -2559 0
2558 -234 2559 0
-2558 234 2559 0
2559 235 -2560 0
-2559 -235 -2560 0
2559 -235 2560 0
-2559 235 2560 0
2560 236 -2561 0
-2560 -236 -2561 0
2560 -236 2561 0
-2560 236 2561 0
2561 237 -2562 0
-2561 -237 -2562 0
2561 -237 2562 0
-2561 237 2562 0
2562 238 -2563 0
-2562 -238 -2563 0
2562 -238 2563 0
-2562 238 2563 0
2563 239 -2564 0
-2563 -239 -2564 0
2563 -239 2564 0
-2563 239 2564 0
2564 240 -2565 0
-2564 -240 -2565 0
2564 -240 2565 0
-2564 240 2565 0
2565 241 -2566 0
-2565 -241 -2566 0
2565 -241 2566 0
-2565 241 2566 0
2566 242 -2567 0
-2566 -242 -2567 0
2566 -242 2567 0
-2566 242 2567 0
2567 243 -2568 0
-2567 -243 -2568 0
2567 -243 2568 0
-2567 243 2568 0
2568 244 -2569 0
-2568 -244 -2569 0
2568 -244 2569 0
-2568 244 2569 0
2569 245 -2570 0
-2569 -245 -2570 0
2569 -245 2570 0
-2569 245 2570 0
2570 246 -2571 0
-2570 -246 -2571 0
2570 -246 2571 0
-2570 246 2571 0
2571 247 -2572 0
-2571 -247 -2572 0
2571 -247 2572 0
-2571 247 2572 0
2572 248 -2573 0
-2572 -248 -2573 0
2572 -248 2573 0
-2572 248 2573 0
2573 249 -2574 0
-2573 -249 -2574 0
2573 -249 2574 0
-2573 249 2574 0
2574 250 -2575 0
-2574 -250 -2575 0
2574 -250 2575 0
-2574 250 2575 0
2575 251 -2576 0
-2575 -251 -2576 0
2575 -251 2576 0
-2575 251 2576 0
2576 252 -2577 0
-2576 -252 -2577 0
2576 -252 2577 0
-2576 252 2577 0
2577 253 -2578 0
-2577 -253 -2578 0
2577 -253 2578 0
-2577 253 2578 0
2578 254 -2579 0
-2578 -254 -2579 0
2578 -254 2579 0
-2578 254 2579 0
2579 255 -2580 0
-2579 -255 -2580 0
2579 -255 2580 0
-2579 255 2580 0
2580 256 -2581 0
-2580 -256 -2581 0
2580 -256 2581 0
-2580 256 2581 0
2581 257 -2582 0
-2581 -257 -2582 0
2581 -257 2582 0
-2581 257 2582 0
2582 258 -2583 0
-2582 -258 -2583 0
2582 -258 2583 0
-2582 258 2583 0
2583 259 -2584 0
-2583 -259 -2584 0
2583 -259 2584 0
-2583 259 2584 0
2584 260 -2585 0
-2584 -260 -2585 0
2584 -260 2585 0
-2584 260 2585 0
2585 261 -2586 0
-2585 -261 -2586 0
2585 -261 2586 0
-2585 261 2586 0
2586 262 -2587 0
-2586 -262 -2587 0
2586 -262 2587 0
-2586 262 2587 0
2587 263 -2588 0
-2587 -263 -2588 0
2587 -263 2588 0
-2587 263 2588 0
2588 264 -2589 0
-2588 -264 -2589 0
2588 -264 2589 0
-2588 264 2589 0
2589 265 -2590 0
-2589 -265 -2590 0
2589 -265 2590 0
-2589 265 2590 0
2590 266 -2591 0
-2590 -266 -2591 0
2590 -266 2591 0
-2590 266 2591 0
2591 267 -2592 0
-2591 -267 -2592 0
2591 -267 2592 0
-2591 267 2592 0
2592 268 -2593 0
-2592 -268 -2593 0
2592 -268 2593 0
-2592 268 2593 0
2593 269 -2594 0
-2593 -269 -2594 0
2593 -269 2594 0
-2593 269 2594 0
2594 270 -2595 0
-2594 -270 -2595 0
2594 -270 2595 0
-2594 270 2595 0
2595 271 -2596 0
-2595 -271 -2596 0
2595 -271 2596 0
-2595 271 2596 0
2596 272 -2597 0
-2596 -272 -2597 0
2596 -272 2597 0
-2596 272 2597 0
2597 273 -2598 0
-2597 -273 -2598 0
2597 -273 2598 0
-2597 273 2598 0
2598 274 -2599 0
-2598 -274 -2599 0
2598 -274 2599 0
-2598 274 2599 0
2599 275 -2600 0
-2599 -275 -2600 0
2599 -275 2600 0
-2599 275 2600 0
2600 276 -2601 0
-2600 -276 -2601 0
2600 -276 2601 0
-2600 276 2601 0
2601 277 -2602 0
-2601 -277 -2602 0
2601 -277 2602 0
-2601 277 2602 0
2602 278 -2603 0
-2602 -278 -2603 0
2602 -278 2603 0
-2602 278 2603 0
2603 279 -2604 0
-2603 -279 -2604 0
2603 -279 2604 0
-2603 279 2604 0
2604 280 -2605 0
-2604 -280 -2605 0
2604 -280 2605 0
-2604 280 2605 0
2605 281 -2606 0
-2605 -281 -2606 0
2605 -281 2606 0
-2605 281 2606 0
2606 282 -2607 0
-2606 -282 -2607 0
2606 -282 2607 0
-2606 282 2607 0
2607 283 -2608 0
-2607 -283 -2608 0
2607 -283 2608 0
-2607 283 2608 0
2608 284 -2609 0
-2608 -284 -2609 0
2608 -284 2609 0
-2608 284 2609 0
2609 285 -2610 0
-2609 -285 -2610 0
2609 -285 2610 0
-2609 285 2610 0
2610 286 -2611 0
-2610 -286 -2611 0
2610 -286 2611 0
-2610 286 2611 0
2611 287 -2612 0
-2611 -287 -2612 0
2611 -287 2612 0
-2611 287 2612 0
2612 288 -2613 0
-2612 -288 -2613 0
2612 -288 2613 0
-2612 288 2613 0
2613 289 -2614 0
-2613 -289 -2614 0
2613 -289 2614 0
-2613 289 2614 0
2614 290 -2615 0
-2614 -290 -2615 0
2614 -290 2615 0
-2614 290 2615 0
2615 291 -2616 0
-2615 -291 -2616 0
2615 -291 2616 0
-2615 291 2616 0
2616 292 -2617 0
-2616 -292 -2617 0
2616 -292 2617 0
-2616 292 2617 0
2617 293 -2618 0
-2617 -293 -2618 0
2617 -293 2618 0
-2617 293 2618 0
2618 294 -2619 0
-2618 -294 -2619 0
2618 -294 2619 0
-2618 294 2619 0
2619 295 -2620 0
-2619 -295 -2620 0
2619 -295 2620 0
-2619 295 2620 0
2620 296 -2621 0
-2620 -296 -2621 0
2620 -296 2621 0
-2620 296 2621 0
2621 297 -2622 0
-2621 -297 -2622 0
2621 -297 2622 0
-2621 297 2622 0
2622 298 -2623 0
-2622 -298 -2623 0
2622 -298 2623 0
-2622 298 2623 0
2623 299 -2624 0
-2623 -299 -2624 0
2623 -299 2624 0
-2623 299 2624 0
2624 300 -2625 0
-2624 -300 -2625 0
2624 -300 2625 0
-2624 300 2625 0
2625 301 -2626 0
-2625 -301 -2626 0
2625 -301 2626 0
-2625 301 2626 0
2626 302 -2627 0
-2626 -302 -2627 0
2626 -302 2627 0
-2626 302 2627 0
2627 303 -2628 0
-2627 -303 -2628 0
2627 -303 2628 0
-2627 303 2628 0
2628 304 -2629 0
-2628 -304 -2629 0
2628 -304 2629 0
-2628 304 2629 0
2629 305 -2630 0
-2629 -305 -2630 0
2629 -305 2630 0
-2629 305 2630 0
2630 306 -2631 0
-2630 -306 -2631 0
2630 -306 2631 0
-2630 306 2631 0
2631 307 -2632 0
-2631 -307 -2632 0
2631 -307 2632 0
-2631 307 2632 0
2632 308 -2633 0
-2632 -308 -2633 0
2632 -308 2633 0
-2632 308 2633 0
2633 309 -2634 0
-2633 -309 -2634 0
2633 -309 2634 0
-2633 309 2634 0
2634 310 -2635 0
-2634 -310 -2635 0
2634 -310 2635 0
-2634 310 2635 0
2635 311 -2636 0
-2635 -311 -2636 0
2635 -311 2636 0
-2635 311 2636 0
2636 312 -2637 0
-2636 -312 -2637 0
2636 -312 2637 0
-2636 312 2637 0
2637 313 -2638 0
-2637 -313 -2638 0
2637 -313 2638 0
-2637 313 2638 0
2638 314 -2639 0
-2638 -314 -2639 0
2638 -314 2639 0
-2638 314 2639 0
2639 315 -2640 0
-2639 -315 -2640 0
2639 -315 2640 0
-2639 315 2640 0
2640 316 -2641 0
-2640 -316 -2641 0
2640 -316 2641 0
-2640 316 2641 0
2641 317 -2642 0
-2641 -317 -2642 0
2641 -317 2642 0
-2641 317 2642 0
2642 318 -2643 0
-2642 -318 -2643 0
2642 -318 2643 0
-2642 318 2643 0
2643 319 -2644 0
-2643 -319 -2644 0
2643 -319 2644 0
-2643 319 2644 0
2644 320 -2645 0
-2644 -320 -2645 0
2644 -320 2645 0
-2644 320 2645 0
2645 321 -2646 0
-2645 -321 -2646 0
2645 -321 2646 0
-2645 321 2646 0
2646 322 -2647 0
-2646 -322 -2647 0
2646 -322 2647 0
-2646 322 2647 0
2647 323 -2648 0
-2647 -323 -2648 0
2647 -323 2648 0
-2647 323 2648 0
2648 324 -2649 0
-2648 -324 -2649 0
2648 -324 2649 0
-2648 324 2649 0
2649 325 -2650 0
-2649 -325 -2650 0
2649 -325 2650 0
-2649 325 2650 0
2650 326 -2651 0
-2650 -326 -2651 0
2650 -326 2651 0
-2650 326 2651 0
2651 327 -2652 0
-2651 -327 -2652 0
2651 -327 2652 0
-2651 327 2652 0
2652 328 -2653 0
-2652 -328 -2653 0
2652 -328 2653 0
-2652 328 2653 0
2653 329 -2654 0
-2653 -329 -2654 0
2653 -329 2654 0
-2653 329 2654 0
2654 330 -2655 0
-2654 -330 -2655 0
2654 -330 2655 0
-2654 330 2655 0
2655 331 -2656 0
-2655 -331 -2656 0
2655 -331 2656 0
-2655 331 2656 0
2656 332 -2657 0
-2656 -332 -2657 0
2656 -332 2657 0
-2656 332 2657 0
2657 333 -2658 0
-2657 -333 -2658 0
2657 -333 2658 0
-2657 333 2658 0
2658 334 -2659 0
-2658 -334 -2659 0
2658 -334 2659 0
-2658 334 2659 0
2659 335 -2660 0
-2659 -335 -2660 0
2659 -335 2660 0
-2659 335 2660 0
2660 336 -2661 0
-2660 -336 -2661 0
2660 -336 2661 0
-2660 336 2661 0
2661 337 -2662 0
-2661 -337 -2662 0
2661 -337 2662 0
-2661 337 2662 0
2662 338 -2663 0
-2662 -338 -2663 0
2662 -338 2663 0
-2662 338 2663 0
2663 339 -2664 0
-2663 -339 -2664 0
2663 -339 2664 0
-2663 339 2664 0
2664 340 -2665 0
-2664 -340 -2665 0
2664 -340 2665 0
-2664 340 2665 0
2665 341 -2666 0
-2665 -341 -2666 0
2665 -341 2666 0
-2665 341 2666 0
2666 342 -2667 0
-2666 -342 -2667 0
2666 -342 2667 0
-2666 342 2667 0
2667 343 -2668 0
-2667 -343 -2668 0
2667 -343 2668 0
-2667 343 2668 0
2668 344 -2669 0
-2668 -344 -2669 0
2668 -344 2669 0
-2668 344 2669 0
2669 345 -2670 0
-2669 -345 -2670 0
2669 -345 2670 0
-2669 345 2670 0
2670 346 -2671 0
-2670 -346 -2671 0
2670 -346 2671 0
-2670 346 2671 0
2671 347 -2672 0
-2671 -347 -2672 0
2671 -347 2672 0
-2671 347 2672 0
2672 348 -2673 0
-2672 -348 -2673 0
2672 -348 2673 0
-2672 348 2673 0
2673 349 -2674 0
-2673 -349 -2674 0
2673 -349 2674 0
-2673 349 2674 0
2674 350 -2675 0
-2674 -350 -2675 0
2674 -350 2675 0
-2674 350 2675 0
2675 351 -2676 0
-2675 -351 -2676 0
2675 -351 2676 0
-2675 351 2676 0
2676 352 -2677 0
-2676 -352 -2677 0
2676 -352 2677 0
-2676 352 2677 0
2677 353 -2678 0
-2677 -353 -2678 0
2677 -353 2678 0
-2677 353 2678 0
2678 354 -2679 0
-2678 -354 -2679 0
2678 -354 2679 0
-2678 354 2679 0
2679 355 -2680 0
-2679 -355 -2680 0
2679 -355 2680 0
-2679 355 2680 0
2680 356 -2681 0
-2680 -356 -2681 0
2680 -356 2681 0
-2680 356 2681 0
2681 357 -2682 0
-2681 -357 -2682 0
2681 -357 2682 0
-2681 357 2682 0
2682 358 -2683 0
-2682 -358 -2683 0
2682 -358 2683 0
-2682 358 2683 0
2683 359 -2684 0
-2683 -359 -2684 0
2683 -359 2684 0
-2683 359 2684 0
2684 360 -2685 0
-2684 -360 -2685 0
2684 -360 2685 0
-2684 360 2685 0
2685 361 -2686 0
-2685 -361 -2686 0
2685 -361 2686 0
-2685 361 2686 0
2686 362 -2687 0
-2686 -362 -2687 0
2686 -362 2687 0
-2686 362 2687 0
2687 363 -2688 0
-2687 -363 -2688 0
2687 -363 2688 0
-2687 363 2688 0
2688 364 -2689 0
-2688 -364 -2689 0
2688 -364 2689 0
-2688 364 2689 0
2689 365 -2690 0
-2689 -365 -2690 0
2689 -365 2690 0
-2689 365 2690 0
2690 366 -2691 0
-2690 -366 -2691 0
2690 -366 2691 0
-2690 366 2691 0
2691 367 -2692 0
-2691 -367 -2692 0
2691 -367 2692 0
-2691 367 2692 0
2692 368 -2693 0
-2692 -368 -2693 0
2692 -368 2693 0
-2692 368 2693 0
2693 369 -2694 0
-2693 -369 -2694 0
2693 -369 2694 0
-2693 369 2694 0
2694 370 -2695 0
-2694 -370 -2695 0
2694 -370 2695 0
-2694 370 2695 0
2695 371 -2696 0
-2695 -371 -2696 0
2695 -371 2696 0
-2695 371 2696 0
2696 372 -2697 0
-2696 -372 -2697 0
2696 -372 2697 0
-2696 372 2697 0
2697 373 -2698 0
-2697 -373 -2698 0
2697 -373 2698 0
-2697 373 2698 0
2698 374 -2699 0
-2698 -374 -2699 0
2698 -374 2699 0
-2698 374 2699 0
2699 375 -2700 0
-2699 -375 -2700 0
2699 -375 2700 0
-2699 375 2700 0
2700 376 -2701 0
-2700 -376 -2701 0
2700 -376 2701 0
-2700 376 2701 0
2701 377 -2702 0
-2701 -377 -2702 0
2701 -377 2702 0
-2701 377 2702 0
2702 378 -2703 0
-2702 -378 -2703 0
2702 -378 2703 0
-2702 378 2703 0
2703 379 -2704 0
-2703 -379 -2704 0
2703 -379 2704 0
-2703 379 2704 0
2704 380 -2705 0
-2704 -380 -2705 0
2704 -380 2705 0
-2704 380 2705 0
2705 381 -2706 0
-2705 -381 -2706 0
2705 -381 2706 0
-2705 381 2706 0
2706 382 -2707 0
-2706 -382 -2707 0
2706 -382 2707 0
-2706 382 2707 0
2707 383 -2708 0
-2707 -383 -2708 0
2707 -383 2708 0
-2707 383 2708 0
2708 384 -2709 0
-2708 -384 -2709 0
2708 -384 2709 0
-2708 384 2709 0
2709 385 -2710 0
-2709 -385 -2710 0
2709 -385 2710 0
-2709 385 2710 0
2710 386 -2711 0
-2710 -386 -2711 0
2710 -386 2711 0
-2710 386 2711 0
2711 387 -2712 0
-2711 -387 -2712 0
2711 -387 2712 0
-2711 387 2712 0
2712 388 -2713 0
-2712 -388 -2713 0
2712 -388 2713 0
-2712 388 2713 0
2713 389 -2714 0
-2713 -389 -2714 0
2713 -389 2714 0
-2713 389 2714 0
2714 390 -2715 0
-2714 -390 -2715 0
2714 -390 2715 0
-2714 390 2715 0
2715 391 -2716 0
-2715 -391 -2716 0
2715 -391 2716 0
-2715 391 2716 0
2716 392 -2717 0
-2716 -392 -2717 0
2716 -392 2717 0
-2716 392 2717 0
2717 393 -2718 0
-2717 -393 -2718 0
2717 -393 2718 0
-2717 393 2718 0
2718 394 -2719 0
-2718 -394 -2719 0
2718 -394 2719 0
-2718 394 2719 0
2719 395 -2720 0
-2719 -395 -2720 0
2719 -395 2720 0
-2719 395 2720 0
2720 396 -2721 0
-2720 -396 -2721 0
2720 -396 2721 0
-2720 396 2721 0
2721 397 -2722 0
-2721 -397 -2722 0
2721 -397 2722 0
-2721 397 2722 0
2722 398 -2723 0
-2722 -398 -2723 0
2722 -398 2723 0
-2722 398 2723 0
2723 399 -2724 0
-2723 -399 -2724 0
2723 -399 2724 0
-2723 399 2724 0
2724 400 -2725 0
-2724 -400 -2725 0
2724 -400 2725 0
-2724 400 2725 0
2725 401 -2726 0
-2725 -401 -2726 0
2725 -401 2726 0
-2725 401 2726 0
2726 402 -2727 0
-2726 -402 -2727 0
2726 -402 2727 0
-2726 402 2727 0
2727 403 -2728 0
-2727 -403 -2728 0
2727 -403 2728 0
-2727 403 2728 0
2728 404 -2729 0
-2728 -404 -2729 0
2728 -404 2729 0
-2728 404 2729 0
2729 405 -2730 0
-2729 -405 -2730 0
2729 -405 2730 0
-2729 405 2730 0
2730 406 -2731 0
-2730 -406 -2731 0
2730 -406 2731 0
-2730 406 2731 0
2731 407 -2732 0
-2731 -407 -2732 0
2731 -407 2732 0
-2731 407 2732 0
2732 408 -2733 0
-2732 -408 -2733 0
2732 -408 2733 0
-2732 408 2733 0
2733 409 -2734 0
-2733 -409 -2734 0
2733 -409 2734 0
-2733 409 2734 0
2734 410 -2735 0
-2734 -410 -2735 0
2734 -410 2735 0
-2734 410 2735 0
2735 411 -2736 0
-2735 -411 -2736 0
2735 -411 2736 0
-2735 411 2736 0
2736 412 -2737 0
-2736 -412 -2737 0
2736 -412 2737 0
-2736 412 2737 0
2737 413 -2738 0
-2737 -413 -2738 0
2737 -413 2738 0
-2737 413 2738 0
2738 414 -2739 0
-2738 -414 -2739 0
2738 -414 2739 0
-2738 414 2739 0
2739 415 -2740 0
-2739 -415 -2740 0
2739 -415 2740 0
-2739 415 2740 0
2740 416 -2741 0
-2740 -416 -2741 0
2740 -416 2741 0
-2740 416 2741 0
2741 417 -2742 0
-2741 -417 -2742 0
2741 -417 2742 0
-2741 417 2742 0
2742 418 -2743 0
-2742 -418 -2743 0
2742 -418 2743 0
-2742 418 2743 0
2743 419 -2744 0
-2743 -419 -2744 0
2743 -419 2744 0
-2743 419 2744 0
2744 420 -2745 0
-2744 -420 -2745 0
2744 -420 2745 0
-2744 420 2745 0
2745 421 -2746 0
-2745 -421 -2746 0
2745 -421 2746 0
-2745 421 2746 0
2746 422 -2747 0
-2746 -422 -2747 0
2746 -422 2747 0
-2746 422 2747 0
2747 423 -2748 0
-2747 -423 -2748 0
2747 -423 2748 0
-2747 423 2748 0
2748 424 -2749 0
-2748 -424 -2749 0
2748 -424 2749 0
-2748 424 2749 0
2749 425 -2750 0
-2749 -425 -2750 0
2749 -425 2750 0
-2749 425 2750 0
2750 426 -2751 0
-2750 -426 -2751 0
2750 -426 2751 0
-2750 426 2751 0
2751 433 -2752 0
-2751 -433 -2752 0
2751 -433 2752 0
-2751 433 2752 0
2752 434 -2753 0
-2752 -434 -2753 0
2752 -434 2753 0
-2752 434 2753 0
2753 435 -2754 0
-2753 -435 -2754 0
2753 -435 2754 0
-2753 435 2754 0
2754 436 -2755 0
-2754 -436 -2755 0
2754 -436 2755 0
-2754 436 2755 0
2755 437 -2756 0
-2755 -437 -2756 0
2755 -437 2756 0
-2755 437 2756 0
2756 438 -2757 0
-2756 -438 -2757 0
2756 -438 2757 0
-2756 438 2757 0
2757 439 -2758 0
-2757 -439 -2758 0
2757 -439 2758 0
-2757 439 2758 0
2758 440 -2759 0
-2758 -440 -2759 0
2758 -440 2759 0
-2758 440 2759 0
2759 441 -2760 0
-2759 -441 -2760 0
2759 -441 2760 0
-2759 441 2760 0
2760 442 -2761 0
-2760 -442 -2761 0
2760 -442 2761 0
-2760 442 2761 0
2761 443 -2762 0
-2761 -443 -2762 0
2761 -443 2762 0
-2761 443 2762 0
2762 444 -2763 0
-2762 -444 -2763 0
2762 -444 2763 0
-2762 444 2763 0
7 229 -2764 0
-7 -229 -2764 0
7 -229 2764 0
-7 229 2764 0
2764 230 -2765 0
-2764 -230 -2765 0
2764 -230 2765 0
-2764 230 2765 0
2765 231 -2766 0
-2765 -231 -2766 0
2765 -231 2766 0
-2765 231 2766 0
2766 232 -2767 0
-2766 -232 -2767 0
2766 -232 2767 0
-2766 232 2767 0
2767 233 -2768 0
-2767 -233 -2768 0
2767 -233 2768 0
-2767 233 2768 0
2768 234 -2769 0
-2768 -234 -2769 0
2768 -234 2769 0
-2768 234 2769 0
2769 236 -2770 0
-2769 -236 -2770 0
2769 -236 2770 0
-2769 236 2770 0
2770 237 -2771 0
-2770 -237 -2771 0
2770 -237 2771 0
-2770 237 2771 0
2771 238 -2772 0
-2771 -238 -2772 0
2771 -238 2772 0
-2771 238 2772 0
2772 239 -2773 0
-2772 -239 -2773 0
2772 -239 2773 0
-2772 239 2773 0
2773 240 -2774 0
-2773 -240 -2774 0
2773 -240 2774 0
-2773 240 2774 0
2774 242 -2775 0
-2774 -242 -2775 0
2774 -242 2775 0
-2774 242 2775 0
2775 243 -2776 0
-2775 -243 -2776 0
2775 -243 2776 0
-2775 243 2776 0
2776 244 -2777 0
-2776 -244 -2777 0
2776 -244 2777 0
-2776 244 2777 0
2777 245 -2778 0
-2777 -245 -2778 0
2777 -245 2778 0
-2777 245 2778 0
2778 246 -2779 0
-2778 -246 -2779 0
2778 -246 2779 0
-2778 246 2779 0
2779 248 -2780 0
-2779 -248 -2780 0
2779 -248 2780 0
-2779 248 2780 0
2780 249 -2781 0
-2780 -249 -2781 0
2780 -249 2781 0
-2780 249 2781 0
2781 250 -2782 0
-2781 -250 -2782 0
2781 -250 2782 0
-2781 250 2782 0
2782 251 -2783 0
-2782 -251 -2783 0
2782 -251 2783 0
-2782 251 2783 0
2783 252 -2784 0
-2783 -252 -2784 0
2783 -252 2784 0
-2783 252 2784 0
2784 254 -2785 0
-2784 -254 -2785 0
2784 -254 2785 0
-2784 254 2785 0
2785 255 -2786 0
-2785 -255 -2786 0
2785 -255 2786 0
-2785 255 2786 0
2786 256 -2787 0
-2786 -256 -2787 0
2786 -256 2787 0
-2786 256 2787 0
2787 257 -2788 0
-2787 -257 -2788 0
2787 -257 2788 0
-2787 257 2788 0
2788 258 -2789 0
-2788 -258 -2789 0
2788 -258 2789 0
-2788 258 2789 0
2789 260 -2790 0
-2789 -260 -2790 0
2789 -260 2790 0
-2789 260 2790 0
2790 261 -2791 0
-2790 -261 -2791 0
2790 -261 2791 0
-2790 261 2791 0
2791 262 -2792 0
-2791 -262 -2792 0
2791 -262 2792 0
-2791 262 2792 0
2792 263 -2793 0
-2792 -263 -2793 0
2792 -263 2793 0
-2792 263 2793 0
2793 264 -2794 0
-2793 -264 -2794 0
2793 -264 2794 0
-2793 264 2794 0
2794 266 -2795 0
-2794 -266 -2795 0
2794 -266 2795 0
-2794 266 2795 0
2795 267 -2796 0
-2795 -267 -2796 0
2795 -267 2796 0
-2795 267 2796 0
2796 268 -2797 0
-2796 -268 -2797 0
2796 -268 2797 0
-2796 268 2797 0
2797 269 -2798 0
-2797 -269 -2798 0
2797 -269 2798 0
-2797 269 2798 0
2798 270 -2799 0
-2798 -270 -2799 0
2798 -270 2799 0
-2798 270 2799 0
2799 272 -2800 0
-2799 -272 -2800 0
2799 -272 2800 0
-2799 272 2800 0
2800 273 -2801 0
-2800 -273 -2801 0
2800 -273 2801 0
-2800 273 2801 0
2801 274 -2802 0
-2801 -274 -2802 0
2801 -274 2802 0
-2801 274 2802 0
2802 275 -2803 0
-2802 -275 -2803 0
2802 -275 2803 0
-2802 275 2803 0
2803 276 -2804 0
-2803 -276 -2804 0
2803 -276 2804 0
-2803 276 2804 0
2804 278 -2805 0
-2804 -278 -2805 0
2804 -278 2805 0
-2804 278 2805 0
2805 279 -2806 0
-2805 -279 -2806 0
2805 -279 2806 0
-2805 279 2806 0
2806 280 -2807 0
-2806 -280 -2807 0
2806 -280 2807 0
-2806 280 2807 0
2807 281 -2808 0
-2807 -281 -2808 0
2807 -281 2808 0
-2807 281 2808 0
2808 282 -2809 0
-2808 -282 -2809 0
2808 -282 2809 0
-2808 282 2809 0
2809 284 -2810 0
-2809 -284 -2810 0
2809 -284 2810 0
-2809 284 2810 0
2810 285 -2811 0
-2810 -285 -2811 0
2810 -285 2811 0
-2810 285 2811 0
2811 286 -2812 0
-2811 -286 -2812 0
2811 -286 2812 0
-2811 286 2812 0
2812 287 -2813 0
-2812 -287 -2813 0
2812 -287 2813 0
-2812 287 2813 0
2813 288 -2814 0
-2813 -288 -2814 0
2813 -288 2814 0
-2813 288 2814 0
2814 290 -2815 0
-2814 -290 -2815 0
2814 -290 2815 0
-2814 290 2815 0
2815 291 -2816 0
-2815 -291 -2816 0
2815 -291 2816 0
-2815 291 2816 0
2816 292 -2817 0
-2816 -292 -2817 0
2816 -292 2817 0
-2816 292 2817 0
2817 293 -2818 0
-2817 -293 -2818 0
2817 -293 2818 0
-2817 293 2818 0
2818 294 -2819 0
-2818 -294 -2819 0
2818 -294 2819 0
-2818 294 2819 0
2819 296 -2820 0
-2819 -296 -2820 0
2819 -296 2820 0
-2819 296 2820 0
2820 297 -2821 0
-2820 -297 -2821 0
2820 -297 2821 0
-2820 297 2821 0
2821 298 -2822 0
-2821 -298 -2822 0
2821 -298 2822 0
-2821 298 2822 0
2822 299 -2823 0
-2822 -299 -2823 0
2822 -299 2823 0
-2822 299 2823 0
2823 300 -2824 0
-2823 -300 -2824 0
2823 -300 2824 0
-2823 300 2824 0
2824 302 -2825 0
-2824 -302 -2825 0
2824 -302 2825 0
-2824 302 2825 0
2825 303 -2826 0
-2825 -303 -2826 0
2825 -303 2826 0
-2825 303 2826 0
2826 304 -2827 0
-2826 -304 -2827 0
2826 -304 2827 0
-2826 304 2827 0
2827 305 -2828 0
-2827 -305 -2828 0
2827 -305 2828 0
-2827 305 2828 0
2828 306 -2829 0
-2828 -306 -2829 0
2828 -306 2829 0
-2828 306 2829 0
2829 308 -2830 0
-2829 -308 -2830 0
2829 -308 2830 0
-2829 308 2830 0
2830 309 -2831 0
-2830 -309 -2831 0
2830 -309 2831 0
-2830 309 2831 0
2831 310 -2832 0
-2831 -310 -2832 0
2831 -310 2832 0
-2831 310 2832 0
2832 311 -2833 0
-2832 -311 -2833 0
2832 -311 2833 0
-2832 311 2833 0
2833 312 -2834 0
-2833 -312 -2834 0
2833 -312 2834 0
-2833 312 2834 0
2834 314 -2835 0
-2834 -314 -2835 0
2834 -314 2835 0
-2834 314 2835 0
2835 315 -2836 0
-2835 -315 -2836 0
2835 -315 2836 0
-2835 315 2836 0
2836 316 -2837 0
-2836 -316 -2837 0
2836 -316 2837 0
-2836 316 2837 0
2837 317 -2838 0
-2837 -317 -2838 0
2837 -317 2838 0
-2837 317 2838 0
2838 318 -2839 0
-2838 -318 -2839 0
2838 -318 2839 0
-2838 318 2839 0
2839 320 -2840 0
-2839 -320 -2840 0
2839 -320 2840 0
-2839 320 2840 0
2840 321 -2841 0
-2840 -321 -2841 0
2840 -321 2841 0
-2840 321 2841 0
2841 322 -2842 0
-2841 -322 -2842 0
2841 -322 2842 0
-2841 322 2842 0
2842 323 -2843 0
-2842 -323 -2843 0
2842 -323 2843 0
-2842 323 2843 0
2843 324 -2844 0
-2843 -324 -2844 0
2843 -324 2844 0
-2843 324 2844 0
2844 326 -2845 0
-2844 -326 -2845 0
2844 -326 2845 0
-2844 326 2845 0
2845 327 -2846 0
-2845 -327 -2846 0
2845 -327 2846 0
-2845 327 2846 0
2846 328 -2847 0
-2846 -328 -2847 0
2846 -328 2847 0
-2846 328 2847 0
2847 329 -2848 0
-2847 -329 -2848 0
2847 -329 2848 0
-2847 329 2848 0
2848 330 -2849 0
-2848 -330 -2849 0
2848 -330 2849 0
-2848 330 2849 0
2849 332 -2850 0
-2849 -332 -2850 0
2849 -332 2850 0
-2849 332 2850 0
2850 333 -2851 0
-2850 -333 -2851 0
2850 -333 2851 0
-2850 333 2851 0
2851 334 -2852 0
-2851 -334 -2852 0
2851 -334 2852 0
-2851 334 2852 0
2852 335 -2853 0
-2852 -335 -2853 0
2852 -335 2853 0
-2852 335 2853 0
2853 336 -2854 0
-2853 -336 -2854 0
2853 -336 2854 0
-2853 336 2854 0
2854 338 -2855 0
-2854 -338 -2855 0
2854 -338 2855 0
-2854 338 2855 0
2855 339 -2856 0
-2855 -339 -2856 0
2855 -339 2856 0
-2855 339 2856 0
2856 340 -2857 0
-2856 -340 -2857 0
2856 -340 2857 0
-2856 340 2857 0
2857 341 -2858 0
-2857 -341 -2858 0
2857 -341 2858 0
-2857 341 2858 0
2858 342 -2859 0
-2858 -342 -2859 0
2858 -342 2859 0
-2858 342 2859 0
2859 344 -2860 0
-2859 -344 -2860 0
2859 -344 2860 0
-2859 344 2860 0
2860 345 -2861 0
-2860 -345 -2861 0
2860 -345 2861 0
-2860 345 2861 0
2861 346 -2862 0
-2861 -346 -2862 0
2861 -346 2862 0
-2861 346 2862 0
2862 347 -2863 0
-2862 -347 -2863 0
2862 -347 2863 0
-2862 347 2863 0
2863 348 -2864 0
-2863 -348 -2864 0
2863 -348 2864 0
-2863 348 2864 0
2864 350 -2865 0
-2864 -350 -2865 0
2864 -350 2865 0
-2864 350 2865 0
2865 351 -2866 0
-2865 -351 -2866 0
2865 -351 2866 0
-2865 351 2866 0
2866 352 -2867 0
-2866 -352 -2867 0
2866 -352 2867 0
-2866 352 2867 0
2867 353 -2868 0
-2867 -353 -2868 0
2867 -353 2868 0
-2867 353 2868 0
2868 354 -2869 0
-2868 -354 -2869 0
2868 -354 2869 0
-2868 354 2869 0
2869 356 -2870 0
-2869 -356 -2870 0
2869 -356 2870 0
-2869 356 2870 0
2870 357 -2871 0
-2870 -357 -2871 0
2870 -357 2871 0
-2870 357 2871 0
2871 358 -2872 0
-2871 -358 -2872 0
2871 -358 2872 0
-2871 358 2872 0
2872 359 -2873 0
-2872 -359 -2873 0
2872 -359 2873 0
-2872 359 2873 0
2873 360 -2874 0
-2873 -360 -2874 0
2873 -360 2874 0
-2873 360 2874 0
2874 362 -2875 0
-2874 -362 -2875 0
2874 -362 2875 0
-2874 362 2875 0
2875 363 -2876 0
-2875 -363 -2876 0
2875 -363 2876 0
-2875 363 2876 0
2876 364 -2877 0
-2876 -364 -2877 0
2876 -364 2877 0
-2876 364 2877 0
2877 365 -2878 0
-2877 -365 -2878 0
2877 -365 2878 0
-2877 365 2878 0
2878 366 -2879 0
-2878 -366 -2879 0
2878 -366 2879 0
-2878 366 2879 0
2879 368 -2880 0
-2879 -368 -2880 0
2879 -368 2880 0
-2879 368 2880 0
2880 369 -2881 0
-2880 -369 -2881 0
2880 -369 2881 0
-2880 369 2881 0
2881 370 -2882 0
-2881 -370 -2882 0
2881 -370 2882 0
-2881 370 2882 0
2882 371 -2883 0
-2882 -371 -2883 0
2882 -371 2883 0
-2882 371 2883 0
2883 372 -2884 0
-2883 -372 -2884 0
2883 -372 2884 0
-2883 372 2884 0
2884 374 -2885 0
-2884 -374 -2885 0
2884 -374 2885 0
-2884 374 2885 0
2885 375 -2886 0
-2885 -375 -2886 0
2885 -375 2886 0
-2885 375 2886 0
2886 376 -2887 0
-2886 -376 -2887 0
2886 -376 2887 0
-2886 376 2887 0
2887 377 -2888 0
-2887 -377 -2888 0
2887 -377 2888 0
-2887 377 2888 0
2888 378 -2889 0
-2888 -378 -2889 0
2888 -378 2889 0
-2888 378 2889 0
2889 380 -2890 0
-2889 -380 -2890 0
2889 -380 2890 0
-2889 380 2890 0
2890 381 -2891 0
-2890 -381 -2891 0
2890 -381 2891 0
-2890 381 2891 0
2891 382 -2892 0
-2891 -382 -2892 0
2891 -382 2892 0
-2891 382 2892 0
2892 383 -2893 0
-2892 -383 -2893 0
2892 -383 2893 0
-2892 383 2893 0
2893 384 -2894 0
-2893 -384 -2894 0
2893 -384 2894 0
-2893 384 2894 0
2894 386 -2895 0
-2894 -386 -2895 0
2894 -386 2895 0
-2894 386 2895 0
2895 387 -2896 0
-2895 -387 -2896 0
2895 -387 2896 0
-2895 387 2896 0
2896 388 -2897 0
-2896 -388 -2897 0
2896 -388 2897 0
-2896 388 2897 0
2897 389 -2898 0
-2897 -389 -2898 0
2897 -389 2898 0
-2897 389 2898 0
2898 390 -2899 0
-2898 -390 -2899 0
2898 -390 2899 0
-2898 390 2899 0
2899 392 -2900 0
-2899 -392 -2900 0
2899 -392 2900 0
-2899 392 2900 0
2900 393 -2901 0
-2900 -393 -2901 0
2900 -393 2901 0
-2900 393 2901 0
2901 394 -2902 0
-2901 -394 -2902 0
2901 -394 2902 0
-2901 394 2902 0
2902 395 -2903 0
-2902 -395 -2903 0
2902 -395 2903 0
-2902 395 2903 0
2903 396 -2904 0
-2903 -396 -2904 0
2903 -396 2904 0
-2903 396 2904 0
2904 398 -2905 0
-2904 -398 -2905 0
2904 -398 2905 0
-2904 398 2905 0
2905 399 -2906 0
-2905 -399 -2906 0
2905 -399 2906 0
-2905 399 2906 0
2906 400 -2907 0
-2906 -400 -2907 0
2906 -400 2907 0
-2906 400 2907 0
2907 401 -2908 0
-2907 -401 -2908 0
2907 -401 2908 0
-2907 401 2908 0
2908 402 -2909 0
-2908 -402 -2909 0
2908 -402 2909 0
-2908 402 2909 0
2909 404 -2910 0
-2909 -404 -2910 0
2909 -404 2910 0
-2909 404 2910 0
2910 405 -2911 0
-2910 -405 -2911 0
2910 -405 2911 0
-2910 405 2911 0
2911 406 -2912 0
-2911 -406 -2912 0
2911 -406 2912 0
-2911 406 2912 0
2912 407 -2913 0
-2912 -407 -2913 0
2912 -407 2913 0
-2912 407 2913 0
2913 408 -2914 0
-2913 -408 -2914 0
2913 -408 2914 0
-2913 408 2914 0
2914 410 -2915 0
-2914 -410 -2915 0
2914 -410 2915 0
-2914 410 2915 0
2915 411 -2916 0
-2915 -411 -2916 0
2915 -411 2916 0
-2915 411 2916 0
2916 412 -2917 0
-2916 -412 -2917 0
2916 -412 2917 0
-2916 412 2917 0
2917 413 -2918 0
-2917 -413 -2918 0
2917 -413 2918 0
-2917 413 2918 0
2918 414 -2919 0
-2918 -414 -2919 0
2918 -414 2919 0
-2918 414 2919 0
2919 416 -2920 0
-2919 -416 -2920 0
2919 -416 2920 0
-2919 416 2920 0
2920 417 -2921 0
-2920 -417 -2921 0
2920 -417 2921 0
-2920 417 2921 0
2921 418 -2922 0
-2921 -418 -2922 0
2921 -418 2922 0
-2921 418 2922 0
2922 419 -2923 0
-2922 -419 -2923 0
2922 -419 2923 0
-2922 419 2923 0
2923 420 -2924 0
-2923 -420 -2924 0
2923 -420 2924 0
-2923 420 2924 0
2924 422 -2925 0
-2924 -422 -2925 0
2924 -422 2925 0
-2924 422 2925 0
2925 423 -2926 0
-2925 -423 -2926 0
2925 -423 2926 0
-2925 423 2926 0
2926 424 -2927 0
-2926 -424 -2927 0
2926 -424 2927 0
-2926 424 2927 0
2927 425 -2928 0
-2927 -425 -2928 0
2927 -425 2928 0
-2927 425 2928 0
2928 426 -2929 0
-2928 -426 -2929 0
2928 -426 2929 0
-2928 426 2929 0
2929 433 -2930 0
-2929 -433 -2930 0
2929 -433 2930 0
-2929 433 2930 0
2930 434 -2931 0
-2930 -434 -2931 0
2930 -434 2931 0
-2930 434 2931 0
2931 435 -2932 0
-2931 -435 -2932 0
2931 -435 2932 0
-2931 435 2932 0
2932 436 -2933 0
-2932 -436 -2933 0
2932 -436 2933 0
-2932 436 2933 0
2933 437 -2934 0
-2933 -437 -2934 0
2933 -437 2934 0
-2933 437 2934 0
2934 438 -2935 0
-2934 -438 -2935 0
2934 -438 2935 0
-2934 438 2935 0
2935 440 -2936 0
-2935 -440 -2936 0
2935 -440 2936 0
-2935 440 2936 0
2936 441 -2937 0
-2936 -441 -2937 0
2936 -441 2937 0
-2936 441 2937 0
2937 442 -2938 0
-2937 -442 -2938 0
2937 -442 2938 0
-2937 442 2938 0
2938 443 -2939 0
-2938 -443 -2939 0
2938 -443 2939 0
-2938 443 2939 0
2939 444 -2940 0
-2939 -444 -2940 0
2939 -444 2940 0
-2939 444 2940 0
13 230 -2941 0
-13 -230 -2941 0
13 -230 2941 0
-13 230 2941 0
2941 231 -2942 0
-2941 -231 -2942 0
2941 -231 2942 0
-2941 231 2942 0
2942 232 -2943 0
-2942 -232 -2943 0
2942 -232 2943 0
-2942 232 2943 0
2943 233 -2944 0
-2943 -233 -2944 0
2943 -233 2944 0
-2943 233 2944 0
2944 234 -2945 0
-2944 -234 -2945 0
2944 -234 2945 0
-2944 234 2945 0
2945 235 -2946 0
-2945 -235 -2946 0
2945 -235 2946 0
-2945 235 2946 0
2946 434 -2947 0
-2946 -434 -2947 0
2946 -434 2947 0
-2946 434 2947 0
2947 435 -2948 0
-2947 -435 -2948 0
2947 -435 2948 0
-2947 435 2948 0
2948 436 -2949 0
-2948 -436 -2949 0
2948 -436 2949 0
-2948 436 2949 0
2949 437 -2950 0
-2949 -437 -2950 0
2949 -437 2950 0
-2949 437 2950 0
2950 438 -2951 0
-2950 -438 -2951 0
2950 -438 2951 0
-2950 438 2951 0
2951 439 -2952 0
-2951 -439 -2952 0
2951 -439 2952 0
-2951 439 2952 0
14 231 -2953 0
-14 -231 -2953 0
14 -231 2953 0
-14 231 2953 0
2953 232 -2954 0
-2953 -232 -2954 0
2953 -232 2954 0
-2953 232 2954 0
2954 233 -2955 0
-2954 -233 -2955 0
2954 -233 2955 0
-2954 233 2955 0
2955 234 -2956 0
-2955 -234 -2956 0
2955 -234 2956 0
-2955 234 2956 0
2956 235 -2957 0
-2956 -235 -2957 0
2956 -235 2957 0
-2956 235 2957 0
2957 236 -2958 0
-2957 -236 -2958 0
2957 -236 2958 0
-2957 236 2958 0
2958 435 -2959 0
-2958 -435 -2959 0
2958 -435 2959 0
-2958 435 2959 0
2959 436 -2960 0
-2959 -436 -2960 0
2959 -436 2960 0
-2959 436 2960 0
2960 437 -2961 0
-2960 -437 -2961 0
2960 -437 2961 0
-2960 437 2961 0
2961 438 -2962 0
-2961 -438 -2962 0
2961 -438 2962 0
-2961 438 2962 0
2962 439 -2963 0
-2962 -439 -2963 0
2962 -439 2963 0
-2962 439 2963 0
2963 440 -2964 0
-2963 -440 -2964 0
2963 -440 2964 0
-2963 440 2964 0
15 232 -2965 0
-15 -232 -2965 0
15 -232 2965 0
-15 232 2965 0
2965 233 -2966 0
-2965 -233 -2966 0
2965 -233 2966 0
-2965 233 2966 0
2966 234 -2967 0
-2966 -234 -2967 0
2966 -234 2967 0
-2966 234 2967 0
2967 235 -2968 0
-2967 -235 -2968 0
2967 -235 2968 0
-2967 235 2968 0
2968 236 -2969 0
-2968 -236 -2969 0
2968 -236 2969 0
-2968 236 2969 0
2969 237 -2970 0
-2969 -237 -2970 0
2969 -237 2970 0
-2969 237 2970 0
2970 436 -2971 0
-2970 -436 -2971 0
2970 -436 2971 0
-2970 436 2971 0
2971 437 -2972 0
-2971 -437 -2972 0
2971 -437 2972 0
-2971 437 2972 0
2972 438 -2973 0
-2972 -438 -2973 0
2972 -438 2973 0
-2972 438 2973 0
2973 439 -2974 0
-2973 -439 -2974 0
2973 -439 2974 0
-2973 439 2974 0
2974 440 -2975 0
-2974 -440 -2975 0
2974 -440 2975 0
-2974 440 2975 0
2975 441 -2976 0
-2975 -441 -2976 0
2975 -441 2976 0
-2975 441 2976 0
16 233 -2977 0
-16 -233 -2977 0
16 -233 2977 0
-16 233 2977 0
2977 234 -2978 0
-2977 -234 -2978 0
2977 -234 2978 0
-2977 234 2978 0
2978 235 -2979 0
-2978 -235 -2979 0
2978 -235 2979 0
-2978 235 2979 0
2979 236 -2980 0
-2979 -236 -2980 0
2979 -236 2980 0
-2979 236 2980 0
2980 237 -2981 0
-2980 -237 -2981 0
2980 -237 2981 0
-2980 237 2981 0
2981 238 -2982 0
-2981 -238 -2982 0
2981 -238 2982 0
-2981 238 2982 0
2982 437 -2983 0
-2982 -437 -2983 0
2982 -437 2983 0
-2982 437 2983 0
2983 438 -2984 0
-2983 -438 -2984 0
2983 -438 2984 0
-2983 438 2984 0
2984 439 -2985 0
-2984 -439 -2985 0
2984 -439 2985 0
-2984 439 2985 0
2985 440 -2986 0
-2985 -440 -2986 0
2985 -440 2986 0
-2985 440 2986 0
2986 441 -2987 0
-2986 -441 -2987 0
2986 -441 2987 0
-2986 441 2987 0
2987 442 -2988 0
-2987 -442 -2988 0
2987 -442 2988 0
-2987 442 2988 0
17 234 -2989 0
-17 -234 -2989 0
17 -234 2989 0
-17 234 2989 0
2989 235 -2990 0
-2989 -235 -2990 0
2989 -235 2990 0
-2989 235 2990 0
2990 236 -2991 0
-2990 -236 -2991 0
2990 -236 2991 0
-2990 236 2991 0
2991 237 -2992 0
-2991 -237 -2992 0
2991 -237 2992 0
-2991 237 2992 0
2992 238 -2993 0
-2992 -238 -2993 0
2992 -238 2993 0
-2992 238 2993 0
2993 239 -2994 0
-2993 -239 -2994 0
2993 -239 2994 0
-2993 239 2994 0
2994 438 -2995 0
-2994 -438 -2995 0
2994 -438 2995 0
-2994 438 2995 0
2995 439 -2996 0
-2995 -439 -2996 0
2995 -439 2996 0
-2995 439 2996 0
2996 440 -2997 0
-2996 -440 -2997 0
2996 -440 2997 0
-2996 440 2997 0
2997 441 -2998 0
-2997 -441 -2998 0
2997 -441 2998 0
-2997 441 2998 0
2998 442 -2999 0
-2998 -442 -2999 0
2998 -442 2999 0
-2998 442 2999 0
2999 443 -3000 0
-2999 -443 -3000 0
2999 -443 3000 0
-2999 443 3000 0
2043 2121 2232 2376 2553 2763 2940 2952 2964 2976 2988 3000 0
-1 0
-2 0
-3 0
-4 0
-5 0
-6 0
-7 0
-8 0
-9 0
-10 0
-11 0
-12 0
-13 0
-14 0
-15 0
-16 0
-17 0
-18 0
-19 0
-20 0
-21 0
-22 0
-23 0
-24 0
-25 0
-26 0
-27 0
-28 0
-29 0
-30 0
-31 0
-32 0
-33 0
-34 0
-35 0
-36 0
-37 0
-38 0
-39 0
-40 0
-41 0
-42 0
-43 0
-44 0
-45 0
-46 0
-47 0
-48 0
-49 0
-50 0
-51 0
-52 0
-53 0
-54 0
-55 0
-56 0
-57 0
-58 0
-59 0
-60 0
-61 0
-62 0
-63 0
-64 0
-65 0
-66 0
-67 0
-68 0
-69 0
-70 0
-71 0
-72 0
-73 0
-74 0
-75 0
-76 0
-77 0
-78 0
-79 0
-80 0
-81 0
-82 0
-83 0
-84 0
-85 0
-86 0
-87 0
-88 0
-89 0
-90 0
-91 0
-92 0
-93 0
-94 0
-95 0
-96 0
-97 0
-98 0
-99 0
-100 0
-101 0
-102 0
-103 0
-104 0
-105 0
-106 0
-107 0
-108 0
-109 0
-110 0
-111 0
-112 0
-113 0
-114 0
-115 0
-116 0
-117 0
-118 0
-119 0
-120 0
-121 0
-122 0
-123 0
-124 0
-125 0
-126 0
-127 0
-128 0
-129 0
-130 0
-131 0
-132 0
-133 0
-134 0
-135 0
-136 0
-137 0
-138 0
-139 0
-140 0
-141 0
-142 0
-143 0
-144 0
-145 0
-146 0
-147 0
-148 0
-149 0
-150 0
-151 0
-152 0
-153 0
-154 0
-155 0
-156 0
-157 0
-158 0
-159 0
-160 0
-161 0
-162 0
-163 0
-164 0
-165 0
-166 0
-167 0
-168 0
-169 0
-170 0
-171 0
-172 0
-173 0
-174 0
-175 0
-176 0
-177 0
-178 0
-179 0
-180 0
-181 0
-182 0
-183 0
-184 0
-185 0
-186 0
-187 0
-188 0
-189 0
-190 0
-191 0
-192 0
-193 0
-194 0
-195 0
-196 0
-197 0
-198 0
-199 0
-200 0
-201 0
-202 0
-203 0
-204 0
-205 0
-206 0
-207 0
-208 0
-209 0
-210 0
-211 0
-212 0
-213 0
-214 0
-215 0
-216 0
-217 0
-218 0
-219 0
-220 0
-221 0
-222 0
223 0
-3009 3003 3010 0
-3006 3003 3010 0
-3006 -3009 3010 0
-3010 3001 0
-3007 3001 0
-3010 -3007 3002 0
-3008 3002 0
-3010 -3008 0
-3004 3001 0
-3010 -3004 3002 0
-3005 3002 0
-3010 -3005 0
-3004 -3007 3002 0
-3010 -3004 -3007 0
-3004 -3008 0
-3010 -3004 -3008 0
-3005 -3007 0
-3010 -3005 -3007 0
-3005 -3008 0
-3010 -3005 -3008 0
-3016 3009 3017 0
-3013 3009 3017 0
-3013 -3016 3017 0
-3017 3007 0
-3014 3007 0
-3017 -3014 3008 0
-3015 3008 0
-3017 -3015 0
-3011 3007 0
-3017 -3011 3008 0
-3012 3008 0
-3017 -3012 0
-3011 -3014 3008 0
-3017 -3011 -3014 0
-3011 -3015 0
-3017 -3011 -3015 0
-3012 -3014 0
-3017 -3012 -3014 0
-3012 -3015 0
-3017 -3012 -3015 0
-3023 3016 3024 0
-3020 3016 3024 0
-3020 -3023 3024 0
-3024 3014 0
-3021 3014 0
-3024 -3021 3015 0
-3022 3015 0
-3024 -3022 0
-3018 3014 0
-3024 -3018 3015 0
-3019 3015 0
-3024 -3019 0
-3018 -3021 3015 0
-3024 -3018 -3021 0
-3018 -3022 0
-3024 -3018 -3022 0
-3019 -3021 0
-3024 -3019 -3021 0
-3019 -3022 0
-3024 -3019 -3022 0
-3030 3023 3031 0
-3027 3023 3031 0
-3027 -3030 3031 0
-3031 3021 0
-3028 3021 0
-3031 -3028 3022 0
-3029 3022 0
-3031 -3029 0
-3025 3021 0
-3031 -3025 3022 0
-3026 3022 0
-3031 -3026 0
-3025 -3028 3022 0
-3031 -3025 -3028 0
-3025 -3029 0
-3031 -3025 -3029 0
-3026 -3028 0
-3031 -3026 -3028 0
-3026 -3029 0
-3031 -3026 -3029 0
-3037 3030 3038 0
-3034 3030 3038 0
-3034 -3037 3038 0
-3038 3028 0
-3035 3028 0
-3038 -3035 3029 0
-3036 3029 0
-3038 -3036 0
-3032 3028 0
-3038 -3032 3029 0
-3033 3029 0
-3038 -3033 0
-3032 -3035 3029 0
-3038 -3032 -3035 0
-3032 -3036 0
-3038 -3032 -3036 0
-3033 -3035 0
-3038 -3033 -3035 0
-3033 -3036 0
-3038 -3033 -3036 0
-3044 3037 3045 0
-3041 3037 3045 0
-3041 -3044 3045 0
-3045 3035 0
-3042 3035 0
-3045 -3042 3036 0
-3043 3036 0
-3045 -3043 0
-3039 3035 0
-3045 -3039 3036 0
-3040 3036 0
-3045 -3040 0
-3039 -3042 3036 0
-3045 -3039 -3042 0
-3039 -3043 0
-3045 -3039 -3043 0
-3040 -3042 0
-3045 -3040 -3042 0
-3040 -3043 0
-3045 -3040 -3043 0
-3049 3044 3050 0
-3047 3044 3050 0
-3047 -3049 3050 0
-3050 3042 0
-3048 3042 0
-3050 -3048 3043 0
-3046 3042 0
-3050 -3046 3043 0
-3046 -3048 3043 0
-3050 -3046 -3048 0
-444 3049 3053 0
-3052 3049 3053 0
-3052 -444 3053 0
-3053 3048 0
-3051 3048 0
-3053 -3051 0
-443 3052 3054 0
-442 3052 3054 0
-442 -443 3054 0
-3054 3051 0
-441 3047 3057 0
-3056 3047 3057 0
-3056 -441 3057 0
-3057 3046 0
-3055 3046 0
-3057 -3055 0
-440 3056 3058 0
-439 3056 3058 0
-439 -440 3058 0
-3058 3055 0
-3063 3041 3064 0
-3061 3041 3064 0
-3061 -3063 3064 0
-3064 3039 0
-3062 3039 0
-3064 -3062 3040 0
-3059 3039 0
-3064 -3059 3040 0
-3060 3040 0
-3064 -3060 0
-3059 -3062 3040 0
-3064 -3059 -3062 0
-3060 -3062 0
-3064 -3060 -3062 0
-438 3063 3067 0
-3066 3063 3067 0
-3066 -438 3067 0
-3067 3062 0
-3065 3062 0
-3067 -3065 0
-437 3066 3068 0
-436 3066 3068 0
-436 -437 3068 0
-3068 3065 0
-3072 3061 3073 0
-3070 3061 3073 0
-3070 -3072 3073 0
-3073 3059 0
-3071 3059 0
-3073 -3071 3060 0
-3069 3059 0
-3073 -3069 3060 0
-3069 -3071 3060 0
-3073 -3069 -3071 0
-435 3072 3074 0
-434 3072 3074 0
-434 -435 3074 0
-3074 3071 0
-433 3070 3075 0
-432 3070 3075 0
-432 -433 3075 0
-3075 3069 0
-3081 3034 3082 0
-3078 3034 3082 0
-3078 -3081 3082 0
-3082 3032 0
-3079 3032 0
-3082 -3079 3033 0
-3080 3033 0
-3082 -3080 0
-3076 3032 0
-3082 -3076 3033 0
-3077 3033 0
-3082 -3077 0
-3076 -3079 3033 0
-3082 -3076 -3079 0
-3076 -3080 0
-3082 -3076 -3080 0
-3077 -3079 0
-3082 -3077 -3079 0
-3077 -3080 0
-3082 -3077 -3080 0
-3087 3081 3088 0
-3085 3081 3088 0
-3085 -3087 3088 0
-3088 3079 0
-3086 3079 0
-3088 -3086 3080 0
-3083 3079 0
-3088 -3083 3080 0
-3084 3080 0
-3088 -3084 0
-3083 -3086 3080 0
-3088 -3083 -3086 0
-3084 -3086 0
-3088 -3084 -3086 0
-431 3087 3091 0
-3090 3087 3091 0
-3090 -431 3091 0
-3091 3086 0
-3089 3086 0
-3091 -3089 0
-430 3090 3092 0
-429 3090 3092 0
-429 -430 3092 0
-3092 3089 0
-3096 3085 3097 0
-3094 3085 3097 0
-3094 -3096 3097 0
-3097 3083 0
-3095 3083 0
-3097 -3095 3084 0
-3093 3083 0
-3097 -3093 3084 0
-3093 -3095 3084 0
-3097 -3093 -3095 0
-428 3096 3098 0
-427 3096 3098 0
-427 -428 3098 0
-3098 3095 0
-426 3094 3099 0
-425 3094 3099 0
-425 -426 3099 0
-3099 3093 0
-3104 3078 3105 0
-3102 3078 3105 0
-3102 -3104 3105 0
-3105 3076 0
-3103 3076 0
-3105 -3103 3077 0
-3100 3076 0
-3105 -3100 3077 0
-3101 3077 0
-3105 -3101 0
-3100 -3103 3077 0
-3105 -3100 -3103 0
-3101 -3103 0
-3105 -3101 -3103 0
-424 3104 3108 0
-3107 3104 3108 0
-3107 -424 3108 0
-3108 3103 0
-3106 3103 0
-3108 -3106 0
-423 3107 3109 0
-422 3107 3109 0
-422 -423 3109 0
-3109 3106 0
-3113 3102 3114 0
-3111 3102 3114 0
-3111 -3113 3114 0
-3114 3100 0
-3112 3100 0
-3114 -3112 3101 0
-3110 3100 0
-3114 -3110 3101 0
-3110 -3112 3101 0
-3114 -3110 -3112 0
-421 3113 3115 0
-420 3113 3115 0
-420 -421 3115 0
-3115 3112 0
-419 3111 3116 0
-418 3111 3116 0
-418 -419 3116 0
-3116 3110 0
-3122 3027 3123 0
-3119 3027 3123 0
-3119 -3122 3123 0
-3123 3025 0
-3120 3025 0
-3123 -3120 3026 0
-3121 3026 0
-3123 -3121 0
-3117 3025 0
-3123 -3117 3026 0
-3118 3026 0
-3123 -3118 0
-3117 -3120 3026 0
-3123 -3117 -3120 0
-3117 -3121 0
-3123 -3117 -3121 0
-3118 -3120 0
-3123 -3118 -3120 0
-3118 -3121 0
-3123 -3118 -3121 0
-3129 3122 3130 0
-3126 3122 3130 0
-3126 -3129 3130 0
-3130 3120 0
-3127 3120 0
-3130 -3127 3121 0
-3128 3121 0
-3130 -3128 0
-3124 3120 0
-3130 -3124 3121 0
-3125 3121 0
-3130 -3125 0
-3124 -3127 3121 0
-3130 -3124 -3127 0
-3124 -3128 0
-3130 -3124 -3128 0
-3125 -3127 0
-3130 -3125 -3127 0
-3125 -3128 0
-3130 -3125 -3128 0
-3135 3129 3136 0
-3133 3129 3136 0
-3133 -3135 3136 0
-3136 3127 0
-3134 3127 0
-3136 -3134 3128 0
-3131 3127 0
-3136 -3131 3128 0
-3132 3128 0
-3136 -3132 0
-3131 -3134 3128 0
-3136 -3131 -3134 0
-3132 -3134 0
-3136 -3132 -3134 0
-417 3135 3139 0
-3138 3135 3139 0
-3138 -417 3139 0
-3139 3134 0
-3137 3134 0
-3139 -3137 0
-416 3138 3140 0
-415 3138 3140 0
-415 -416 3140 0
-3140 3137 0
-3144 3133 3145 0
-3142 3133 3145 0
-3142 -3144 3145 0
-3145 3131 0
-3143 3131 0
-3145 -3143 3132 0
-3141 3131 0
-3145 -3141 3132 0
-3141 -3143 3132 0
-3145 -3141 -3143 0
-414 3144 3146 0
-413 3144 3146 0
-413 -414 3146 0
-3146 3143 0
-412 3142 3147 0
-411 3142 3147 0
-411 -412 3147 0
-3147 3141 0
-3152 3126 3153 0
-3150 3126 3153 0
-3150 -3152 3153 0
-3153 3124 0
-3151 3124 0
-3153 -3151 3125 0
-3148 3124 0
-3153 -3148 3125 0
-3149 3125 0
-3153 -3149 0
-3148 -3151 3125 0
-3153 -3148 -3151 0
-3149 -3151 0
-3153 -3149 -3151 0
-410 3152 3156 0
-3155 3152 3156 0
-3155 -410 3156 0
-3156 3151 0
-3154 3151 0
-3156 -3154 0
-409 3155 3157 0
-408 3155 3157 0
-408 -409 3157 0
-3157 3154 0
-3161 3150 3162 0
-3159 3150 3162 0
-3159 -3161 3162 0
-3162 3148 0
-3160 3148 0
-3162 -3160 3149 0
-3158 3148 0
-3162 -3158 3149 0
-3158 -3160 3149 0
-3162 -3158 -3160 0
-407 3161 3163 0
-406 3161 3163 0
-406 -407 3163 0
-3163 3160 0
-405 3159 3164 0
-404 3159 3164 0
-404 -405 3164 0
-3164 3158 0
-3170 3119 3171 0
-3167 3119 3171 0
-3167 -3170 3171 0
-3171 3117 0
-3168 3117 0
-3171 -3168 3118 0
-3169 3118 0
-3171 -3169 0
-3165 3117 0
-3171 -3165 3118 0
-3166 3118 0
-3171 -3166 0
-3165 -3168 3118 0
-3171 -3165 -3168 0
-3165 -3169 0
-3171 -3165 -3169 0
-3166 -3168 0
-3171 -3166 -3168 0
-3166 -3169 0
-3171 -3166 -3169 0
-3176 3170 3177 0
-3174 3170 3177 0
-3174 -3176 3177 0
-3177 3168 0
-3175 3168 0
-3177 -3175 3169 0
-3172 3168 0
-3177 -3172 3169 0
-3173 3169 0
-3177 -3173 0
-3172 -3175 3169 0
-3177 -3172 -3175 0
-3173 -3175 0
-3177 -3173 -3175 0
-403 3176 3180 0
-3179 3176 3180 0
-3179 -403 3180 0
-3180 3175 0
-3178 3175 0
-3180 -3178 0
-402 3179 3181 0
-401 3179 3181 0
-401 -402 3181 0
-3181 3178 0
-3185 3174 3186 0
-3183 3174 3186 0
-3183 -3185 3186 0
-3186 3172 0
-3184 3172 0
-3186 -3184 3173 0
-3182 3172 0
-3186 -3182 3173 0
-3182 -3184 3173 0
-3186 -3182 -3184 0
-400 3185 3187 0
-399 3185 3187 0
-399 -400 3187 0
-3187 3184 0
-398 3183 3188 0
-397 3183 3188 0
-397 -398 3188 0
-3188 3182 0
-3193 3167 3194 0
-3191 3167 3194 0
-3191 -3193 3194 0
-3194 3165 0
-3192 3165 0
-3194 -3192 3166 0
-3189 3165 0
-3194 -3189 3166 0
-3190 3166 0
-3194 -3190 0
-3189 -3192 3166 0
-3194 -3189 -3192 0
-3190 -3192 0
-3194 -3190 -3192 0
-396 3193 3197 0
-3196 3193 3197 0
-3196 -396 3197 0
-3197 3192 0
-3195 3192 0
-3197 -3195 0
-395 3196 3198 0
-394 3196 3198 0
-394 -395 3198 0
-3198 3195 0
-3202 3191 3203 0
-3200 3191 3203 0
-3200 -3202 3203 0
-3203 3189 0
-3201 3189 0
-3203 -3201 3190 0
-3199 3189 0
-3203 -3199 3190 0
-3199 -3201 3190 0
-3203 -3199 -3201 0
-393 3202 3204 0
-392 3202 3204 0
-392 -393 3204 0
-3204 3201 0
-391 3200 3205 0
-390 3200 3205 0
-390 -391 3205 0
-3205 3199 0
-3211 3020 3212 0
-3208 3020 3212 0
-3208 -3211 3212 0
-3212 3018 0
-3209 3018 0
-3212 -3209 3019 0
-3210 3019 0
-3212 -3210 0
-3206 3018 0
-3212 -3206 3019 0
-3207 3019 0
-3212 -3207 0
-3206 -3209 3019 0
-3212 -3206 -3209 0
-3206 -3210 0
-3212 -3206 -3210 0
-3207 -3209 0
-3212 -3207 -3209 0
-3207 -3210 0
-3212 -3207 -3210 0
-3218 3211 3219 0
-3215 3211 3219 0
-3215 -3218 3219 0
-3219 3209 0
-3216 3209 0
-3219 -3216 3210 0
-3217 3210 0
-3219 -3217 0
-3213 3209 0
-3219 -3213 3210 0
-3214 3210 0
-3219 -3214 0
-3213 -3216 3210 0
-3219 -3213 -3216 0
-3213 -3217 0
-3219 -3213 -3217 0
-3214 -3216 0
-3219 -3214 -3216 0
-3214 -3217 0
-3219 -3214 -3217 0
-3225 3218 3226 0
-3222 3218 3226 0
-3222 -3225 3226 0
-3226 3216 0
-3223 3216 0
-3226 -3223 3217 0
-3224 3217 0
-3226 -3224 0
-3220 3216 0
-3226 -3220 3217 0
-3221 3217 0
-3226 -3221 0
-3220 -3223 3217 0
-3226 -3220 -3223 0
-3220 -3224 0
-3226 -3220 -3224 0
-3221 -3223 0
-3226 -3221 -3223 0
-3221 -3224 0
-3226 -3221 -3224 0
-3231 3225 3232 0
-3229 3225 3232 0
-3229 -3231 3232 0
-3232 3223 0
-3230 3223 0
-3232 -3230 3224 0
-3227 3223 0
-3232 -3227 3224 0
-3228 3224 0
-3232 -3228 0
-3227 -3230 3224 0
-3232 -3227 -3230 0
-3228 -3230 0
-3232 -3228 -3230 0
-389 3231 3235 0
-3234 3231 3235 0
-3234 -389 3235 0
-3235 3230 0
-3233 3230 0
-3235 -3233 0
-388 3234 3236 0
-387 3234 3236 0
-387 -388 3236 0
-3236 3233 0
-3240 3229 3241 0
-3238 3229 3241 0
-3238 -3240 3241 0
-3241 3227 0
-3239 3227 0
-3241 -3239 3228 0
-3237 3227 0
-3241 -3237 3228 0
-3237 -3239 3228 0
-3241 -3237 -3239 0
-386 3240 3242 0
-385 3240 3242 0
-385 -386 3242 0
-3242 3239 0
-384 3238 3243 0
-383 3238 3243 0
-383 -384 3243 0
-3243 3237 0
-3248 3222 3249 0
-3246 3222 3249 0
-3246 -3248 3249 0
-3249 3220 0
-3247 3220 0
-3249 -3247 3221 0
-3244 3220 0
-3249 -3244 3221 0
-3245 3221 0
-3249 -3245 0
-3244 -3247 3221 0
-3249 -3244 -3247 0
-3245 -3247 0
-3249 -3245 -3247 0
-382 3248 3252 0
-3251 3248 3252 0
-3251 -382 3252 0
-3252 3247 0
-3250 3247 0
-3252 -3250 0
-381 3251 3253 0
-380 3251 3253 0
-380 -381 3253 0
-3253 3250 0
-3257 3246 3258 0
-3255 3246 3258 0
-3255 -3257 3258 0
-3258 3244 0
-3256 3244 0
-3258 -3256 3245 0
-3254 3244 0
-3258 -3254 3245 0
-3254 -3256 3245 0
-3258 -3254 -3256 0
-379 3257 3259 0
-378 3257 3259 0
-378 -379 3259 0
-3259 3256 0
-377 3255 3260 0
-376 3255 3260 0
-376 -377 3260 0
-3260 3254 0
-3266 3215 3267 0
-3263 3215 3267 0
-3263 -3266 3267 0
-3267 3213 0
-3264 3213 0
-3267 -3264 3214 0
-3265 3214 0
-3267 -3265 0
-3261 3213 0
-3267 -3261 3214 0
-3262 3214 0
-3267 -3262 0
-3261 -3264 3214 0
-3267 -3261 -3264 0
-3261 -3265 0
-3267 -3261 -3265 0
-3262 -3264 0
-3267 -3262 -3264 0
-3262 -3265 0
-3267 -3262 -3265 0
-3272 3266 3273 0
-3270 3266 3273 0
-3270 -3272 3273 0
-3273 3264 0
-3271 3264 0
-3273 -3271 3265 0
-3268 3264 0
-3273 -3268 3265 0
-3269 3265 0
-3273 -3269 0
-3268 -3271 3265 0
-3273 -3268 -3271 0
-3269 -3271 0
-3273 -3269 -3271 0
-375 3272 3276 0
-3275 3272 3276 0
-3275 -375 3276 0
-3276 3271 0
-3274 3271 0
-3276 -3274 0
-374 3275 3277 0
-373 3275 3277 0
-373 -374 3277 0
-3277 3274 0
-3281 3270 3282 0
-3279 3270 3282 0
-3279 -3281 3282 0
-3282 3268 0
-3280 3268 0
-3282 -3280 3269 0
-3278 3268 0
-3282 -3278 3269 0
-3278 -3280 3269 0
-3282 -3278 -3280 0
-372 3281 3283 0
-371 3281 3283 0
-371 -372 3283 0
-3283 3280 0
-370 3279 3284 0
-369 3279 3284 0
-369 -370 3284 0
-3284 3278 0
-3289 3263 3290 0
-3287 3263 3290 0
-3287 -3289 3290 0
-3290 3261 0
-3288 3261 0
-3290 -3288 3262 0
-3285 3261 0
-3290 -3285 3262 0
-3286 3262 0
-3290 -3286 0
-3285 -3288 3262 0
-3290 -3285 -3288 0
-3286 -3288 0
-3290 -3286 -3288 0
-368 3289 3293 0
-3292 3289 3293 0
-3292 -368 3293 0
-3293 3288 0
-3291 3288 0
-3293 -3291 0
-367 3292 3294 0
-366 3292 3294 0
-366 -367 3294 0
-3294 3291 0
-3298 3287 3299 0
-3296 3287 3299 0
-3296 -3298 3299 0
-3299 3285 0
-3297 3285 0
-3299 -3297 3286 0
-3295 3285 0
-3299 -3295 3286 0
-3295 -3297 3286 0
-3299 -3295 -3297 0
-365 3298 3300 0
-364 3298 3300 0
-364 -365 3300 0
-3300 3297 0
-363 3296 3301 0
-362 3296 3301 0
-362 -363 3301 0
-3301 3295 0
-3307 3208 3308 0
-3304 3208 3308 0
-3304 -3307 3308 0
-3308 3206 0
-3305 3206 0
-3308 -3305 3207 0
-3306 3207 0
-3308 -3306 0
-3302 3206 0
-3308 -3302 3207 0
-3303 3207 0
-3308 -3303 0
-3302 -3305 3207 0
-3308 -3302 -3305 0
-3302 -3306 0
-3308 -3302 -3306 0
-3303 -3305 0
-3308 -3303 -3305 0
-3303 -3306 0
-3308 -3303 -3306 0
-3314 3307 3315 0
-3311 3307 3315 0
-3311 -3314 3315 0
-3315 3305 0
-3312 3305 0
-3315 -3312 3306 0
-3313 3306 0
-3315 -3313 0
-3309 3305 0
-3315 -3309 3306 0
-3310 3306 0
-3315 -3310 0
-3309 -3312 3306 0
-3315 -3309 -3312 0
-3309 -3313 0
-3315 -3309 -3313 0
-3310 -3312 0
-3315 -3310 -3312 0
-3310 -3313 0
-3315 -3310 -3313 0
-3320 3314 3321 0
-3318 3314 3321 0
-3318 -3320 3321 0
-3321 3312 0
-3319 3312 0
-3321 -3319 3313 0
-3316 3312 0
-3321 -3316 3313 0
-3317 3313 0
-3321 -3317 0
-3316 -3319 3313 0
-3321 -3316 -3319 0
-3317 -3319 0
-3321 -3317 -3319 0
-361 3320 3324 0
-3323 3320 3324 0
-3323 -361 3324 0
-3324 3319 0
-3322 3319 0
-3324 -3322 0
-360 3323 3325 0
-359 3323 3325 0
-359 -360 3325 0
-3325 3322 0
-3329 3318 3330 0
-3327 3318 3330 0
-3327 -3329 3330 0
-3330 3316 0
-3328 3316 0
-3330 -3328 3317 0
-3326 3316 0
-3330 -3326 3317 0
-3326 -3328 3317 0
-3330 -3326 -3328 0
-358 3329 3331 0
-357 3329 3331 0
-357 -358 3331 0
-3331 3328 0
-356 3327 3332 0
-355 3327 3332 0
-355 -356 3332 0
-3332 3326 0
-3337 3311 3338 0
-3335 3311 3338 0
-3335 -3337 3338 0
-3338 3309 0
-3336 3309 0
-3338 -3336 3310 0
-3333 3309 0
-3338 -3333 3310 0
-3334 3310 0
-3338 -3334 0
-3333 -3336 3310 0
-3338 -3333 -3336 0
-3334 -3336 0
-3338 -3334 -3336 0
-354 3337 3341 0
-3340 3337 3341 0
-3340 -354 3341 0
-3341 3336 0
-3339 3336 0
-3341 -3339 0
-353 3340 3342 0
-352 3340 3342 0
-352 -353 3342 0
-3342 3339 0
-3346 3335 3347 0
-3344 3335 3347 0
-3344 -3346 3347 0
-3347 3333 0
-3345 3333 0
-3347 -3345 3334 0
-3343 3333 0
-3347 -3343 3334 0
-3343 -3345 3334 0
-3347 -3343 -3345 0
-351 3346 3348 0
-350 3346 3348 0
-350 -351 3348 0
-3348 3345 0
-349 3344 3349 0
-348 3344 3349 0
-348 -349 3349 0
-3349 3343 0
-3355 3304 3356 0
-3352 3304 3356 0
-3352 -3355 3356 0
-3356 3302 0
-3353 3302 0
-3356 -3353 3303 0
-3354 3303 0
-3356 -3354 0
-3350 3302 0
-3356 -3350 3303 0
-3351 3303 0
-3356 -3351 0
-3350 -3353 3303 0
-3356 -3350 -3353 0
-3350 -3354 0
-3356 -3350 -3354 0
-3351 -3353 0
-3356 -3351 -3353 0
-3351 -3354 0
-3356 -3351 -3354 0
-3361 3355 3362 0
-3359 3355 3362 0
-3359 -3361 3362 0
-3362 3353 0
-3360 3353 0
-3362 -3360 3354 0
-3357 3353 0
-3362 -3357 3354 0
-3358 3354 0
-3362 -3358 0
-3357 -3360 3354 0
-3362 -3357 -3360 0
-3358 -3360 0
-3362 -3358 -3360 0
-347 3361 3365 0
-3364 3361 3365 0
-3364 -347 3365 0
-3365 3360 0
-3363 3360 0
-3365 -3363 0
-346 3364 3366 0
-345 3364 3366 0
-345 -346 3366 0
-3366 3363 0
-3370 3359 3371 0
-3368 3359 3371 0
-3368 -3370 3371 0
-3371 3357 0
-3369 3357 0
-3371 -3369 3358 0
-3367 3357 0
-3371 -3367 3358 0
-3367 -3369 3358 0
-3371 -3367 -3369 0
-344 3370 3372 0
-343 3370 3372 0
-343 -344 3372 0
-3372 3369 0
-342 3368 3373 0
-341 3368 3373 0
-341 -342 3373 0
-3373 3367 0
-3378 3352 3379 0
-3376 3352 3379 0
-3376 -3378 3379 0
-3379 3350 0
-3377 3350 0
-3379 -3377 3351 0
-3374 3350 0
-3379 -3374 3351 0
-3375 3351 0
-3379 -3375 0
-3374 -3377 3351 0
-3379 -3374 -3377 0
-3375 -3377 0
-3379 -3375 -3377 0
-340 3378 3382 0
-3381 3378 3382 0
-3381 -340 3382 0
-3382 3377 0
-3380 3377 0
-3382 -3380 0
-339 3381 3383 0
-338 3381 3383 0
-338 -339 3383 0
-3383 3380 0
-3387 3376 3388 0
-3385 3376 3388 0
-3385 -3387 3388 0
-3388 3374 0
-3386 3374 0
-3388 -3386 3375 0
-3384 3374 0
-3388 -3384 3375 0
-3384 -3386 3375 0
-3388 -3384 -3386 0
-337 3387 3389 0
-336 3387 3389 0
-336 -337 3389 0
-3389 3386 0
-335 3385 3390 0
-334 3385 3390 0
-334 -335 3390 0
-3390 3384 0
-3396 3013 3397 0
-3393 3013 3397 0
-3393 -3396 3397 0
-3397 3011 0
-3394 3011 0
-3397 -3394 3012 0
-3395 3012 0
-3397 -3395 0
-3391 3011 0
-3397 -3391 3012 0
-3392 3012 0
-3397 -3392 0
-3391 -3394 3012 0
-3397 -3391 -3394 0
-3391 -3395 0
-3397 -3391 -3395 0
-3392 -3394 0
-3397 -3392 -3394 0
-3392 -3395 0
-3397 -3392 -3395 0
-3403 3396 3404 0
-3400 3396 3404 0
-3400 -3403 3404 0
-3404 3394 0
-3401 3394 0
-3404 -3401 3395 0
-3402 3395 0
-3404 -3402 0
-3398 3394 0
-3404 -3398 3395 0
-3399 3395 0
-3404 -3399 0
-3398 -3401 3395 0
-3404 -3398 -3401 0
-3398 -3402 0
-3404 -3398 -3402 0
-3399 -3401 0
-3404 -3399 -3401 0
-3399 -3402 0
-3404 -3399 -3402 0
-3410 3403 3411 0
-3407 3403 3411 0
-3407 -3410 3411 0
-3411 3401 0
-3408 3401 0
-3411 -3408 3402 0
-3409 3402 0
-3411 -3409 0
-3405 3401 0
-3411 -3405 3402 0
-3406 3402 0
-3411 -3406 0
-3405 -3408 3402 0
-3411 -3405 -3408 0
-3405 -3409 0
-3411 -3405 -3409 0
-3406 -3408 0
-3411 -3406 -3408 0
-3406 -3409 0
-3411 -3406 -3409 0
-3417 3410 3418 0
-3414 3410 3418 0
-3414 -3417 3418 0
-3418 3408 0
-3415 3408 0
-3418 -3415 3409 0
-3416 3409 0
-3418 -3416 0
-3412 3408 0
-3418 -3412 3409 0
-3413 3409 0
-3418 -3413 0
-3412 -3415 3409 0
-3418 -3412 -3415 0
-3412 -3416 0
-3418 -3412 -3416 0
-3413 -3415 0
-3418 -3413 -3415 0
-3413 -3416 0
-3418 -3413 -3416 0
-3422 3417 3423 0
-3420 3417 3423 0
-3420 -3422 3423 0
-3423 3415 0
-3421 3415 0
-3423 -3421 3416 0
-3419 3415 0
-3423 -3419 3416 0
-3419 -3421 3416 0
-3423 -3419 -3421 0
-333 3422 3426 0
-3425 3422 3426 0
-3425 -333 3426 0
-3426 3421 0
-3424 3421 0
-3426 -3424 0
-332 3425 3427 0
-331 3425 3427 0
-331 -332 3427 0
-3427 3424 0
-330 3420 3430 0
-3429 3420 3430 0
-3429 -330 3430 0
-3430 3419 0
-3428 3419 0
-3430 -3428 0
-329 3429 3431 0
-328 3429 3431 0
-328 -329 3431 0
-3431 3428 0
-3436 3414 3437 0
-3434 3414 3437 0
-3434 -3436 3437 0
-3437 3412 0
-3435 3412 0
-3437 -3435 3413 0
-3432 3412 0
-3437 -3432 3413 0
-3433 3413 0
-3437 -3433 0
-3432 -3435 3413 0
-3437 -3432 -3435 0
-3433 -3435 0
-3437 -3433 -3435 0
-327 3436 3440 0
-3439 3436 3440 0
-3439 -327 3440 0
-3440 3435 0
-3438 3435 0
-3440 -3438 0
-326 3439 3441 0
-325 3439 3441 0
-325 -326 3441 0
-3441 3438 0
-3445 3434 3446 0
-3443 3434 3446 0
-3443 -3445 3446 0
-3446 3432 0
-3444 3432 0
-3446 -3444 3433 0
-3442 3432 0
-3446 -3442 3433 0
-3442 -3444 3433 0
-3446 -3442 -3444 0
-324 3445 3447 0
-323 3445 3447 0
-323 -324 3447 0
-3447 3444 0
-322 3443 3448 0
-321 3443 3448 0
-321 -322 3448 0
-3448 3442 0
-3454 3407 3455 0
-3451 3407 3455 0
-3451 -3454 3455 0
-3455 3405 0
-3452 3405 0
-3455 -3452 3406 0
-3453 3406 0
-3455 -3453 0
-3449 3405 0
-3455 -3449 3406 0
-3450 3406 0
-3455 -3450 0
-3449 -3452 3406 0
-3455 -3449 -3452 0
-3449 -3453 0
-3455 -3449 -3453 0
-3450 -3452 0
-3455 -3450 -3452 0
-3450 -3453 0
-3455 -3450 -3453 0
-3460 3454 3461 0
-3458 3454 3461 0
-3458 -3460 3461 0
-3461 3452 0
-3459 3452 0
-3461 -3459 3453 0
-3456 3452 0
-3461 -3456 3453 0
-3457 3453 0
-3461 -3457 0
-3456 -3459 3453 0
-3461 -3456 -3459 0
-3457 -3459 0
-3461 -3457 -3459 0
-320 3460 3464 0
-3463 3460 3464 0
-3463 -320 3464 0
-3464 3459 0
-3462 3459 0
-3464 -3462 0
-319 3463 3465 0
-318 3463 3465 0
-318 -319 3465 0
-3465 3462 0
-3469 3458 3470 0
-3467 3458 3470 0
-3467 -3469 3470 0
-3470 3456 0
-3468 3456 0
-3470 -3468 3457 0
-3466 3456 0
-3470 -3466 3457 0
-3466 -3468 3457 0
-3470 -3466 -3468 0
-317 3469 3471 0
-316 3469 3471 0
-316 -317 3471 0
-3471 3468 0
-315 3467 3472 0
-314 3467 3472 0
-314 -315 3472 0
-3472 3466 0
-3477 3451 3478 0
-3475 3451 3478 0
-3475 -3477 3478 0
-3478 3449 0
-3476 3449 0
-3478 -3476 3450 0
-3473 3449 0
-3478 -3473 3450 0
-3474 3450 0
-3478 -3474 0
-3473 -3476 3450 0
-3478 -3473 -3476 0
-3474 -3476 0
-3478 -3474 -3476 0
-313 3477 3481 0
-3480 3477 3481 0
-3480 -313 3481 0
-3481 3476 0
-3479 3476 0
-3481 -3479 0
-312 3480 3482 0
-311 3480 3482 0
-311 -312 3482 0
-3482 3479 0
-3486 3475 3487 0
-3484 3475 3487 0
-3484 -3486 3487 0
-3487 3473 0
-3485 3473 0
-3487 -3485 3474 0
-3483 3473 0
-3487 -3483 3474 0
-3483 -3485 3474 0
-3487 -3483 -3485 0
-310 3486 3488 0
-309 3486 3488 0
-309 -310 3488 0
-3488 3485 0
-308 3484 3489 0
-307 3484 3489 0
-307 -308 3489 0
-3489 3483 0
-3495 3400 3496 0
-3492 3400 3496 0
-3492 -3495 3496 0
-3496 3398 0
-3493 3398 0
-3496 -3493 3399 0
-3494 3399 0
-3496 -3494 0
-3490 3398 0
-3496 -3490 3399 0
-3491 3399 0
-3496 -3491 0
-3490 -3493 3399 0
-3496 -3490 -3493 0
-3490 -3494 0
-3496 -3490 -3494 0
-3491 -3493 0
-3496 -3491 -3493 0
-3491 -3494 0
-3496 -3491 -3494 0
-3502 3495 3503 0
-3499 3495 3503 0
-3499 -3502 3503 0
-3503 3493 0
-3500 3493 0
-3503 -3500 3494 0
-3501 3494 0
-3503 -3501 0
-3497 3493 0
-3503 -3497 3494 0
-3498 3494 0
-3503 -3498 0
-3497 -3500 3494 0
-3503 -3497 -3500 0
-3497 -3501 0
-3503 -3497 -3501 0
-3498 -3500 0
-3503 -3498 -3500 0
-3498 -3501 0
-3503 -3498 -3501 0
-3508 3502 3509 0
-3506 3502 3509 0
-3506 -3508 3509 0
-3509 3500 0
-3507 3500 0
-3509 -3507 3501 0
-3504 3500 0
-3509 -3504 3501 0
-3505 3501 0
-3509 -3505 0
-3504 -3507 3501 0
-3509 -3504 -3507 0
-3505 -3507 0
-3509 -3505 -3507 0
-306 3508 3512 0
-3511 3508 3512 0
-3511 -306 3512 0
-3512 3507 0
-3510 3507 0
-3512 -3510 0
-305 3511 3513 0
-304 3511 3513 0
-304 -305 3513 0
-3513 3510 0
-3517 3506 3518 0
-3515 3506 3518 0
-3515 -3517 3518 0
-3518 3504 0
-3516 3504 0
-3518 -3516 3505 0
-3514 3504 0
-3518 -3514 3505 0
-3514 -3516 3505 0
-3518 -3514 -3516 0
-303 3517 3519 0
-302 3517 3519 0
-302 -303 3519 0
-3519 3516 0
-301 3515 3520 0
-300 3515 3520 0
-300 -301 3520 0
-3520 3514 0
-3525 3499 3526 0
-3523 3499 3526 0
-3523 -3525 3526 0
-3526 3497 0
-3524 3497 0
-3526 -3524 3498 0
-3521 3497 0
-3526 -3521 3498 0
-3522 3498 0
-3526 -3522 0
-3521 -3524 3498 0
-3526 -3521 -3524 0
-3522 -3524 0
-3526 -3522 -3524 0
-299 3525 3529 0
-3528 3525 3529 0
-3528 -299 3529 0
-3529 3524 0
-3527 3524 0
-3529 -3527 0
-298 3528 3530 0
-297 3528 3530 0
-297 -298 3530 0
-3530 3527 0
-3534 3523 3535 0
-3532 3523 3535 0
-3532 -3534 3535 0
-3535 3521 0
-3533 3521 0
-3535 -3533 3522 0
-3531 3521 0
-3535 -3531 3522 0
-3531 -3533 3522 0
-3535 -3531 -3533 0
-296 3534 3536 0
-295 3534 3536 0
-295 -296 3536 0
-3536 3533 0
-294 3532 3537 0
-293 3532 3537 0
-293 -294 3537 0
-3537 3531 0
-3543 3492 3544 0
-3540 3492 3544 0
-3540 -3543 3544 0
-3544 3490 0
-3541 3490 0
-3544 -3541 3491 0
-3542 3491 0
-3544 -3542 0
-3538 3490 0
-3544 -3538 3491 0
-3539 3491 0
-3544 -3539 0
-3538 -3541 3491 0
-3544 -3538 -3541 0
-3538 -3542 0
-3544 -3538 -3542 0
-3539 -3541 0
-3544 -3539 -3541 0
-3539 -3542 0
-3544 -3539 -3542 0
-3549 3543 3550 0
-3547 3543 3550 0
-3547 -3549 3550 0
-3550 3541 0
-3548 3541 0
-3550 -3548 3542 0
-3545 3541 0
-3550 -3545 3542 0
-3546 3542 0
-3550 -3546 0
-3545 -3548 3542 0
-3550 -3545 -3548 0
-3546 -3548 0
-3550 -3546 -3548 0
-292 3549 3553 0
-3552 3549 3553 0
-3552 -292 3553 0
-3553 3548 0
-3551 3548 0
-3553 -3551 0
-291 3552 3554 0
-290 3552 3554 0
-290 -291 3554 0
-3554 3551 0
-3558 3547 3559 0
-3556 3547 3559 0
-3556 -3558 3559 0
-3559 3545 0
-3557 3545 0
-3559 -3557 3546 0
-3555 3545 0
-3559 -3555 3546 0
-3555 -3557 3546 0
-3559 -3555 -3557 0
-289 3558 3560 0
-288 3558 3560 0
-288 -289 3560 0
-3560 3557 0
-287 3556 3561 0
-286 3556 3561 0
-286 -287 3561 0
-3561 3555 0
-3566 3540 3567 0
-3564 3540 3567 0
-3564 -3566 3567 0
-3567 3538 0
-3565 3538 0
-3567 -3565 3539 0
-3562 3538 0
-3567 -3562 3539 0
-3563 3539 0
-3567 -3563 0
-3562 -3565 3539 0
-3567 -3562 -3565 0
-3563 -3565 0
-3567 -3563 -3565 0
-285 3566 3570 0
-3569 3566 3570 0
-3569 -285 3570 0
-3570 3565 0
-3568 3565 0
-3570 -3568 0
-284 3569 3571 0
-283 3569 3571 0
-283 -284 3571 0
-3571 3568 0
-3575 3564 3576 0
-3573 3564 3576 0
-3573 -3575 3576 0
-3576 3562 0
-3574 3562 0
-3576 -3574 3563 0
-3572 3562 0
-3576 -3572 3563 0
-3572 -3574 3563 0
-3576 -3572 -3574 0
-282 3575 3577 0
-281 3575 3577 0
-281 -282 3577 0
-3577 3574 0
-280 3573 3578 0
-279 3573 3578 0
-279 -280 3578 0
-3578 3572 0
-3584 3393 3585 0
-3581 3393 3585 0
-3581 -3584 3585 0
-3585 3391 0
-3582 3391 0
-3585 -3582 3392 0
-3583 3392 0
-3585 -3583 0
-3579 3391 0
-3585 -3579 3392 0
-3580 3392 0
-3585 -3580 0
-3579 -3582 3392 0
-3585 -3579 -3582 0
-3579 -3583 0
-3585 -3579 -3583 0
-3580 -3582 0
-3585 -3580 -3582 0
-3580 -3583 0
-3585 -3580 -3583 0
-3591 3584 3592 0
-3588 3584 3592 0
-3588 -3591 3592 0
-3592 3582 0
-3589 3582 0
-3592 -3589 3583 0
-3590 3583 0
-3592 -3590 0
-3586 3582 0
-3592 -3586 3583 0
-3587 3583 0
-3592 -3587 0
-3586 -3589 3583 0
-3592 -3586 -3589 0
-3586 -3590 0
-3592 -3586 -3590 0
-3587 -3589 0
-3592 -3587 -3589 0
-3587 -3590 0
-3592 -3587 -3590 0
-3598 3591 3599 0
-3595 3591 3599 0
-3595 -3598 3599 0
-3599 3589 0
-3596 3589 0
-3599 -3596 3590 0
-3597 3590 0
-3599 -3597 0
-3593 3589 0
-3599 -3593 3590 0
-3594 3590 0
-3599 -3594 0
-3593 -3596 3590 0
-3599 -3593 -3596 0
-3593 -3597 0
-3599 -3593 -3597 0
-3594 -3596 0
-3599 -3594 -3596 0
-3594 -3597 0
-3599 -3594 -3597 0
-3604 3598 3605 0
-3602 3598 3605 0
-3602 -3604 3605 0
-3605 3596 0
-3603 3596 0
-3605 -3603 3597 0
-3600 3596 0
-3605 -3600 3597 0
-3601 3597 0
-3605 -3601 0
-3600 -3603 3597 0
-3605 -3600 -3603 0
-3601 -3603 0
-3605 -3601 -3603 0
-278 3604 3608 0
-3607 3604 3608 0
-3607 -278 3608 0
-3608 3603 0
-3606 3603 0
-3608 -3606 0
-277 3607 3609 0
-276 3607 3609 0
-276 -277 3609 0
-3609 3606 0
-3613 3602 3614 0
-3611 3602 3614 0
-3611 -3613 3614 0
-3614 3600 0
-3612 3600 0
-3614 -3612 3601 0
-3610 3600 0
-3614 -3610 3601 0
-3610 -3612 3601 0
-3614 -3610 -3612 0
-275 3613 3615 0
-274 3613 3615 0
-274 -275 3615 0
-3615 3612 0
-273 3611 3616 0
-272 3611 3616 0
-272 -273 3616 0
-3616 3610 0
-3621 3595 3622 0
-3619 3595 3622 0
-3619 -3621 3622 0
-3622 3593 0
-3620 3593 0
-3622 -3620 3594 0
-3617 3593 0
-3622 -3617 3594 0
-3618 3594 0
-3622 -3618 0
-3617 -3620 3594 0
-3622 -3617 -3620 0
-3618 -3620 0
-3622 -3618 -3620 0
-271 3621 3625 0
-3624 3621 3625 0
-3624 -271 3625 0
-3625 3620 0
-3623 3620 0
-3625 -3623 0
-270 3624 3626 0
-269 3624 3626 0
-269 -270 3626 0
-3626 3623 0
-3630 3619 3631 0
-3628 3619 3631 0
-3628 -3630 3631 0
-3631 3617 0
-3629 3617 0
-3631 -3629 3618 0
-3627 3617 0
-3631 -3627 3618 0
-3627 -3629 3618 0
-3631 -3627 -3629 0
-268 3630 3632 0
-267 3630 3632 0
-267 -268 3632 0
-3632 3629 0
-266 3628 3633 0
-265 3628 3633 0
-265 -266 3633 0
-3633 3627 0
-3639 3588 3640 0
-3636 3588 3640 0
-3636 -3639 3640 0
-3640 3586 0
-3637 3586 0
-3640 -3637 3587 0
-3638 3587 0
-3640 -3638 0
-3634 3586 0
-3640 -3634 3587 0
-3635 3587 0
-3640 -3635 0
-3634 -3637 3587 0
-3640 -3634 -3637 0
-3634 -3638 0
-3640 -3634 -3638 0
-3635 -3637 0
-3640 -3635 -3637 0
-3635 -3638 0
-3640 -3635 -3638 0
-3645 3639 3646 0
-3643 3639 3646 0
-3643 -3645 3646 0
-3646 3637 0
-3644 3637 0
-3646 -3644 3638 0
-3641 3637 0
-3646 -3641 3638 0
-3642 3638 0
-3646 -3642 0
-3641 -3644 3638 0
-3646 -3641 -3644 0
-3642 -3644 0
-3646 -3642 -3644 0
-264 3645 3649 0
-3648 3645 3649 0
-3648 -264 3649 0
-3649 3644 0
-3647 3644 0
-3649 -3647 0
-263 3648 3650 0
-262 3648 3650 0
-262 -263 3650 0
-3650 3647 0
-3654 3643 3655 0
-3652 3643 3655 0
-3652 -3654 3655 0
-3655 3641 0
-3653 3641 0
-3655 -3653 3642 0
-3651 3641 0
-3655 -3651 3642 0
-3651 -3653 3642 0
-3655 -3651 -3653 0
-261 3654 3656 0
-260 3654 3656 0
-260 -261 3656 0
-3656 3653 0
-259 3652 3657 0
-258 3652 3657 0
-258 -259 3657 0
-3657 3651 0
-3662 3636 3663 0
-3660 3636 3663 0
-3660 -3662 3663 0
-3663 3634 0
-3661 3634 0
-3663 -3661 3635 0
-3658 3634 0
-3663 -3658 3635 0
-3659 3635 0
-3663 -3659 0
-3658 -3661 3635 0
-3663 -3658 -3661 0
-3659 -3661 0
-3663 -3659 -3661 0
-257 3662 3666 0
-3665 3662 3666 0
-3665 -257 3666 0
-3666 3661 0
-3664 3661 0
-3666 -3664 0
-256 3665 3667 0
-255 3665 3667 0
-255 -256 3667 0
-3667 3664 0
-3671 3660 3672 0
-3669 3660 3672 0
-3669 -3671 3672 0
-3672 3658 0
-3670 3658 0
-3672 -3670 3659 0
-3668 3658 0
-3672 -3668 3659 0
-3668 -3670 3659 0
-3672 -3668 -3670 0
-254 3671 3673 0
-253 3671 3673 0
-253 -254 3673 0
-3673 3670 0
-252 3669 3674 0
-251 3669 3674 0
-251 -252 3674 0
-3674 3668 0
-3680 3581 3681 0
-3677 3581 3681 0
-3677 -3680 3681 0
-3681 3579 0
-3678 3579 0
-3681 -3678 3580 0
-3679 3580 0
-3681 -3679 0
-3675 3579 0
-3681 -3675 3580 0
-3676 3580 0
-3681 -3676 0
-3675 -3678 3580 0
-3681 -3675 -3678 0
-3675 -3679 0
-3681 -3675 -3679 0
-3676 -3678 0
-3681 -3676 -3678 0
-3676 -3679 0
-3681 -3676 -3679 0
-3687 3680 3688 0
-3684 3680 3688 0
-3684 -3687 3688 0
-3688 3678 0
-3685 3678 0
-3688 -3685 3679 0
-3686 3679 0
-3688 -3686 0
-3682 3678 0
-3688 -3682 3679 0
-3683 3679 0
-3688 -3683 0
-3682 -3685 3679 0
-3688 -3682 -3685 0
-3682 -3686 0
-3688 -3682 -3686 0
-3683 -3685 0
-3688 -3683 -3685 0
-3683 -3686 0
-3688 -3683 -3686 0
-3693 3687 3694 0
-3691 3687 3694 0
-3691 -3693 3694 0
-3694 3685 0
-3692 3685 0
-3694 -3692 3686 0
-3689 3685 0
-3694 -3689 3686 0
-3690 3686 0
-3694 -3690 0
-3689 -3692 3686 0
-3694 -3689 -3692 0
-3690 -3692 0
-3694 -3690 -3692 0
-250 3693 3697 0
-3696 3693 3697 0
-3696 -250 3697 0
-3697 3692 0
-3695 3692 0
-3697 -3695 0
-249 3696 3698 0
-248 3696 3698 0
-248 -249 3698 0
-3698 3695 0
-3702 3691 3703 0
-3700 3691 3703 0
-3700 -3702 3703 0
-3703 3689 0
-3701 3689 0
-3703 -3701 3690 0
-3699 3689 0
-3703 -3699 3690 0
-3699 -3701 3690 0
-3703 -3699 -3701 0
-247 3702 3704 0
-246 3702 3704 0
-246 -247 3704 0
-3704 3701 0
-245 3700 3705 0
-244 3700 3705 0
-244 -245 3705 0
-3705 3699 0
-3710 3684 3711 0
-3708 3684 3711 0
-3708 -3710 3711 0
-3711 3682 0
-3709 3682 0
-3711 -3709 3683 0
-3706 3682 0
-3711 -3706 3683 0
-3707 3683 0
-3711 -3707 0
-3706 -3709 3683 0
-3711 -3706 -3709 0
-3707 -3709 0
-3711 -3707 -3709 0
-243 3710 3714 0
-3713 3710 3714 0
-3713 -243 3714 0
-3714 3709 0
-3712 3709 0
-3714 -3712 0
-242 3713 3715 0
-241 3713 3715 0
-241 -242 3715 0
-3715 3712 0
-3719 3708 3720 0
-3717 3708 3720 0
-3717 -3719 3720 0
-3720 3706 0
-3718 3706 0
-3720 -3718 3707 0
-3716 3706 0
-3720 -3716 3707 0
-3716 -3718 3707 0
-3720 -3716 -3718 0
-240 3719 3721 0
-239 3719 3721 0
-239 -240 3721 0
-3721 3718 0
-238 3717 3722 0
-237 3717 3722 0
-237 -238 3722 0
-3722 3716 0
-3728 3677 3729 0
-3725 3677 3729 0
-3725 -3728 3729 0
-3729 3675 0
-3726 3675 0
-3729 -3726 3676 0
-3727 3676 0
-3729 -3727 0
-3723 3675 0
-3729 -3723 3676 0
-3724 3676 0
-3729 -3724 0
-3723 -3726 3676 0
-3729 -3723 -3726 0
-3723 -3727 0
-3729 -3723 -3727 0
-3724 -3726 0
-3729 -3724 -3726 0
-3724 -3727 0
-3729 -3724 -3727 0
-3734 3728 3735 0
-3732 3728 3735 0
-3732 -3734 3735 0
-3735 3726 0
-3733 3726 0
-3735 -3733 3727 0
-3730 3726 0
-3735 -3730 3727 0
-3731 3727 0
-3735 -3731 0
-3730 -3733 3727 0
-3735 -3730 -3733 0
-3731 -3733 0
-3735 -3731 -3733 0
-236 3734 3738 0
-3737 3734 3738 0
-3737 -236 3738 0
-3738 3733 0
-3736 3733 0
-3738 -3736 0
-235 3737 3739 0
-234 3737 3739 0
-234 -235 3739 0
-3739 3736 0
-3743 3732 3744 0
-3741 3732 3744 0
-3741 -3743 3744 0
-3744 3730 0
-3742 3730 0
-3744 -3742 3731 0
-3740 3730 0
-3744 -3740 3731 0
-3740 -3742 3731 0
-3744 -3740 -3742 0
-233 3743 3745 0
-232 3743 3745 0
-232 -233 3745 0
-3745 3742 0
-231 3741 3746 0
-230 3741 3746 0
-230 -231 3746 0
-3746 3740 0
-3751 3725 3752 0
-3749 3725 3752 0
-3749 -3751 3752 0
-3752 3723 0
-3750 3723 0
-3752 -3750 3724 0
-3747 3723 0
-3752 -3747 3724 0
-3748 3724 0
-3752 -3748 0
-3747 -3750 3724 0
-3752 -3747 -3750 0
-3748 -3750 0
-3752 -3748 -3750 0
-229 3751 3755 0
-3754 3751 3755 0
-3754 -229 3755 0
-3755 3750 0
-3753 3750 0
-3755 -3753 0
-228 3754 3756 0
-227 3754 3756 0
-227 -228 3756 0
-3756 3753 0
-3760 3749 3761 0
-3758 3749 3761 0
-3758 -3760 3761 0
-3761 3747 0
-3759 3747 0
-3761 -3759 3748 0
-3757 3747 0
-3761 -3757 3748 0
-3757 -3759 3748 0
-3761 -3757 -3759 0
-226 3760 3762 0
-225 3760 3762 0
-225 -226 3762 0
-3762 3759 0
-224 3758 3763 0
-223 3758 3763 0
-223 -224 3763 0
-3763 3757 0
-3769 3006 3770 0
-3766 3006 3770 0
-3766 -3769 3770 0
-3770 3004 0
-3767 3004 0
-3770 -3767 3005 0
-3768 3005 0
-3770 -3768 0
-3764 3004 0
-3770 -3764 3005 0
-3765 3005 0
-3770 -3765 0
-3764 -3767 3005 0
-3770 -3764 -3767 0
-3764 -3768 0
-3770 -3764 -3768 0
-3765 -3767 0
-3770 -3765 -3767 0
-3765 -3768 0
-3770 -3765 -3768 0
-3776 3769 3777 0
-3773 3769 3777 0
-3773 -3776 3777 0
-3777 3767 0
-3774 3767 0
-3777 -3774 3768 0
-3775 3768 0
-3777 -3775 0
-3771 3767 0
-3777 -3771 3768 0
-3772 3768 0
-3777 -3772 0
-3771 -3774 3768 0
-3777 -3771 -3774 0
-3771 -3775 0
-3777 -3771 -3775 0
-3772 -3774 0
-3777 -3772 -3774 0
-3772 -3775 0
-3777 -3772 -3775 0
-3783 3776 3784 0
-3780 3776 3784 0
-3780 -3783 3784 0
-3784 3774 0
-3781 3774 0
-3784 -3781 3775 0
-3782 3775 0
-3784 -3782 0
-3778 3774 0
-3784 -3778 3775 0
-3779 3775 0
-3784 -3779 0
-3778 -3781 3775 0
-3784 -3778 -3781 0
-3778 -3782 0
-3784 -3778 -3782 0
-3779 -3781 0
-3784 -3779 -3781 0
-3779 -3782 0
-3784 -3779 -3782 0
-3790 3783 3791 0
-3787 3783 3791 0
-3787 -3790 3791 0
-3791 3781 0
-3788 3781 0
-3791 -3788 3782 0
-3789 3782 0
-3791 -3789 0
-3785 3781 0
-3791 -3785 3782 0
-3786 3782 0
-3791 -3786 0
-3785 -3788 3782 0
-3791 -3785 -3788 0
-3785 -3789 0
-3791 -3785 -3789 0
-3786 -3788 0
-3791 -3786 -3788 0
-3786 -3789 0
-3791 -3786 -3789 0
-3797 3790 3798 0
-3794 3790 3798 0
-3794 -3797 3798 0
-3798 3788 0
-3795 3788 0
-3798 -3795 3789 0
-3796 3789 0
-3798 -3796 0
-3792 3788 0
-3798 -3792 3789 0
-3793 3789 0
-3798 -3793 0
-3792 -3795 3789 0
-3798 -3792 -3795 0
-3792 -3796 0
-3798 -3792 -3796 0
-3793 -3795 0
-3798 -3793 -3795 0
-3793 -3796 0
-3798 -3793 -3796 0
-3802 3797 3803 0
-3800 3797 3803 0
-3800 -3802 3803 0
-3803 3795 0
-3801 3795 0
-3803 -3801 3796 0
-3799 3795 0
-3803 -3799 3796 0
-3799 -3801 3796 0
-3803 -3799 -3801 0
-222 3802 3806 0
-3805 3802 3806 0
-3805 -222 3806 0
-3806 3801 0
-3804 3801 0
-3806 -3804 0
-221 3805 3807 0
-220 3805 3807 0
-220 -221 3807 0
-3807 3804 0
-219 3800 3810 0
-3809 3800 3810 0
-3809 -219 3810 0
-3810 3799 0
-3808 3799 0
-3810 -3808 0
-218 3809 3811 0
-217 3809 3811 0
-217 -218 3811 0
-3811 3808 0
-3816 3794 3817 0
-3814 3794 3817 0
-3814 -3816 3817 0
-3817 3792 0
-3815 3792 0
-3817 -3815 3793 0
-3812 3792 0
-3817 -3812 3793 0
-3813 3793 0
-3817 -3813 0
-3812 -3815 3793 0
-3817 -3812 -3815 0
-3813 -3815 0
-3817 -3813 -3815 0
-216 3816 3820 0
-3819 3816 3820 0
-3819 -216 3820 0
-3820 3815 0
-3818 3815 0
-3820 -3818 0
-215 3819 3821 0
-214 3819 3821 0
-214 -215 3821 0
-3821 3818 0
-3825 3814 3826 0
-3823 3814 3826 0
-3823 -3825 3826 0
-3826 3812 0
-3824 3812 0
-3826 -3824 3813 0
-3822 3812 0
-3826 -3822 3813 0
-3822 -3824 3813 0
-3826 -3822 -3824 0
-213 3825 3827 0
-212 3825 3827 0
-212 -213 3827 0
-3827 3824 0
-211 3823 3828 0
-210 3823 3828 0
-210 -211 3828 0
-3828 3822 0
-3834 3787 3835 0
-3831 3787 3835 0
-3831 -3834 3835 0
-3835 3785 0
-3832 3785 0
-3835 -3832 3786 0
-3833 3786 0
-3835 -3833 0
-3829 3785 0
-3835 -3829 3786 0
-3830 3786 0
-3835 -3830 0
-3829 -3832 3786 0
-3835 -3829 -3832 0
-3829 -3833 0
-3835 -3829 -3833 0
-3830 -3832 0
-3835 -3830 -3832 0
-3830 -3833 0
-3835 -3830 -3833 0
-3840 3834 3841 0
-3838 3834 3841 0
-3838 -3840 3841 0
-3841 3832 0
-3839 3832 0
-3841 -3839 3833 0
-3836 3832 0
-3841 -3836 3833 0
-3837 3833 0
-3841 -3837 0
-3836 -3839 3833 0
-3841 -3836 -3839 0
-3837 -3839 0
-3841 -3837 -3839 0
-209 3840 3844 0
-3843 3840 3844 0
-3843 -209 3844 0
-3844 3839 0
-3842 3839 0
-3844 -3842 0
-208 3843 3845 0
-207 3843 3845 0
-207 -208 3845 0
-3845 3842 0
-3849 3838 3850 0
-3847 3838 3850 0
-3847 -3849 3850 0
-3850 3836 0
-3848 3836 0
-3850 -3848 3837 0
-3846 3836 0
-3850 -3846 3837 0
-3846 -3848 3837 0
-3850 -3846 -3848 0
-206 3849 3851 0
-205 3849 3851 0
-205 -206 3851 0
-3851 3848 0
-204 3847 3852 0
-203 3847 3852 0
-203 -204 3852 0
-3852 3846 0
-3857 3831 3858 0
-3855 3831 3858 0
-3855 -3857 3858 0
-3858 3829 0
-3856 3829 0
-3858 -3856 3830 0
-3853 3829 0
-3858 -3853 3830 0
-3854 3830 0
-3858 -3854 0
-3853 -3856 3830 0
-3858 -3853 -3856 0
-3854 -3856 0
-3858 -3854 -3856 0
-202 3857 3861 0
-3860 3857 3861 0
-3860 -202 3861 0
-3861 3856 0
-3859 3856 0
-3861 -3859 0
-201 3860 3862 0
-200 3860 3862 0
-200 -201 3862 0
-3862 3859 0
-3866 3855 3867 0
-3864 3855 3867 0
-3864 -3866 3867 0
-3867 3853 0
-3865 3853 0
-3867 -3865 3854 0
-3863 3853 0
-3867 -3863 3854 0
-3863 -3865 3854 0
-3867 -3863 -3865 0
-199 3866 3868 0
-198 3866 3868 0
-198 -199 3868 0
-3868 3865 0
-197 3864 3869 0
-196 3864 3869 0
-196 -197 3869 0
-3869 3863 0
-3875 3780 3876 0
-3872 3780 3876 0
-3872 -3875 3876 0
-3876 3778 0
-3873 3778 0
-3876 -3873 3779 0
-3874 3779 0
-3876 -3874 0
-3870 3778 0
-3876 -3870 3779 0
-3871 3779 0
-3876 -3871 0
-3870 -3873 3779 0
-3876 -3870 -3873 0
-3870 -3874 0
-3876 -3870 -3874 0
-3871 -3873 0
-3876 -3871 -3873 0
-3871 -3874 0
-3876 -3871 -3874 0
-3882 3875 3883 0
-3879 3875 3883 0
-3879 -3882 3883 0
-3883 3873 0
-3880 3873 0
-3883 -3880 3874 0
-3881 3874 0
-3883 -3881 0
-3877 3873 0
-3883 -3877 3874 0
-3878 3874 0
-3883 -3878 0
-3877 -3880 3874 0
-3883 -3877 -3880 0
-3877 -3881 0
-3883 -3877 -3881 0
-3878 -3880 0
-3883 -3878 -3880 0
-3878 -3881 0
-3883 -3878 -3881 0
-3888 3882 3889 0
-3886 3882 3889 0
-3886 -3888 3889 0
-3889 3880 0
-3887 3880 0
-3889 -3887 3881 0
-3884 3880 0
-3889 -3884 3881 0
-3885 3881 0
-3889 -3885 0
-3884 -3887 3881 0
-3889 -3884 -3887 0
-3885 -3887 0
-3889 -3885 -3887 0
-195 3888 3892 0
-3891 3888 3892 0
-3891 -195 3892 0
-3892 3887 0
-3890 3887 0
-3892 -3890 0
-194 3891 3893 0
-193 3891 3893 0
-193 -194 3893 0
-3893 3890 0
-3897 3886 3898 0
-3895 3886 3898 0
-3895 -3897 3898 0
-3898 3884 0
-3896 3884 0
-3898 -3896 3885 0
-3894 3884 0
-3898 -3894 3885 0
-3894 -3896 3885 0
-3898 -3894 -3896 0
-192 3897 3899 0
-191 3897 3899 0
-191 -192 3899 0
-3899 3896 0
-190 3895 3900 0
-189 3895 3900 0
-189 -190 3900 0
-3900 3894 0
-3905 3879 3906 0
-3903 3879 3906 0
-3903 -3905 3906 0
-3906 3877 0
-3904 3877 0
-3906 -3904 3878 0
-3901 3877 0
-3906 -3901 3878 0
-3902 3878 0
-3906 -3902 0
-3901 -3904 3878 0
-3906 -3901 -3904 0
-3902 -3904 0
-3906 -3902 -3904 0
-188 3905 3909 0
-3908 3905 3909 0
-3908 -188 3909 0
-3909 3904 0
-3907 3904 0
-3909 -3907 0
-187 3908 3910 0
-186 3908 3910 0
-186 -187 3910 0
-3910 3907 0
-3914 3903 3915 0
-3912 3903 3915 0
-3912 -3914 3915 0
-3915 3901 0
-3913 3901 0
-3915 -3913 3902 0
-3911 3901 0
-3915 -3911 3902 0
-3911 -3913 3902 0
-3915 -3911 -3913 0
-185 3914 3916 0
-184 3914 3916 0
-184 -185 3916 0
-3916 3913 0
-183 3912 3917 0
-182 3912 3917 0
-182 -183 3917 0
-3917 3911 0
-3923 3872 3924 0
-3920 3872 3924 0
-3920 -3923 3924 0
-3924 3870 0
-3921 3870 0
-3924 -3921 3871 0
-3922 3871 0
-3924 -3922 0
-3918 3870 0
-3924 -3918 3871 0
-3919 3871 0
-3924 -3919 0
-3918 -3921 3871 0
-3924 -3918 -3921 0
-3918 -3922 0
-3924 -3918 -3922 0
-3919 -3921 0
-3924 -3919 -3921 0
-3919 -3922 0
-3924 -3919 -3922 0
-3929 3923 3930 0
-3927 3923 3930 0
-3927 -3929 3930 0
-3930 3921 0
-3928 3921 0
-3930 -3928 3922 0
-3925 3921 0
-3930 -3925 3922 0
-3926 3922 0
-3930 -3926 0
-3925 -3928 3922 0
-3930 -3925 -3928 0
-3926 -3928 0
-3930 -3926 -3928 0
-181 3929 3933 0
-3932 3929 3933 0
-3932 -181 3933 0
-3933 3928 0
-3931 3928 0
-3933 -3931 0
-180 3932 3934 0
-179 3932 3934 0
-179 -180 3934 0
-3934 3931 0
-3938 3927 3939 0
-3936 3927 3939 0
-3936 -3938 3939 0
-3939 3925 0
-3937 3925 0
-3939 -3937 3926 0
-3935 3925 0
-3939 -3935 3926 0
-3935 -3937 3926 0
-3939 -3935 -3937 0
-178 3938 3940 0
-177 3938 3940 0
-177 -178 3940 0
-3940 3937 0
-176 3936 3941 0
-175 3936 3941 0
-175 -176 3941 0
-3941 3935 0
-3946 3920 3947 0
-3944 3920 3947 0
-3944 -3946 3947 0
-3947 3918 0
-3945 3918 0
-3947 -3945 3919 0
-3942 3918 0
-3947 -3942 3919 0
-3943 3919 0
-3947 -3943 0
-3942 -3945 3919 0
-3947 -3942 -3945 0
-3943 -3945 0
-3947 -3943 -3945 0
-174 3946 3950 0
-3949 3946 3950 0
-3949 -174 3950 0
-3950 3945 0
-3948 3945 0
-3950 -3948 0
-173 3949 3951 0
-172 3949 3951 0
-172 -173 3951 0
-3951 3948 0
-3955 3944 3956 0
-3953 3944 3956 0
-3953 -3955 3956 0
-3956 3942 0
-3954 3942 0
-3956 -3954 3943 0
-3952 3942 0
-3956 -3952 3943 0
-3952 -3954 3943 0
-3956 -3952 -3954 0
-171 3955 3957 0
-170 3955 3957 0
-170 -171 3957 0
-3957 3954 0
-169 3953 3958 0
-168 3953 3958 0
-168 -169 3958 0
-3958 3952 0
-3964 3773 3965 0
-3961 3773 3965 0
-3961 -3964 3965 0
-3965 3771 0
-3962 3771 0
-3965 -3962 3772 0
-3963 3772 0
-3965 -3963 0
-3959 3771 0
-3965 -3959 3772 0
-3960 3772 0
-3965 -3960 0
-3959 -3962 3772 0
-3965 -3959 -3962 0
-3959 -3963 0
-3965 -3959 -3963 0
-3960 -3962 0
-3965 -3960 -3962 0
-3960 -3963 0
-3965 -3960 -3963 0
-3971 3964 3972 0
-3968 3964 3972 0
-3968 -3971 3972 0
-3972 3962 0
-3969 3962 0
-3972 -3969 3963 0
-3970 3963 0
-3972 -3970 0
-3966 3962 0
-3972 -3966 3963 0
-3967 3963 0
-3972 -3967 0
-3966 -3969 3963 0
-3972 -3966 -3969 0
-3966 -3970 0
-3972 -3966 -3970 0
-3967 -3969 0
-3972 -3967 -3969 0
-3967 -3970 0
-3972 -3967 -3970 0
-3978 3971 3979 0
-3975 3971 3979 0
-3975 -3978 3979 0
-3979 3969 0
-3976 3969 0
-3979 -3976 3970 0
-3977 3970 0
-3979 -3977 0
-3973 3969 0
-3979 -3973 3970 0
-3974 3970 0
-3979 -3974 0
-3973 -3976 3970 0
-3979 -3973 -3976 0
-3973 -3977 0
-3979 -3973 -3977 0
-3974 -3976 0
-3979 -3974 -3976 0
-3974 -3977 0
-3979 -3974 -3977 0
-3984 3978 3985 0
-3982 3978 3985 0
-3982 -3984 3985 0
-3985 3976 0
-3983 3976 0
-3985 -3983 3977 0
-3980 3976 0
-3985 -3980 3977 0
-3981 3977 0
-3985 -3981 0
-3980 -3983 3977 0
-3985 -3980 -3983 0
-3981 -3983 0
-3985 -3981 -3983 0
-167 3984 3988 0
-3987 3984 3988 0
-3987 -167 3988 0
-3988 3983 0
-3986 3983 0
-3988 -3986 0
-166 3987 3989 0
-165 3987 3989 0
-165 -166 3989 0
-3989 3986 0
-3993 3982 3994 0
-3991 3982 3994 0
-3991 -3993 3994 0
-3994 3980 0
-3992 3980 0
-3994 -3992 3981 0
-3990 3980 0
-3994 -3990 3981 0
-3990 -3992 3981 0
-3994 -3990 -3992 0
-164 3993 3995 0
-163 3993 3995 0
-163 -164 3995 0
-3995 3992 0
-162 3991 3996 0
-161 3991 3996 0
-161 -162 3996 0
-3996 3990 0
-4001 3975 4002 0
-3999 3975 4002 0
-3999 -4001 4002 0
-4002 3973 0
-4000 3973 0
-4002 -4000 3974 0
-3997 3973 0
-4002 -3997 3974 0
-3998 3974 0
-4002 -3998 0
-3997 -4000 3974 0
-4002 -3997 -4000 0
-3998 -4000 0
-4002 -3998 -4000 0
-160 4001 4005 0
-4004 4001 4005 0
-4004 -160 4005 0
-4005 4000 0
-4003 4000 0
-4005 -4003 0
-159 4004 4006 0
-158 4004 4006 0
-158 -159 4006 0
-4006 4003 0
-4010 3999 4011 0
-4008 3999 4011 0
-4008 -4010 4011 0
-4011 3997 0
-4009 3997 0
-4011 -4009 3998 0
-4007 3997 0
-4011 -4007 3998 0
-4007 -4009 3998 0
-4011 -4007 -4009 0
-157 4010 4012 0
-156 4010 4012 0
-156 -157 4012 0
-4012 4009 0
-155 4008 4013 0
-154 4008 4013 0
-154 -155 4013 0
-4013 4007 0
-4019 3968 4020 0
-4016 3968 4020 0
-4016 -4019 4020 0
-4020 3966 0
-4017 3966 0
-4020 -4017 3967 0
-4018 3967 0
-4020 -4018 0
-4014 3966 0
-4020 -4014 3967 0
-4015 3967 0
-4020 -4015 0
-4014 -4017 3967 0
-4020 -4014 -4017 0
-4014 -4018 0
-4020 -4014 -4018 0
-4015 -4017 0
-4020 -4015 -4017 0
-4015 -4018 0
-4020 -4015 -4018 0
-4025 4019 4026 0
-4023 4019 4026 0
-4023 -4025 4026 0
-4026 4017 0
-4024 4017 0
-4026 -4024 4018 0
-4021 4017 0
-4026 -4021 4018 0
-4022 4018 0
-4026 -4022 0
-4021 -4024 4018 0
-4026 -4021 -4024 0
-4022 -4024 0
-4026 -4022 -4024 0
-153 4025 4029 0
-4028 4025 4029 0
-4028 -153 4029 0
-4029 4024 0
-4027 4024 0
-4029 -4027 0
-152 4028 4030 0
-151 4028 4030 0
-151 -152 4030 0
-4030 4027 0
-4034 4023 4035 0
-4032 4023 4035 0
-4032 -4034 4035 0
-4035 4021 0
-4033 4021 0
-4035 -4033 4022 0
-4031 4021 0
-4035 -4031 4022 0
-4031 -4033 4022 0
-4035 -4031 -4033 0
-150 4034 4036 0
-149 4034 4036 0
-149 -150 4036 0
-4036 4033 0
-148 4032 4037 0
-147 4032 4037 0
-147 -148 4037 0
-4037 4031 0
-4042 4016 4043 0
-4040 4016 4043 0
-4040 -4042 4043 0
-4043 4014 0
-4041 4014 0
-4043 -4041 4015 0
-4038 4014 0
-4043 -4038 4015 0
-4039 4015 0
-4043 -4039 0
-4038 -4041 4015 0
-4043 -4038 -4041 0
-4039 -4041 0
-4043 -4039 -4041 0
-146 4042 4046 0
-4045 4042 4046 0
-4045 -146 4046 0
-4046 4041 0
-4044 4041 0
-4046 -4044 0
-145 4045 4047 0
-144 4045 4047 0
-144 -145 4047 0
-4047 4044 0
-4051 4040 4052 0
-4049 4040 4052 0
-4049 -4051 4052 0
-4052 4038 0
-4050 4038 0
-4052 -4050 4039 0
-4048 4038 0
-4052 -4048 4039 0
-4048 -4050 4039 0
-4052 -4048 -4050 0
-143 4051 4053 0
-142 4051 4053 0
-142 -143 4053 0
-4053 4050 0
-141 4049 4054 0
-140 4049 4054 0
-140 -141 4054 0
-4054 4048 0
-4060 3961 4061 0
-4057 3961 4061 0
-4057 -4060 4061 0
-4061 3959 0
-4058 3959 0
-4061 -4058 3960 0
-4059 3960 0
-4061 -4059 0
-4055 3959 0
-4061 -4055 3960 0
-4056 3960 0
-4061 -4056 0
-4055 -4058 3960 0
-4061 -4055 -4058 0
-4055 -4059 0
-4061 -4055 -4059 0
-4056 -4058 0
-4061 -4056 -4058 0
-4056 -4059 0
-4061 -4056 -4059 0
-4067 4060 4068 0
-4064 4060 4068 0
-4064 -4067 4068 0
-4068 4058 0
-4065 4058 0
-4068 -4065 4059 0
-4066 4059 0
-4068 -4066 0
-4062 4058 0
-4068 -4062 4059 0
-4063 4059 0
-4068 -4063 0
-4062 -4065 4059 0
-4068 -4062 -4065 0
-4062 -4066 0
-4068 -4062 -4066 0
-4063 -4065 0
-4068 -4063 -4065 0
-4063 -4066 0
-4068 -4063 -4066 0
-4073 4067 4074 0
-4071 4067 4074 0
-4071 -4073 4074 0
-4074 4065 0
-4072 4065 0
-4074 -4072 4066 0
-4069 4065 0
-4074 -4069 4066 0
-4070 4066 0
-4074 -4070 0
-4069 -4072 4066 0
-4074 -4069 -4072 0
-4070 -4072 0
-4074 -4070 -4072 0
-139 4073 4077 0
-4076 4073 4077 0
-4076 -139 4077 0
-4077 4072 0
-4075 4072 0
-4077 -4075 0
-138 4076 4078 0
-137 4076 4078 0
-137 -138 4078 0
-4078 4075 0
-4082 4071 4083 0
-4080 4071 4083 0
-4080 -4082 4083 0
-4083 4069 0
-4081 4069 0
-4083 -4081 4070 0
-4079 4069 0
-4083 -4079 4070 0
-4079 -4081 4070 0
-4083 -4079 -4081 0
-136 4082 4084 0
-135 4082 4084 0
-135 -136 4084 0
-4084 4081 0
-134 4080 4085 0
-133 4080 4085 0
-133 -134 4085 0
-4085 4079 0
-4090 4064 4091 0
-4088 4064 4091 0
-4088 -4090 4091 0
-4091 4062 0
-4089 4062 0
-4091 -4089 4063 0
-4086 4062 0
-4091 -4086 4063 0
-4087 4063 0
-4091 -4087 0
-4086 -4089 4063 0
-4091 -4086 -4089 0
-4087 -4089 0
-4091 -4087 -4089 0
-132 4090 4094 0
-4093 4090 4094 0
-4093 -132 4094 0
-4094 4089 0
-4092 4089 0
-4094 -4092 0
-131 4093 4095 0
-130 4093 4095 0
-130 -131 4095 0
-4095 4092 0
-4099 4088 4100 0
-4097 4088 4100 0
-4097 -4099 4100 0
-4100 4086 0
-4098 4086 0
-4100 -4098 4087 0
-4096 4086 0
-4100 -4096 4087 0
-4096 -4098 4087 0
-4100 -4096 -4098 0
-129 4099 4101 0
-128 4099 4101 0
-128 -129 4101 0
-4101 4098 0
-127 4097 4102 0
-126 4097 4102 0
-126 -127 4102 0
-4102 4096 0
-4108 4057 4109 0
-4105 4057 4109 0
-4105 -4108 4109 0
-4109 4055 0
-4106 4055 0
-4109 -4106 4056 0
-4107 4056 0
-4109 -4107 0
-4103 4055 0
-4109 -4103 4056 0
-4104 4056 0
-4109 -4104 0
-4103 -4106 4056 0
-4109 -4103 -4106 0
-4103 -4107 0
-4109 -4103 -4107 0
-4104 -4106 0
-4109 -4104 -4106 0
-4104 -4107 0
-4109 -4104 -4107 0
-4114 4108 4115 0
-4112 4108 4115 0
-4112 -4114 4115 0
-4115 4106 0
-4113 4106 0
-4115 -4113 4107 0
-4110 4106 0
-4115 -4110 4107 0
-4111 4107 0
-4115 -4111 0
-4110 -4113 4107 0
-4115 -4110 -4113 0
-4111 -4113 0
-4115 -4111 -4113 0
-125 4114 4118 0
-4117 4114 4118 0
-4117 -125 4118 0
-4118 4113 0
-4116 4113 0
-4118 -4116 0
-124 4117 4119 0
-123 4117 4119 0
-123 -124 4119 0
-4119 4116 0
-4123 4112 4124 0
-4121 4112 4124 0
-4121 -4123 4124 0
-4124 4110 0
-4122 4110 0
-4124 -4122 4111 0
-4120 4110 0
-4124 -4120 4111 0
-4120 -4122 4111 0
-4124 -4120 -4122 0
-122 4123 4125 0
-121 4123 4125 0
-121 -122 4125 0
-4125 4122 0
-120 4121 4126 0
-119 4121 4126 0
-119 -120 4126 0
-4126 4120 0
-4131 4105 4132 0
-4129 4105 4132 0
-4129 -4131 4132 0
-4132 4103 0
-4130 4103 0
-4132 -4130 4104 0
-4127 4103 0
-4132 -4127 4104 0
-4128 4104 0
-4132 -4128 0
-4127 -4130 4104 0
-4132 -4127 -4130 0
-4128 -4130 0
-4132 -4128 -4130 0
-118 4131 4135 0
-4134 4131 4135 0
-4134 -118 4135 0
-4135 4130 0
-4133 4130 0
-4135 -4133 0
-117 4134 4136 0
-116 4134 4136 0
-116 -117 4136 0
-4136 4133 0
-4140 4129 4141 0
-4138 4129 4141 0
-4138 -4140 4141 0
-4141 4127 0
-4139 4127 0
-4141 -4139 4128 0
-4137 4127 0
-4141 -4137 4128 0
-4137 -4139 4128 0
-4141 -4137 -4139 0
-115 4140 4142 0
-114 4140 4142 0
-114 -115 4142 0
-4142 4139 0
-113 4138 4143 0
-112 4138 4143 0
-112 -113 4143 0
-4143 4137 0
-4149 3766 4150 0
-4146 3766 4150 0
-4146 -4149 4150 0
-4150 3764 0
-4147 3764 0
-4150 -4147 3765 0
-4148 3765 0
-4150 -4148 0
-4144 3764 0
-4150 -4144 3765 0
-4145 3765 0
-4150 -4145 0
-4144 -4147 3765 0
-4150 -4144 -4147 0
-4144 -4148 0
-4150 -4144 -4148 0
-4145 -4147 0
-4150 -4145 -4147 0
-4145 -4148 0
-4150 -4145 -4148 0
-4156 4149 4157 0
-4153 4149 4157 0
-4153 -4156 4157 0
-4157 4147 0
-4154 4147 0
-4157 -4154 4148 0
-4155 4148 0
-4157 -4155 0
-4151 4147 0
-4157 -4151 4148 0
-4152 4148 0
-4157 -4152 0
-4151 -4154 4148 0
-4157 -4151 -4154 0
-4151 -4155 0
-4157 -4151 -4155 0
-4152 -4154 0
-4157 -4152 -4154 0
-4152 -4155 0
-4157 -4152 -4155 0
-4163 4156 4164 0
-4160 4156 4164 0
-4160 -4163 4164 0
-4164 4154 0
-4161 4154 0
-4164 -4161 4155 0
-4162 4155 0
-4164 -4162 0
-4158 4154 0
-4164 -4158 4155 0
-4159 4155 0
-4164 -4159 0
-4158 -4161 4155 0
-4164 -4158 -4161 0
-4158 -4162 0
-4164 -4158 -4162 0
-4159 -4161 0
-4164 -4159 -4161 0
-4159 -4162 0
-4164 -4159 -4162 0
-4170 4163 4171 0
-4167 4163 4171 0
-4167 -4170 4171 0
-4171 4161 0
-4168 4161 0
-4171 -4168 4162 0
-4169 4162 0
-4171 -4169 0
-4165 4161 0
-4171 -4165 4162 0
-4166 4162 0
-4171 -4166 0
-4165 -4168 4162 0
-4171 -4165 -4168 0
-4165 -4169 0
-4171 -4165 -4169 0
-4166 -4168 0
-4171 -4166 -4168 0
-4166 -4169 0
-4171 -4166 -4169 0
-4175 4170 4176 0
-4173 4170 4176 0
-4173 -4175 4176 0
-4176 4168 0
-4174 4168 0
-4176 -4174 4169 0
-4172 4168 0
-4176 -4172 4169 0
-4172 -4174 4169 0
-4176 -4172 -4174 0
-111 4175 4179 0
-4178 4175 4179 0
-4178 -111 4179 0
-4179 4174 0
-4177 4174 0
-4179 -4177 0
-110 4178 4180 0
-109 4178 4180 0
-109 -110 4180 0
-4180 4177 0
-108 4173 4183 0
-4182 4173 4183 0
-4182 -108 4183 0
-4183 4172 0
-4181 4172 0
-4183 -4181 0
-107 4182 4184 0
-106 4182 4184 0
-106 -107 4184 0
-4184 4181 0
-4189 4167 4190 0
-4187 4167 4190 0
-4187 -4189 4190 0
-4190 4165 0
-4188 4165 0
-4190 -4188 4166 0
-4185 4165 0
-4190 -4185 4166 0
-4186 4166 0
-4190 -4186 0
-4185 -4188 4166 0
-4190 -4185 -4188 0
-4186 -4188 0
-4190 -4186 -4188 0
-105 4189 4193 0
-4192 4189 4193 0
-4192 -105 4193 0
-4193 4188 0
-4191 4188 0
-4193 -4191 0
-104 4192 4194 0
-103 4192 4194 0
-103 -104 4194 0
-4194 4191 0
-4198 4187 4199 0
-4196 4187 4199 0
-4196 -4198 4199 0
-4199 4185 0
-4197 4185 0
-4199 -4197 4186 0
-4195 4185 0
-4199 -4195 4186 0
-4195 -4197 4186 0
-4199 -4195 -4197 0
-102 4198 4200 0
-101 4198 4200 0
-101 -102 4200 0
-4200 4197 0
-100 4196 4201 0
-99 4196 4201 0
-99 -100 4201 0
-4201 4195 0
-4207 4160 4208 0
-4204 4160 4208 0
-4204 -4207 4208 0
-4208 4158 0
-4205 4158 0
-4208 -4205 4159 0
-4206 4159 0
-4208 -4206 0
-4202 4158 0
-4208 -4202 4159 0
-4203 4159 0
-4208 -4203 0
-4202 -4205 4159 0
-4208 -4202 -4205 0
-4202 -4206 0
-4208 -4202 -4206 0
-4203 -4205 0
-4208 -4203 -4205 0
-4203 -4206 0
-4208 -4203 -4206 0
-4213 4207 4214 0
-4211 4207 4214 0
-4211 -4213 4214 0
-4214 4205 0
-4212 4205 0
-4214 -4212 4206 0
-4209 4205 0
-4214 -4209 4206 0
-4210 4206 0
-4214 -4210 0
-4209 -4212 4206 0
-4214 -4209 -4212 0
-4210 -4212 0
-4214 -4210 -4212 0
-98 4213 4217 0
-4216 4213 4217 0
-4216 -98 4217 0
-4217 4212 0
-4215 4212 0
-4217 -4215 0
-97 4216 4218 0
-96 4216 4218 0
-96 -97 4218 0
-4218 4215 0
-4222 4211 4223 0
-4220 4211 4223 0
-4220 -4222 4223 0
-4223 4209 0
-4221 4209 0
-4223 -4221 4210 0
-4219 4209 0
-4223 -4219 4210 0
-4219 -4221 4210 0
-4223 -4219 -4221 0
-95 4222 4224 0
-94 4222 4224 0
-94 -95 4224 0
-4224 4221 0
-93 4220 4225 0
-92 4220 4225 0
-92 -93 4225 0
-4225 4219 0
-4230 4204 4231 0
-4228 4204 4231 0
-4228 -4230 4231 0
-4231 4202 0
-4229 4202 0
-4231 -4229 4203 0
-4226 4202 0
-4231 -4226 4203 0
-4227 4203 0
-4231 -4227 0
-4226 -4229 4203 0
-4231 -4226 -4229 0
-4227 -4229 0
-4231 -4227 -4229 0
-91 4230 4234 0
-4233 4230 4234 0
-4233 -91 4234 0
-4234 4229 0
-4232 4229 0
-4234 -4232 0
-90 4233 4235 0
-89 4233 4235 0
-89 -90 4235 0
-4235 4232 0
-4239 4228 4240 0
-4237 4228 4240 0
-4237 -4239 4240 0
-4240 4226 0
-4238 4226 0
-4240 -4238 4227 0
-4236 4226 0
-4240 -4236 4227 0
-4236 -4238 4227 0
-4240 -4236 -4238 0
-88 4239 4241 0
-87 4239 4241 0
-87 -88 4241 0
-4241 4238 0
-86 4237 4242 0
-85 4237 4242 0
-85 -86 4242 0
-4242 4236 0
-4248 4153 4249 0
-4245 4153 4249 0
-4245 -4248 4249 0
-4249 4151 0
-4246 4151 0
-4249 -4246 4152 0
-4247 4152 0
-4249 -4247 0
-4243 4151 0
-4249 -4243 4152 0
-4244 4152 0
-4249 -4244 0
-4243 -4246 4152 0
-4249 -4243 -4246 0
-4243 -4247 0
-4249 -4243 -4247 0
-4244 -4246 0
-4249 -4244 -4246 0
-4244 -4247 0
-4249 -4244 -4247 0
-4255 4248 4256 0
-4252 4248 4256 0
-4252 -4255 4256 0
-4256 4246 0
-4253 4246 0
-4256 -4253 4247 0
-4254 4247 0
-4256 -4254 0
-4250 4246 0
-4256 -4250 4247 0
-4251 4247 0
-4256 -4251 0
-4250 -4253 4247 0
-4256 -4250 -4253 0
-4250 -4254 0
-4256 -4250 -4254 0
-4251 -4253 0
-4256 -4251 -4253 0
-4251 -4254 0
-4256 -4251 -4254 0
-4261 4255 4262 0
-4259 4255 4262 0
-4259 -4261 4262 0
-4262 4253 0
-4260 4253 0
-4262 -4260 4254 0
-4257 4253 0
-4262 -4257 4254 0
-4258 4254 0
-4262 -4258 0
-4257 -4260 4254 0
-4262 -4257 -4260 0
-4258 -4260 0
-4262 -4258 -4260 0
-84 4261 4265 0
-4264 4261 4265 0
-4264 -84 4265 0
-4265 4260 0
-4263 4260 0
-4265 -4263 0
-83 4264 4266 0
-82 4264 4266 0
-82 -83 4266 0
-4266 4263 0
-4270 4259 4271 0
-4268 4259 4271 0
-4268 -4270 4271 0
-4271 4257 0
-4269 4257 0
-4271 -4269 4258 0
-4267 4257 0
-4271 -4267 4258 0
-4267 -4269 4258 0
-4271 -4267 -4269 0
-81 4270 4272 0
-80 4270 4272 0
-80 -81 4272 0
-4272 4269 0
-79 4268 4273 0
-78 4268 4273 0
-78 -79 4273 0
-4273 4267 0
-4278 4252 4279 0
-4276 4252 4279 0
-4276 -4278 4279 0
-4279 4250 0
-4277 4250 0
-4279 -4277 4251 0
-4274 4250 0
-4279 -4274 4251 0
-4275 4251 0
-4279 -4275 0
-4274 -4277 4251 0
-4279 -4274 -4277 0
-4275 -4277 0
-4279 -4275 -4277 0
-77 4278 4282 0
-4281 4278 4282 0
-4281 -77 4282 0
-4282 4277 0
-4280 4277 0
-4282 -4280 0
-76 4281 4283 0
-75 4281 4283 0
-75 -76 4283 0
-4283 4280 0
-4287 4276 4288 0
-4285 4276 4288 0
-4285 -4287 4288 0
-4288 4274 0
-4286 4274 0
-4288 -4286 4275 0
-4284 4274 0
-4288 -4284 4275 0
-4284 -4286 4275 0
-4288 -4284 -4286 0
-74 4287 4289 0
-73 4287 4289 0
-73 -74 4289 0
-4289 4286 0
-72 4285 4290 0
-71 4285 4290 0
-71 -72 4290 0
-4290 4284 0
-4296 4245 4297 0
-4293 4245 4297 0
-4293 -4296 4297 0
-4297 4243 0
-4294 4243 0
-4297 -4294 4244 0
-4295 4244 0
-4297 -4295 0
-4291 4243 0
-4297 -4291 4244 0
-4292 4244 0
-4297 -4292 0
-4291 -4294 4244 0
-4297 -4291 -4294 0
-4291 -4295 0
-4297 -4291 -4295 0
-4292 -4294 0
-4297 -4292 -4294 0
-4292 -4295 0
-4297 -4292 -4295 0
-4302 4296 4303 0
-4300 4296 4303 0
-4300 -4302 4303 0
-4303 4294 0
-4301 4294 0
-4303 -4301 4295 0
-4298 4294 0
-4303 -4298 4295 0
-4299 4295 0
-4303 -4299 0
-4298 -4301 4295 0
-4303 -4298 -4301 0
-4299 -4301 0
-4303 -4299 -4301 0
-70 4302 4306 0
-4305 4302 4306 0
-4305 -70 4306 0
-4306 4301 0
-4304 4301 0
-4306 -4304 0
-69 4305 4307 0
-68 4305 4307 0
-68 -69 4307 0
-4307 4304 0
-4311 4300 4312 0
-4309 4300 4312 0
-4309 -4311 4312 0
-4312 4298 0
-4310 4298 0
-4312 -4310 4299 0
-4308 4298 0
-4312 -4308 4299 0
-4308 -4310 4299 0
-4312 -4308 -4310 0
-67 4311 4313 0
-66 4311 4313 0
-66 -67 4313 0
-4313 4310 0
-65 4309 4314 0
-64 4309 4314 0
-64 -65 4314 0
-4314 4308 0
-4319 4293 4320 0
-4317 4293 4320 0
-4317 -4319 4320 0
-4320 4291 0
-4318 4291 0
-4320 -4318 4292 0
-4315 4291 0
-4320 -4315 4292 0
-4316 4292 0
-4320 -4316 0
-4315 -4318 4292 0
-4320 -4315 -4318 0
-4316 -4318 0
-4320 -4316 -4318 0
-63 4319 4323 0
-4322 4319 4323 0
-4322 -63 4323 0
-4323 4318 0
-4321 4318 0
-4323 -4321 0
-62 4322 4324 0
-61 4322 4324 0
-61 -62 4324 0
-4324 4321 0
-4328 4317 4329 0
-4326 4317 4329 0
-4326 -4328 4329 0
-4329 4315 0
-4327 4315 0
-4329 -4327 4316 0
-4325 4315 0
-4329 -4325 4316 0
-4325 -4327 4316 0
-4329 -4325 -4327 0
-60 4328 4330 0
-59 4328 4330 0
-59 -60 4330 0
-4330 4327 0
-58 4326 4331 0
-57 4326 4331 0
-57 -58 4331 0
-4331 4325 0
-4337 4146 4338 0
-4334 4146 4338 0
-4334 -4337 4338 0
-4338 4144 0
-4335 4144 0
-4338 -4335 4145 0
-4336 4145 0
-4338 -4336 0
-4332 4144 0
-4338 -4332 4145 0
-4333 4145 0
-4338 -4333 0
-4332 -4335 4145 0
-4338 -4332 -4335 0
-4332 -4336 0
-4338 -4332 -4336 0
-4333 -4335 0
-4338 -4333 -4335 0
-4333 -4336 0
-4338 -4333 -4336 0
-4344 4337 4345 0
-4341 4337 4345 0
-4341 -4344 4345 0
-4345 4335 0
-4342 4335 0
-4345 -4342 4336 0
-4343 4336 0
-4345 -4343 0
-4339 4335 0
-4345 -4339 4336 0
-4340 4336 0
-4345 -4340 0
-4339 -4342 4336 0
-4345 -4339 -4342 0
-4339 -4343 0
-4345 -4339 -4343 0
-4340 -4342 0
-4345 -4340 -4342 0
-4340 -4343 0
-4345 -4340 -4343 0
-4351 4344 4352 0
-4348 4344 4352 0
-4348 -4351 4352 0
-4352 4342 0
-4349 4342 0
-4352 -4349 4343 0
-4350 4343 0
-4352 -4350 0
-4346 4342 0
-4352 -4346 4343 0
-4347 4343 0
-4352 -4347 0
-4346 -4349 4343 0
-4352 -4346 -4349 0
-4346 -4350 0
-4352 -4346 -4350 0
-4347 -4349 0
-4352 -4347 -4349 0
-4347 -4350 0
-4352 -4347 -4350 0
-4357 4351 4358 0
-4355 4351 4358 0
-4355 -4357 4358 0
-4358 4349 0
-4356 4349 0
-4358 -4356 4350 0
-4353 4349 0
-4358 -4353 4350 0
-4354 4350 0
-4358 -4354 0
-4353 -4356 4350 0
-4358 -4353 -4356 0
-4354 -4356 0
-4358 -4354 -4356 0
-56 4357 4361 0
-4360 4357 4361 0
-4360 -56 4361 0
-4361 4356 0
-4359 4356 0
-4361 -4359 0
-55 4360 4362 0
-54 4360 4362 0
-54 -55 4362 0
-4362 4359 0
-4366 4355 4367 0
-4364 4355 4367 0
-4364 -4366 4367 0
-4367 4353 0
-4365 4353 0
-4367 -4365 4354 0
-4363 4353 0
-4367 -4363 4354 0
-4363 -4365 4354 0
-4367 -4363 -4365 0
-53 4366 4368 0
-52 4366 4368 0
-52 -53 4368 0
-4368 4365 0
-51 4364 4369 0
-50 4364 4369 0
-50 -51 4369 0
-4369 4363 0
-4374 4348 4375 0
-4372 4348 4375 0
-4372 -4374 4375 0
-4375 4346 0
-4373 4346 0
-4375 -4373 4347 0
-4370 4346 0
-4375 -4370 4347 0
-4371 4347 0
-4375 -4371 0
-4370 -4373 4347 0
-4375 -4370 -4373 0
-4371 -4373 0
-4375 -4371 -4373 0
-49 4374 4378 0
-4377 4374 4378 0
-4377 -49 4378 0
-4378 4373 0
-4376 4373 0
-4378 -4376 0
-48 4377 4379 0
-47 4377 4379 0
-47 -48 4379 0
-4379 4376 0
-4383 4372 4384 0
-4381 4372 4384 0
-4381 -4383 4384 0
-4384 4370 0
-4382 4370 0
-4384 -4382 4371 0
-4380 4370 0
-4384 -4380 4371 0
-4380 -4382 4371 0
-4384 -4380 -4382 0
-46 4383 4385 0
-45 4383 4385 0
-45 -46 4385 0
-4385 4382 0
-44 4381 4386 0
-43 4381 4386 0
-43 -44 4386 0
-4386 4380 0
-4392 4341 4393 0
-4389 4341 4393 0
-4389 -4392 4393 0
-4393 4339 0
-4390 4339 0
-4393 -4390 4340 0
-4391 4340 0
-4393 -4391 0
-4387 4339 0
-4393 -4387 4340 0
-4388 4340 0
-4393 -4388 0
-4387 -4390 4340 0
-4393 -4387 -4390 0
-4387 -4391 0
-4393 -4387 -4391 0
-4388 -4390 0
-4393 -4388 -4390 0
-4388 -4391 0
-4393 -4388 -4391 0
-4398 4392 4399 0
-4396 4392 4399 0
-4396 -4398 4399 0
-4399 4390 0
-4397 4390 0
-4399 -4397 4391 0
-4394 4390 0
-4399 -4394 4391 0
-4395 4391 0
-4399 -4395 0
-4394 -4397 4391 0
-4399 -4394 -4397 0
-4395 -4397 0
-4399 -4395 -4397 0
-42 4398 4402 0
-4401 4398 4402 0
-4401 -42 4402 0
-4402 4397 0
-4400 4397 0
-4402 -4400 0
-41 4401 4403 0
-40 4401 4403 0
-40 -41 4403 0
-4403 4400 0
-4407 4396 4408 0
-4405 4396 4408 0
-4405 -4407 4408 0
-4408 4394 0
-4406 4394 0
-4408 -4406 4395 0
-4404 4394 0
-4408 -4404 4395 0
-4404 -4406 4395 0
-4408 -4404 -4406 0
-39 4407 4409 0
-38 4407 4409 0
-38 -39 4409 0
-4409 4406 0
-37 4405 4410 0
-36 4405 4410 0
-36 -37 4410 0
-4410 4404 0
-4415 4389 4416 0
-4413 4389 4416 0
-4413 -4415 4416 0
-4416 4387 0
-4414 4387 0
-4416 -4414 4388 0
-4411 4387 0
-4416 -4411 4388 0
-4412 4388 0
-4416 -4412 0
-4411 -4414 4388 0
-4416 -4411 -4414 0
-4412 -4414 0
-4416 -4412 -4414 0
-35 4415 4419 0
-4418 4415 4419 0
-4418 -35 4419 0
-4419 4414 0
-4417 4414 0
-4419 -4417 0
-34 4418 4420 0
-33 4418 4420 0
-33 -34 4420 0
-4420 4417 0
-4424 4413 4425 0
-4422 4413 4425 0
-4422 -4424 4425 0
-4425 4411 0
-4423 4411 0
-4425 -4423 4412 0
-4421 4411 0
-4425 -4421 4412 0
-4421 -4423 4412 0
-4425 -4421 -4423 0
-32 4424 4426 0
-31 4424 4426 0
-31 -32 4426 0
-4426 4423 0
-30 4422 4427 0
-29 4422 4427 0
-29 -30 4427 0
-4427 4421 0
-4433 4334 4434 0
-4430 4334 4434 0
-4430 -4433 4434 0
-4434 4332 0
-4431 4332 0
-4434 -4431 4333 0
-4432 4333 0
-4434 -4432 0
-4428 4332 0
-4434 -4428 4333 0
-4429 4333 0
-4434 -4429 0
-4428 -4431 4333 0
-4434 -4428 -4431 0
-4428 -4432 0
-4434 -4428 -4432 0
-4429 -4431 0
-4434 -4429 -4431 0
-4429 -4432 0
-4434 -4429 -4432 0
-4440 4433 4441 0
-4437 4433 4441 0
-4437 -4440 4441 0
-4441 4431 0
-4438 4431 0
-4441 -4438 4432 0
-4439 4432 0
-4441 -4439 0
-4435 4431 0
-4441 -4435 4432 0
-4436 4432 0
-4441 -4436 0
-4435 -4438 4432 0
-4441 -4435 -4438 0
-4435 -4439 0
-4441 -4435 -4439 0
-4436 -4438 0
-4441 -4436 -4438 0
-4436 -4439 0
-4441 -4436 -4439 0
-4446 4440 4447 0
-4444 4440 4447 0
-4444 -4446 4447 0
-4447 4438 0
-4445 4438 0
-4447 -4445 4439 0
-4442 4438 0
-4447 -4442 4439 0
-4443 4439 0
-4447 -4443 0
-4442 -4445 4439 0
-4447 -4442 -4445 0
-4443 -4445 0
-4447 -4443 -4445 0
-28 4446 4450 0
-4449 4446 4450 0
-4449 -28 4450 0
-4450 4445 0
-4448 4445 0
-4450 -4448 0
-27 4449 4451 0
-26 4449 4451 0
-26 -27 4451 0
-4451 4448 0
-4455 4444 4456 0
-4453 4444 4456 0
-4453 -4455 4456 0
-4456 4442 0
-4454 4442 0
-4456 -4454 4443 0
-4452 4442 0
-4456 -4452 4443 0
-4452 -4454 4443 0
-4456 -4452 -4454 0
-25 4455 4457 0
-24 4455 4457 0
-24 -25 4457 0
-4457 4454 0
-23 4453 4458 0
-22 4453 4458 0
-22 -23 4458 0
-4458 4452 0
-4463 4437 4464 0
-4461 4437 4464 0
-4461 -4463 4464 0
-4464 4435 0
-4462 4435 0
-4464 -4462 4436 0
-4459 4435 0
-4464 -4459 4436 0
-4460 4436 0
-4464 -4460 0
-4459 -4462 4436 0
-4464 -4459 -4462 0
-4460 -4462 0
-4464 -4460 -4462 0
-21 4463 4467 0
-4466 4463 4467 0
-4466 -21 4467 0
-4467 4462 0
-4465 4462 0
-4467 -4465 0
-20 4466 4468 0
-19 4466 4468 0
-19 -20 4468 0
-4468 4465 0
-4472 4461 4473 0
-4470 4461 4473 0
-4470 -4472 4473 0
-4473 4459 0
-4471 4459 0
-4473 -4471 4460 0
-4469 4459 0
-4473 -4469 4460 0
-4469 -4471 4460 0
-4473 -4469 -4471 0
-18 4472 4474 0
-17 4472 4474 0
-17 -18 4474 0
-4474 4471 0
-16 4470 4475 0
-15 4470 4475 0
-15 -16 4475 0
-4475 4469 0
-4481 4430 4482 0
-4478 4430 4482 0
-4478 -4481 4482 0
-4482 4428 0
-4479 4428 0
-4482 -4479 4429 0
-4480 4429 0
-4482 -4480 0
-4476 4428 0
-4482 -4476 4429 0
-4477 4429 0
-4482 -4477 0
-4476 -4479 4429 0
-4482 -4476 -4479 0
-4476 -4480 0
-4482 -4476 -4480 0
-4477 -4479 0
-4482 -4477 -4479 0
-4477 -4480 0
-4482 -4477 -4480 0
-4487 4481 4488 0
-4485 4481 4488 0
-4485 -4487 4488 0
-4488 4479 0
-4486 4479 0
-4488 -4486 4480 0
-4483 4479 0
-4488 -4483 4480 0
-4484 4480 0
-4488 -4484 0
-4483 -4486 4480 0
-4488 -4483 -4486 0
-4484 -4486 0
-4488 -4484 -4486 0
-14 4487 4491 0
-4490 4487 4491 0
-4490 -14 4491 0
-4491 4486 0
-4489 4486 0
-4491 -4489 0
-13 4490 4492 0
-12 4490 4492 0
-12 -13 4492 0
-4492 4489 0
-4496 4485 4497 0
-4494 4485 4497 0
-4494 -4496 4497 0
-4497 4483 0
-4495 4483 0
-4497 -4495 4484 0
-4493 4483 0
-4497 -4493 4484 0
-4493 -4495 4484 0
-4497 -4493 -4495 0
-11 4496 4498 0
-10 4496 4498 0
-10 -11 4498 0
-4498 4495 0
-9 4494 4499 0
-8 4494 4499 0
-8 -9 4499 0
-4499 4493 0
-4504 4478 4505 0
-4502 4478 4505 0
-4502 -4504 4505 0
-4505 4476 0
-4503 4476 0
-4505 -4503 4477 0
-4500 4476 0
-4505 -4500 4477 0
-4501 4477 0
-4505 -4501 0
-4500 -4503 4477 0
-4505 -4500 -4503 0
-4501 -4503 0
-4505 -4501 -4503 0
-7 4504 4508 0
-4507 4504 4508 0
-4507 -7 4508 0
-4508 4503 0
-4506 4503 0
-4508 -4506 0
-6 4507 4509 0
-5 4507 4509 0
-5 -6 4509 0
-4509 4506 0
-4513 4502 4514 0
-4511 4502 4514 0
-4511 -4513 4514 0
-4514 4500 0
-4512 4500 0
-4514 -4512 4501 0
-4510 4500 0
-4514 -4510 4501 0
-4510 -4512 4501 0
-4514 -4510 -4512 0
-4 4513 4515 0
-3 4513 4515 0
-3 -4 4515 0
-4515 4512 0
-2 4511 4516 0
-1 4511 4516 0
-1 -2 4516 0
-4516 4510 0
