p cnf 3578 11727
1 189 -385 0
-1 -189 -385 0
1 -189 385 0
-1 189 385 0
385 190 -386 0
-385 -190 -386 0
385 -190 386 0
-385 190 386 0
386 192 -387 0
-386 -192 -387 0
386 -192 387 0
-386 192 387 0
387 193 -388 0
-387 -193 -388 0
387 -193 388 0
-387 193 388 0
388 355 -389 0
-388 -355 -389 0
388 -355 389 0
-388 355 389 0
389 367 -390 0
-389 -367 -390 0
389 -367 390 0
-389 367 390 0
390 373 -391 0
-390 -373 -391 0
390 -373 391 0
-390 373 391 0
-391 0
1 2 -392 0
-1 -2 -392 0
1 -2 392 0
-1 2 392 0
392 190 -393 0
-392 -190 -393 0
392 -190 393 0
-392 190 393 0
393 191 -394 0
-393 -191 -394 0
393 -191 394 0
-393 191 394 0
394 194 -395 0
-394 -194 -395 0
394 -194 395 0
-394 194 395 0
395 356 -396 0
-395 -356 -396 0
395 -356 396 0
-395 356 396 0
396 368 -397 0
-396 -368 -397 0
396 -368 397 0
-396 368 397 0
397 374 -398 0
-397 -374 -398 0
397 -374 398 0
-397 374 398 0
-398 0
2 3 -399 0
-2 -3 -399 0
2 -3 399 0
-2 3 399 0
399 191 -400 0
-399 -191 -400 0
399 -191 400 0
-399 191 400 0
400 192 -401 0
-400 -192 -401 0
400 -192 401 0
-400 192 401 0
401 195 -402 0
-401 -195 -402 0
401 -195 402 0
-401 195 402 0
402 357 -403 0
-402 -357 -403 0
402 -357 403 0
-402 357 403 0
403 369 -404 0
-403 -369 -404 0
403 -369 404 0
-403 369 404 0
404 375 -405 0
-404 -375 -405 0
404 -375 405 0
-404 375 405 0
-405 0
1 3 -406 0
-1 -3 -406 0
1 -3 406 0
-1 3 406 0
406 4 -407 0
-406 -4 -407 0
406 -4 407 0
-406 4 407 0
407 192 -408 0
-407 -192 -408 0
407 -192 408 0
-407 192 408 0
408 196 -409 0
-408 -196 -409 0
408 -196 409 0
-408 196 409 0
409 358 -410 0
-409 -358 -410 0
409 -358 410 0
-409 358 410 0
410 370 -411 0
-410 -370 -411 0
410 -370 411 0
-410 370 411 0
411 376 -412 0
-411 -376 -412 0
411 -376 412 0
-411 376 412 0
-412 0
1 2 -413 0
-1 -2 -413 0
1 -2 413 0
-1 2 413 0
413 4 -414 0
-413 -4 -414 0
413 -4 414 0
-413 4 414 0
414 5 -415 0
-414 -5 -415 0
414 -5 415 0
-414 5 415 0
415 197 -416 0
-415 -197 -416 0
415 -197 416 0
-415 197 416 0
416 359 -417 0
-416 -359 -417 0
416 -359 417 0
-416 359 417 0
417 371 -418 0
-417 -371 -418 0
417 -371 418 0
-417 371 418 0
418 377 -419 0
-418 -377 -419 0
418 -377 419 0
-418 377 419 0
-419 0
2 3 -420 0
-2 -3 -420 0
2 -3 420 0
-2 3 420 0
420 5 -421 0
-420 -5 -421 0
420 -5 421 0
-420 5 421 0
421 6 -422 0
-421 -6 -422 0
421 -6 422 0
-421 6 422 0
422 198 -423 0
-422 -198 -423 0
422 -198 423 0
-422 198 423 0
423 360 -424 0
-423 -360 -424 0
423 -360 424 0
-423 360 424 0
424 372 -425 0
-424 -372 -425 0
424 -372 425 0
-424 372 425 0
425 378 -426 0
-425 -378 -426 0
425 -378 426 0
-425 378 426 0
-426 0
3 4 -427 0
-3 -4 -427 0
3 -4 427 0
-3 4 427 0
427 6 -428 0
-427 -6 -428 0
427 -6 428 0
-427 6 428 0
428 7 -429 0
-428 -7 -429 0
428 -7 429 0
-428 7 429 0
429 199 -430 0
-429 -199 -430 0
429 -199 430 0
-429 199 430 0
430 361 -431 0
-430 -361 -431 0
430 -361 431 0
-430 361 431 0
431 373 -432 0
-431 -373 -432 0
431 -373 432 0
-431 373 432 0
432 379 -433 0
-432 -379 -433 0
432 -379 433 0
-432 379 433 0
-433 0
4 5 -434 0
-4 -5 -434 0
4 -5 434 0
-4 5 434 0
434 7 -435 0
-434 -7 -435 0
434 -7 435 0
-434 7 435 0
435 8 -436 0
-435 -8 -436 0
435 -8 436 0
-435 8 436 0
436 200 -437 0
-436 -200 -437 0
436 -200 437 0
-436 200 437 0
437 362 -438 0
-437 -362 -438 0
437 -362 438 0
-437 362 438 0
438 374 -439 0
-438 -374 -439 0
438 -374 439 0
-438 374 439 0
439 380 -440 0
-439 -380 -440 0
439 -380 440 0
-439 380 440 0
-440 0
5 6 -441 0
-5 -6 -441 0
5 -6 441 0
-5 6 441 0
441 8 -442 0
-441 -8 -442 0
441 -8 442 0
-441 8 442 0
442 9 -443 0
-442 -9 -443 0
442 -9 443 0
-442 9 443 0
443 201 -444 0
-443 -201 -444 0
443 -201 444 0
-443 201 444 0
444 363 -445 0
-444 -363 -445 0
444 -363 445 0
-444 363 445 0
445 375 -446 0
-445 -375 -446 0
445 -375 446 0
-445 375 446 0
446 381 -447 0
-446 -381 -447 0
446 -381 447 0
-446 381 447 0
-447 0
6 7 -448 0
-6 -7 -448 0
6 -7 448 0
-6 7 448 0
448 9 -449 0
-448 -9 -449 0
448 -9 449 0
-448 9 449 0
449 10 -450 0
-449 -10 -450 0
449 -10 450 0
-449 10 450 0
450 202 -451 0
-450 -202 -451 0
450 -202 451 0
-450 202 451 0
451 364 -452 0
-451 -364 -452 0
451 -364 452 0
-451 364 452 0
452 376 -453 0
-452 -376 -453 0
452 -376 453 0
-452 376 453 0
453 382 -454 0
-453 -382 -454 0
453 -382 454 0
-453 382 454 0
-454 0
7 8 -455 0
-7 -8 -455 0
7 -8 455 0
-7 8 455 0
455 10 -456 0
-455 -10 -456 0
455 -10 456 0
-455 10 456 0
456 11 -457 0
-456 -11 -457 0
456 -11 457 0
-456 11 457 0
457 203 -458 0
-457 -203 -458 0
457 -203 458 0
-457 203 458 0
458 365 -459 0
-458 -365 -459 0
458 -365 459 0
-458 365 459 0
459 377 -460 0
-459 -377 -460 0
459 -377 460 0
-459 377 460 0
460 383 -461 0
-460 -383 -461 0
460 -383 461 0
-460 383 461 0
-461 0
8 9 -462 0
-8 -9 -462 0
8 -9 462 0
-8 9 462 0
462 11 -463 0
-462 -11 -463 0
462 -11 463 0
-462 11 463 0
463 12 -464 0
-463 -12 -464 0
463 -12 464 0
-463 12 464 0
464 204 -465 0
-464 -204 -465 0
464 -204 465 0
-464 204 465 0
465 366 -466 0
-465 -366 -466 0
465 -366 466 0
-465 366 466 0
466 378 -467 0
-466 -378 -467 0
466 -378 467 0
-466 378 467 0
467 384 -468 0
-467 -384 -468 0
467 -384 468 0
-467 384 468 0
-468 0
9 10 -469 0
-9 -10 -469 0
9 -10 469 0
-9 10 469 0
469 12 -470 0
-469 -12 -470 0
469 -12 470 0
-469 12 470 0
470 13 -471 0
-470 -13 -471 0
470 -13 471 0
-470 13 471 0
471 193 -472 0
-471 -193 -472 0
471 -193 472 0
-471 193 472 0
472 205 -473 0
-472 -205 -473 0
472 -205 473 0
-472 205 473 0
473 367 -474 0
-473 -367 -474 0
473 -367 474 0
-473 367 474 0
474 379 -475 0
-474 -379 -475 0
474 -379 475 0
-474 379 475 0
-475 0
10 11 -476 0
-10 -11 -476 0
10 -11 476 0
-10 11 476 0
476 13 -477 0
-476 -13 -477 0
476 -13 477 0
-476 13 477 0
477 14 -478 0
-477 -14 -478 0
477 -14 478 0
-477 14 478 0
478 194 -479 0
-478 -194 -479 0
478 -194 479 0
-478 194 479 0
479 206 -480 0
-479 -206 -480 0
479 -206 480 0
-479 206 480 0
480 368 -481 0
-480 -368 -481 0
480 -368 481 0
-480 368 481 0
481 380 -482 0
-481 -380 -482 0
481 -380 482 0
-481 380 482 0
-482 0
11 12 -483 0
-11 -12 -483 0
11 -12 483 0
-11 12 483 0
483 14 -484 0
-483 -14 -484 0
483 -14 484 0
-483 14 484 0
484 15 -485 0
-484 -15 -485 0
484 -15 485 0
-484 15 485 0
485 195 -486 0
-485 -195 -486 0
485 -195 486 0
-485 195 486 0
486 207 -487 0
-486 -207 -487 0
486 -207 487 0
-486 207 487 0
487 369 -488 0
-487 -369 -488 0
487 -369 488 0
-487 369 488 0
488 381 -489 0
-488 -381 -489 0
488 -381 489 0
-488 381 489 0
-489 0
12 13 -490 0
-12 -13 -490 0
12 -13 490 0
-12 13 490 0
490 15 -491 0
-490 -15 -491 0
490 -15 491 0
-490 15 491 0
491 16 -492 0
-491 -16 -492 0
491 -16 492 0
-491 16 492 0
492 196 -493 0
-492 -196 -493 0
492 -196 493 0
-492 196 493 0
493 208 -494 0
-493 -208 -494 0
493 -208 494 0
-493 208 494 0
494 370 -495 0
-494 -370 -495 0
494 -370 495 0
-494 370 495 0
495 382 -496 0
-495 -382 -496 0
495 -382 496 0
-495 382 496 0
-496 0
13 14 -497 0
-13 -14 -497 0
13 -14 497 0
-13 14 497 0
497 16 -498 0
-497 -16 -498 0
497 -16 498 0
-497 16 498 0
498 17 -499 0
-498 -17 -499 0
498 -17 499 0
-498 17 499 0
499 197 -500 0
-499 -197 -500 0
499 -197 500 0
-499 197 500 0
500 209 -501 0
-500 -209 -501 0
500 -209 501 0
-500 209 501 0
501 371 -502 0
-501 -371 -502 0
501 -371 502 0
-501 371 502 0
502 383 -503 0
-502 -383 -503 0
502 -383 503 0
-502 383 503 0
-503 0
14 15 -504 0
-14 -15 -504 0
14 -15 504 0
-14 15 504 0
504 17 -505 0
-504 -17 -505 0
504 -17 505 0
-504 17 505 0
505 18 -506 0
-505 -18 -506 0
505 -18 506 0
-505 18 506 0
506 198 -507 0
-506 -198 -507 0
506 -198 507 0
-506 198 507 0
507 210 -508 0
-507 -210 -508 0
507 -210 508 0
-507 210 508 0
508 372 -509 0
-508 -372 -509 0
508 -372 509 0
-508 372 509 0
509 384 -510 0
-509 -384 -510 0
509 -384 510 0
-509 384 510 0
-510 0
15 16 -511 0
-15 -16 -511 0
15 -16 511 0
-15 16 511 0
511 18 -512 0
-511 -18 -512 0
511 -18 512 0
-511 18 512 0
512 19 -513 0
-512 -19 -513 0
512 -19 513 0
-512 19 513 0
513 193 -514 0
-513 -193 -514 0
513 -193 514 0
-513 193 514 0
514 199 -515 0
-514 -199 -515 0
514 -199 515 0
-514 199 515 0
515 211 -516 0
-515 -211 -516 0
515 -211 516 0
-515 211 516 0
516 373 -517 0
-516 -373 -517 0
516 -373 517 0
-516 373 517 0
-517 0
16 17 -518 0
-16 -17 -518 0
16 -17 518 0
-16 17 518 0
518 19 -519 0
-518 -19 -519 0
518 -19 519 0
-518 19 519 0
519 20 -520 0
-519 -20 -520 0
519 -20 520 0
-519 20 520 0
520 194 -521 0
-520 -194 -521 0
520 -194 521 0
-520 194 521 0
521 200 -522 0
-521 -200 -522 0
521 -200 522 0
-521 200 522 0
522 212 -523 0
-522 -212 -523 0
522 -212 523 0
-522 212 523 0
523 374 -524 0
-523 -374 -524 0
523 -374 524 0
-523 374 524 0
-524 0
17 18 -525 0
-17 -18 -525 0
17 -18 525 0
-17 18 525 0
525 20 -526 0
-525 -20 -526 0
525 -20 526 0
-525 20 526 0
526 21 -527 0
-526 -21 -527 0
526 -21 527 0
-526 21 527 0
527 195 -528 0
-527 -195 -528 0
527 -195 528 0
-527 195 528 0
528 201 -529 0
-528 -201 -529 0
528 -201 529 0
-528 201 529 0
529 213 -530 0
-529 -213 -530 0
529 -213 530 0
-529 213 530 0
530 375 -531 0
-530 -375 -531 0
530 -375 531 0
-530 375 531 0
-531 0
18 19 -532 0
-18 -19 -532 0
18 -19 532 0
-18 19 532 0
532 21 -533 0
-532 -21 -533 0
532 -21 533 0
-532 21 533 0
533 22 -534 0
-533 -22 -534 0
533 -22 534 0
-533 22 534 0
534 196 -535 0
-534 -196 -535 0
534 -196 535 0
-534 196 535 0
535 202 -536 0
-535 -202 -536 0
535 -202 536 0
-535 202 536 0
536 214 -537 0
-536 -214 -537 0
536 -214 537 0
-536 214 537 0
537 376 -538 0
-537 -376 -538 0
537 -376 538 0
-537 376 538 0
-538 0
19 20 -539 0
-19 -20 -539 0
19 -20 539 0
-19 20 539 0
539 22 -540 0
-539 -22 -540 0
539 -22 540 0
-539 22 540 0
540 23 -541 0
-540 -23 -541 0
540 -23 541 0
-540 23 541 0
541 197 -542 0
-541 -197 -542 0
541 -197 542 0
-541 197 542 0
542 203 -543 0
-542 -203 -543 0
542 -203 543 0
-542 203 543 0
543 215 -544 0
-543 -215 -544 0
543 -215 544 0
-543 215 544 0
544 377 -545 0
-544 -377 -545 0
544 -377 545 0
-544 377 545 0
-545 0
20 21 -546 0
-20 -21 -546 0
20 -21 546 0
-20 21 546 0
546 23 -547 0
-546 -23 -547 0
546 -23 547 0
-546 23 547 0
547 24 -548 0
-547 -24 -548 0
547 -24 548 0
-547 24 548 0
548 198 -549 0
-548 -198 -549 0
548 -198 549 0
-548 198 549 0
549 204 -550 0
-549 -204 -550 0
549 -204 550 0
-549 204 550 0
550 216 -551 0
-550 -216 -551 0
550 -216 551 0
-550 216 551 0
551 378 -552 0
-551 -378 -552 0
551 -378 552 0
-551 378 552 0
-552 0
21 22 -553 0
-21 -22 -553 0
21 -22 553 0
-21 22 553 0
553 24 -554 0
-553 -24 -554 0
553 -24 554 0
-553 24 554 0
554 25 -555 0
-554 -25 -555 0
554 -25 555 0
-554 25 555 0
555 199 -556 0
-555 -199 -556 0
555 -199 556 0
-555 199 556 0
556 205 -557 0
-556 -205 -557 0
556 -205 557 0
-556 205 557 0
557 217 -558 0
-557 -217 -558 0
557 -217 558 0
-557 217 558 0
558 379 -559 0
-558 -379 -559 0
558 -379 559 0
-558 379 559 0
-559 0
22 23 -560 0
-22 -23 -560 0
22 -23 560 0
-22 23 560 0
560 25 -561 0
-560 -25 -561 0
560 -25 561 0
-560 25 561 0
561 26 -562 0
-561 -26 -562 0
561 -26 562 0
-561 26 562 0
562 200 -563 0
-562 -200 -563 0
562 -200 563 0
-562 200 563 0
563 206 -564 0
-563 -206 -564 0
563 -206 564 0
-563 206 564 0
564 218 -565 0
-564 -218 -565 0
564 -218 565 0
-564 218 565 0
565 380 -566 0
-565 -380 -566 0
565 -380 566 0
-565 380 566 0
-566 0
23 24 -567 0
-23 -24 -567 0
23 -24 567 0
-23 24 567 0
567 26 -568 0
-567 -26 -568 0
567 -26 568 0
-567 26 568 0
568 27 -569 0
-568 -27 -569 0
568 -27 569 0
-568 27 569 0
569 201 -570 0
-569 -201 -570 0
569 -201 570 0
-569 201 570 0
570 207 -571 0
-570 -207 -571 0
570 -207 571 0
-570 207 571 0
571 219 -572 0
-571 -219 -572 0
571 -219 572 0
-571 219 572 0
572 381 -573 0
-572 -381 -573 0
572 -381 573 0
-572 381 573 0
-573 0
24 25 -574 0
-24 -25 -574 0
24 -25 574 0
-24 25 574 0
574 27 -575 0
-574 -27 -575 0
574 -27 575 0
-574 27 575 0
575 28 -576 0
-575 -28 -576 0
575 -28 576 0
-575 28 576 0
576 202 -577 0
-576 -202 -577 0
576 -202 577 0
-576 202 577 0
577 208 -578 0
-577 -208 -578 0
577 -208 578 0
-577 208 578 0
578 220 -579 0
-578 -220 -579 0
578 -220 579 0
-578 220 579 0
579 382 -580 0
-579 -382 -580 0
579 -382 580 0
-579 382 580 0
-580 0
25 26 -581 0
-25 -26 -581 0
25 -26 581 0
-25 26 581 0
581 28 -582 0
-581 -28 -582 0
581 -28 582 0
-581 28 582 0
582 29 -583 0
-582 -29 -583 0
582 -29 583 0
-582 29 583 0
583 203 -584 0
-583 -203 -584 0
583 -203 584 0
-583 203 584 0
584 209 -585 0
-584 -209 -585 0
584 -209 585 0
-584 209 585 0
585 221 -586 0
-585 -221 -586 0
585 -221 586 0
-585 221 586 0
586 383 -587 0
-586 -383 -587 0
586 -383 587 0
-586 383 587 0
-587 0
26 27 -588 0
-26 -27 -588 0
26 -27 588 0
-26 27 588 0
588 29 -589 0
-588 -29 -589 0
588 -29 589 0
-588 29 589 0
589 30 -590 0
-589 -30 -590 0
589 -30 590 0
-589 30 590 0
590 204 -591 0
-590 -204 -591 0
590 -204 591 0
-590 204 591 0
591 210 -592 0
-591 -210 -592 0
591 -210 592 0
-591 210 592 0
592 222 -593 0
-592 -222 -593 0
592 -222 593 0
-592 222 593 0
593 384 -594 0
-593 -384 -594 0
593 -384 594 0
-593 384 594 0
-594 0
27 28 -595 0
-27 -28 -595 0
27 -28 595 0
-27 28 595 0
595 30 -596 0
-595 -30 -596 0
595 -30 596 0
-595 30 596 0
596 31 -597 0
-596 -31 -597 0
596 -31 597 0
-596 31 597 0
597 193 -598 0
-597 -193 -598 0
597 -193 598 0
-597 193 598 0
598 205 -599 0
-598 -205 -599 0
598 -205 599 0
-598 205 599 0
599 211 -600 0
-599 -211 -600 0
599 -211 600 0
-599 211 600 0
600 223 -601 0
-600 -223 -601 0
600 -223 601 0
-600 223 601 0
-601 0
28 29 -602 0
-28 -29 -602 0
28 -29 602 0
-28 29 602 0
602 31 -603 0
-602 -31 -603 0
602 -31 603 0
-602 31 603 0
603 32 -604 0
-603 -32 -604 0
603 -32 604 0
-603 32 604 0
604 194 -605 0
-604 -194 -605 0
604 -194 605 0
-604 194 605 0
605 206 -606 0
-605 -206 -606 0
605 -206 606 0
-605 206 606 0
606 212 -607 0
-606 -212 -607 0
606 -212 607 0
-606 212 607 0
607 224 -608 0
-607 -224 -608 0
607 -224 608 0
-607 224 608 0
-608 0
29 30 -609 0
-29 -30 -609 0
29 -30 609 0
-29 30 609 0
609 32 -610 0
-609 -32 -610 0
609 -32 610 0
-609 32 610 0
610 33 -611 0
-610 -33 -611 0
610 -33 611 0
-610 33 611 0
611 195 -612 0
-611 -195 -612 0
611 -195 612 0
-611 195 612 0
612 207 -613 0
-612 -207 -613 0
612 -207 613 0
-612 207 613 0
613 213 -614 0
-613 -213 -614 0
613 -213 614 0
-613 213 614 0
614 225 -615 0
-614 -225 -615 0
614 -225 615 0
-614 225 615 0
-615 0
30 31 -616 0
-30 -31 -616 0
30 -31 616 0
-30 31 616 0
616 33 -617 0
-616 -33 -617 0
616 -33 617 0
-616 33 617 0
617 34 -618 0
-617 -34 -618 0
617 -34 618 0
-617 34 618 0
618 196 -619 0
-618 -196 -619 0
618 -196 619 0
-618 196 619 0
619 208 -620 0
-619 -208 -620 0
619 -208 620 0
-619 208 620 0
620 214 -621 0
-620 -214 -621 0
620 -214 621 0
-620 214 621 0
621 226 -622 0
-621 -226 -622 0
621 -226 622 0
-621 226 622 0
-622 0
31 32 -623 0
-31 -32 -623 0
31 -32 623 0
-31 32 623 0
623 34 -624 0
-623 -34 -624 0
623 -34 624 0
-623 34 624 0
624 35 -625 0
-624 -35 -625 0
624 -35 625 0
-624 35 625 0
625 197 -626 0
-625 -197 -626 0
625 -197 626 0
-625 197 626 0
626 209 -627 0
-626 -209 -627 0
626 -209 627 0
-626 209 627 0
627 215 -628 0
-627 -215 -628 0
627 -215 628 0
-627 215 628 0
628 227 -629 0
-628 -227 -629 0
628 -227 629 0
-628 227 629 0
-629 0
32 33 -630 0
-32 -33 -630 0
32 -33 630 0
-32 33 630 0
630 35 -631 0
-630 -35 -631 0
630 -35 631 0
-630 35 631 0
631 36 -632 0
-631 -36 -632 0
631 -36 632 0
-631 36 632 0
632 198 -633 0
-632 -198 -633 0
632 -198 633 0
-632 198 633 0
633 210 -634 0
-633 -210 -634 0
633 -210 634 0
-633 210 634 0
634 216 -635 0
-634 -216 -635 0
634 -216 635 0
-634 216 635 0
635 228 -636 0
-635 -228 -636 0
635 -228 636 0
-635 228 636 0
-636 0
33 34 -637 0
-33 -34 -637 0
33 -34 637 0
-33 34 637 0
637 36 -638 0
-637 -36 -638 0
637 -36 638 0
-637 36 638 0
638 37 -639 0
-638 -37 -639 0
638 -37 639 0
-638 37 639 0
639 199 -640 0
-639 -199 -640 0
639 -199 640 0
-639 199 640 0
640 211 -641 0
-640 -211 -641 0
640 -211 641 0
-640 211 641 0
641 217 -642 0
-641 -217 -642 0
641 -217 642 0
-641 217 642 0
642 229 -643 0
-642 -229 -643 0
642 -229 643 0
-642 229 643 0
-643 0
34 35 -644 0
-34 -35 -644 0
34 -35 644 0
-34 35 644 0
644 37 -645 0
-644 -37 -645 0
644 -37 645 0
-644 37 645 0
645 38 -646 0
-645 -38 -646 0
645 -38 646 0
-645 38 646 0
646 200 -647 0
-646 -200 -647 0
646 -200 647 0
-646 200 647 0
647 212 -648 0
-647 -212 -648 0
647 -212 648 0
-647 212 648 0
648 218 -649 0
-648 -218 -649 0
648 -218 649 0
-648 218 649 0
649 230 -650 0
-649 -230 -650 0
649 -230 650 0
-649 230 650 0
-650 0
35 36 -651 0
-35 -36 -651 0
35 -36 651 0
-35 36 651 0
651 38 -652 0
-651 -38 -652 0
651 -38 652 0
-651 38 652 0
652 39 -653 0
-652 -39 -653 0
652 -39 653 0
-652 39 653 0
653 201 -654 0
-653 -201 -654 0
653 -201 654 0
-653 201 654 0
654 213 -655 0
-654 -213 -655 0
654 -213 655 0
-654 213 655 0
655 219 -656 0
-655 -219 -656 0
655 -219 656 0
-655 219 656 0
656 231 -657 0
-656 -231 -657 0
656 -231 657 0
-656 231 657 0
-657 0
36 37 -658 0
-36 -37 -658 0
36 -37 658 0
-36 37 658 0
658 39 -659 0
-658 -39 -659 0
658 -39 659 0
-658 39 659 0
659 40 -660 0
-659 -40 -660 0
659 -40 660 0
-659 40 660 0
660 202 -661 0
-660 -202 -661 0
660 -202 661 0
-660 202 661 0
661 214 -662 0
-661 -214 -662 0
661 -214 662 0
-661 214 662 0
662 220 -663 0
-662 -220 -663 0
662 -220 663 0
-662 220 663 0
663 232 -664 0
-663 -232 -664 0
663 -232 664 0
-663 232 664 0
-664 0
37 38 -665 0
-37 -38 -665 0
37 -38 665 0
-37 38 665 0
665 40 -666 0
-665 -40 -666 0
665 -40 666 0
-665 40 666 0
666 41 -667 0
-666 -41 -667 0
666 -41 667 0
-666 41 667 0
667 203 -668 0
-667 -203 -668 0
667 -203 668 0
-667 203 668 0
668 215 -669 0
-668 -215 -669 0
668 -215 669 0
-668 215 669 0
669 221 -670 0
-669 -221 -670 0
669 -221 670 0
-669 221 670 0
670 233 -671 0
-670 -233 -671 0
670 -233 671 0
-670 233 671 0
-671 0
38 39 -672 0
-38 -39 -672 0
38 -39 672 0
-38 39 672 0
672 41 -673 0
-672 -41 -673 0
672 -41 673 0
-672 41 673 0
673 42 -674 0
-673 -42 -674 0
673 -42 674 0
-673 42 674 0
674 204 -675 0
-674 -204 -675 0
674 -204 675 0
-674 204 675 0
675 216 -676 0
-675 -216 -676 0
675 -216 676 0
-675 216 676 0
676 222 -677 0
-676 -222 -677 0
676 -222 677 0
-676 222 677 0
677 234 -678 0
-677 -234 -678 0
677 -234 678 0
-677 234 678 0
-678 0
39 40 -679 0
-39 -40 -679 0
39 -40 679 0
-39 40 679 0
679 42 -680 0
-679 -42 -680 0
679 -42 680 0
-679 42 680 0
680 43 -681 0
-680 -43 -681 0
680 -43 681 0
-680 43 681 0
681 205 -682 0
-681 -205 -682 0
681 -205 682 0
-681 205 682 0
682 217 -683 0
-682 -217 -683 0
682 -217 683 0
-682 217 683 0
683 223 -684 0
-683 -223 -684 0
683 -223 684 0
-683 223 684 0
684 235 -685 0
-684 -235 -685 0
684 -235 685 0
-684 235 685 0
-685 0
40 41 -686 0
-40 -41 -686 0
40 -41 686 0
-40 41 686 0
686 43 -687 0
-686 -43 -687 0
686 -43 687 0
-686 43 687 0
687 44 -688 0
-687 -44 -688 0
687 -44 688 0
-687 44 688 0
688 206 -689 0
-688 -206 -689 0
688 -206 689 0
-688 206 689 0
689 218 -690 0
-689 -218 -690 0
689 -218 690 0
-689 218 690 0
690 224 -691 0
-690 -224 -691 0
690 -224 691 0
-690 224 691 0
691 236 -692 0
-691 -236 -692 0
691 -236 692 0
-691 236 692 0
-692 0
41 42 -693 0
-41 -42 -693 0
41 -42 693 0
-41 42 693 0
693 44 -694 0
-693 -44 -694 0
693 -44 694 0
-693 44 694 0
694 45 -695 0
-694 -45 -695 0
694 -45 695 0
-694 45 695 0
695 207 -696 0
-695 -207 -696 0
695 -207 696 0
-695 207 696 0
696 219 -697 0
-696 -219 -697 0
696 -219 697 0
-696 219 697 0
697 225 -698 0
-697 -225 -698 0
697 -225 698 0
-697 225 698 0
698 237 -699 0
-698 -237 -699 0
698 -237 699 0
-698 237 699 0
-699 0
42 43 -700 0
-42 -43 -700 0
42 -43 700 0
-42 43 700 0
700 45 -701 0
-700 -45 -701 0
700 -45 701 0
-700 45 701 0
701 46 -702 0
-701 -46 -702 0
701 -46 702 0
-701 46 702 0
702 208 -703 0
-702 -208 -703 0
702 -208 703 0
-702 208 703 0
703 220 -704 0
-703 -220 -704 0
703 -220 704 0
-703 220 704 0
704 226 -705 0
-704 -226 -705 0
704 -226 705 0
-704 226 705 0
705 238 -706 0
-705 -238 -706 0
705 -238 706 0
-705 238 706 0
-706 0
43 44 -707 0
-43 -44 -707 0
43 -44 707 0
-43 44 707 0
707 46 -708 0
-707 -46 -708 0
707 -46 708 0
-707 46 708 0
708 47 -709 0
-708 -47 -709 0
708 -47 709 0
-708 47 709 0
709 209 -710 0
-709 -209 -710 0
709 -209 710 0
-709 209 710 0
710 221 -711 0
-710 -221 -711 0
710 -221 711 0
-710 221 711 0
711 227 -712 0
-711 -227 -712 0
711 -227 712 0
-711 227 712 0
712 239 -713 0
-712 -239 -713 0
712 -239 713 0
-712 239 713 0
-713 0
44 45 -714 0
-44 -45 -714 0
44 -45 714 0
-44 45 714 0
714 47 -715 0
-714 -47 -715 0
714 -47 715 0
-714 47 715 0
715 48 -716 0
-715 -48 -716 0
715 -48 716 0
-715 48 716 0
716 210 -717 0
-716 -210 -717 0
716 -210 717 0
-716 210 717 0
717 222 -718 0
-717 -222 -718 0
717 -222 718 0
-717 222 718 0
718 228 -719 0
-718 -228 -719 0
718 -228 719 0
-718 228 719 0
719 240 -720 0
-719 -240 -720 0
719 -240 720 0
-719 240 720 0
-720 0
45 46 -721 0
-45 -46 -721 0
45 -46 721 0
-45 46 721 0
721 48 -722 0
-721 -48 -722 0
721 -48 722 0
-721 48 722 0
722 49 -723 0
-722 -49 -723 0
722 -49 723 0
-722 49 723 0
723 211 -724 0
-723 -211 -724 0
723 -211 724 0
-723 211 724 0
724 223 -725 0
-724 -223 -725 0
724 -223 725 0
-724 223 725 0
725 229 -726 0
-725 -229 -726 0
725 -229 726 0
-725 229 726 0
726 241 -727 0
-726 -241 -727 0
726 -241 727 0
-726 241 727 0
-727 0
46 47 -728 0
-46 -47 -728 0
46 -47 728 0
-46 47 728 0
728 49 -729 0
-728 -49 -729 0
728 -49 729 0
-728 49 729 0
729 50 -730 0
-729 -50 -730 0
729 -50 730 0
-729 50 730 0
730 212 -731 0
-730 -212 -731 0
730 -212 731 0
-730 212 731 0
731 224 -732 0
-731 -224 -732 0
731 -224 732 0
-731 224 732 0
732 230 -733 0
-732 -230 -733 0
732 -230 733 0
-732 230 733 0
733 242 -734 0
-733 -242 -734 0
733 -242 734 0
-733 242 734 0
-734 0
47 48 -735 0
-47 -48 -735 0
47 -48 735 0
-47 48 735 0
735 50 -736 0
-735 -50 -736 0
735 -50 736 0
-735 50 736 0
736 51 -737 0
-736 -51 -737 0
736 -51 737 0
-736 51 737 0
737 213 -738 0
-737 -213 -738 0
737 -213 738 0
-737 213 738 0
738 225 -739 0
-738 -225 -739 0
738 -225 739 0
-738 225 739 0
739 231 -740 0
-739 -231 -740 0
739 -231 740 0
-739 231 740 0
740 243 -741 0
-740 -243 -741 0
740 -243 741 0
-740 243 741 0
-741 0
48 49 -742 0
-48 -49 -742 0
48 -49 742 0
-48 49 742 0
742 51 -743 0
-742 -51 -743 0
742 -51 743 0
-742 51 743 0
743 52 -744 0
-743 -52 -744 0
743 -52 744 0
-743 52 744 0
744 214 -745 0
-744 -214 -745 0
744 -214 745 0
-744 214 745 0
745 226 -746 0
-745 -226 -746 0
745 -226 746 0
-745 226 746 0
746 232 -747 0
-746 -232 -747 0
746 -232 747 0
-746 232 747 0
747 244 -748 0
-747 -244 -748 0
747 -244 748 0
-747 244 748 0
-748 0
49 50 -749 0
-49 -50 -749 0
49 -50 749 0
-49 50 749 0
749 52 -750 0
-749 -52 -750 0
749 -52 750 0
-749 52 750 0
750 53 -751 0
-750 -53 -751 0
750 -53 751 0
-750 53 751 0
751 215 -752 0
-751 -215 -752 0
751 -215 752 0
-751 215 752 0
752 227 -753 0
-752 -227 -753 0
752 -227 753 0
-752 227 753 0
753 233 -754 0
-753 -233 -754 0
753 -233 754 0
-753 233 754 0
754 245 -755 0
-754 -245 -755 0
754 -245 755 0
-754 245 755 0
-755 0
50 51 -756 0
-50 -51 -756 0
50 -51 756 0
-50 51 756 0
756 53 -757 0
-756 -53 -757 0
756 -53 757 0
-756 53 757 0
757 54 -758 0
-757 -54 -758 0
757 -54 758 0
-757 54 758 0
758 216 -759 0
-758 -216 -759 0
758 -216 759 0
-758 216 759 0
759 228 -760 0
-759 -228 -760 0
759 -228 760 0
-759 228 760 0
760 234 -761 0
-760 -234 -761 0
760 -234 761 0
-760 234 761 0
761 246 -762 0
-761 -246 -762 0
761 -246 762 0
-761 246 762 0
-762 0
51 52 -763 0
-51 -52 -763 0
51 -52 763 0
-51 52 763 0
763 54 -764 0
-763 -54 -764 0
763 -54 764 0
-763 54 764 0
764 55 -765 0
-764 -55 -765 0
764 -55 765 0
-764 55 765 0
765 217 -766 0
-765 -217 -766 0
765 -217 766 0
-765 217 766 0
766 229 -767 0
-766 -229 -767 0
766 -229 767 0
-766 229 767 0
767 235 -768 0
-767 -235 -768 0
767 -235 768 0
-767 235 768 0
768 247 -769 0
-768 -247 -769 0
768 -247 769 0
-768 247 769 0
-769 0
52 53 -770 0
-52 -53 -770 0
52 -53 770 0
-52 53 770 0
770 55 -771 0
-770 -55 -771 0
770 -55 771 0
-770 55 771 0
771 56 -772 0
-771 -56 -772 0
771 -56 772 0
-771 56 772 0
772 218 -773 0
-772 -218 -773 0
772 -218 773 0
-772 218 773 0
773 230 -774 0
-773 -230 -774 0
773 -230 774 0
-773 230 774 0
774 236 -775 0
-774 -236 -775 0
774 -236 775 0
-774 236 775 0
775 248 -776 0
-775 -248 -776 0
775 -248 776 0
-775 248 776 0
-776 0
53 54 -777 0
-53 -54 -777 0
53 -54 777 0
-53 54 777 0
777 56 -778 0
-777 -56 -778 0
777 -56 778 0
-777 56 778 0
778 57 -779 0
-778 -57 -779 0
778 -57 779 0
-778 57 779 0
779 219 -780 0
-779 -219 -780 0
779 -219 780 0
-779 219 780 0
780 231 -781 0
-780 -231 -781 0
780 -231 781 0
-780 231 781 0
781 237 -782 0
-781 -237 -782 0
781 -237 782 0
-781 237 782 0
782 249 -783 0
-782 -249 -783 0
782 -249 783 0
-782 249 783 0
-783 0
54 55 -784 0
-54 -55 -784 0
54 -55 784 0
-54 55 784 0
784 57 -785 0
-784 -57 -785 0
784 -57 785 0
-784 57 785 0
785 58 -786 0
-785 -58 -786 0
785 -58 786 0
-785 58 786 0
786 220 -787 0
-786 -220 -787 0
786 -220 787 0
-786 220 787 0
787 232 -788 0
-787 -232 -788 0
787 -232 788 0
-787 232 788 0
788 238 -789 0
-788 -238 -789 0
788 -238 789 0
-788 238 789 0
789 250 -790 0
-789 -250 -790 0
789 -250 790 0
-789 250 790 0
-790 0
55 56 -791 0
-55 -56 -791 0
55 -56 791 0
-55 56 791 0
791 58 -792 0
-791 -58 -792 0
791 -58 792 0
-791 58 792 0
792 59 -793 0
-792 -59 -793 0
792 -59 793 0
-792 59 793 0
793 221 -794 0
-793 -221 -794 0
793 -221 794 0
-793 221 794 0
794 233 -795 0
-794 -233 -795 0
794 -233 795 0
-794 233 795 0
795 239 -796 0
-795 -239 -796 0
795 -239 796 0
-795 239 796 0
796 251 -797 0
-796 -251 -797 0
796 -251 797 0
-796 251 797 0
-797 0
56 57 -798 0
-56 -57 -798 0
56 -57 798 0
-56 57 798 0
798 59 -799 0
-798 -59 -799 0
798 -59 799 0
-798 59 799 0
799 60 -800 0
-799 -60 -800 0
799 -60 800 0
-799 60 800 0
800 222 -801 0
-800 -222 -801 0
800 -222 801 0
-800 222 801 0
801 234 -802 0
-801 -234 -802 0
801 -234 802 0
-801 234 802 0
802 240 -803 0
-802 -240 -803 0
802 -240 803 0
-802 240 803 0
803 252 -804 0
-803 -252 -804 0
803 -252 804 0
-803 252 804 0
-804 0
57 58 -805 0
-57 -58 -805 0
57 -58 805 0
-57 58 805 0
805 60 -806 0
-805 -60 -806 0
805 -60 806 0
-805 60 806 0
806 61 -807 0
-806 -61 -807 0
806 -61 807 0
-806 61 807 0
807 223 -808 0
-807 -223 -808 0
807 -223 808 0
-807 223 808 0
808 235 -809 0
-808 -235 -809 0
808 -235 809 0
-808 235 809 0
809 241 -810 0
-809 -241 -810 0
809 -241 810 0
-809 241 810 0
810 253 -811 0
-810 -253 -811 0
810 -253 811 0
-810 253 811 0
-811 0
58 59 -812 0
-58 -59 -812 0
58 -59 812 0
-58 59 812 0
812 61 -813 0
-812 -61 -813 0
812 -61 813 0
-812 61 813 0
813 62 -814 0
-813 -62 -814 0
813 -62 814 0
-813 62 814 0
814 224 -815 0
-814 -224 -815 0
814 -224 815 0
-814 224 815 0
815 236 -816 0
-815 -236 -816 0
815 -236 816 0
-815 236 816 0
816 242 -817 0
-816 -242 -817 0
816 -242 817 0
-816 242 817 0
817 254 -818 0
-817 -254 -818 0
817 -254 818 0
-817 254 818 0
-818 0
59 60 -819 0
-59 -60 -819 0
59 -60 819 0
-59 60 819 0
819 62 -820 0
-819 -62 -820 0
819 -62 820 0
-819 62 820 0
820 63 -821 0
-820 -63 -821 0
820 -63 821 0
-820 63 821 0
821 225 -822 0
-821 -225 -822 0
821 -225 822 0
-821 225 822 0
822 237 -823 0
-822 -237 -823 0
822 -237 823 0
-822 237 823 0
823 243 -824 0
-823 -243 -824 0
823 -243 824 0
-823 243 824 0
824 255 -825 0
-824 -255 -825 0
824 -255 825 0
-824 255 825 0
-825 0
60 61 -826 0
-60 -61 -826 0
60 -61 826 0
-60 61 826 0
826 63 -827 0
-826 -63 -827 0
826 -63 827 0
-826 63 827 0
827 64 -828 0
-827 -64 -828 0
827 -64 828 0
-827 64 828 0
828 226 -829 0
-828 -226 -829 0
828 -226 829 0
-828 226 829 0
829 238 -830 0
-829 -238 -830 0
829 -238 830 0
-829 238 830 0
830 244 -831 0
-830 -244 -831 0
830 -244 831 0
-830 244 831 0
831 256 -832 0
-831 -256 -832 0
831 -256 832 0
-831 256 832 0
-832 0
61 62 -833 0
-61 -62 -833 0
61 -62 833 0
-61 62 833 0
833 64 -834 0
-833 -64 -834 0
833 -64 834 0
-833 64 834 0
834 65 -835 0
-834 -65 -835 0
834 -65 835 0
-834 65 835 0
835 227 -836 0
-835 -227 -836 0
835 -227 836 0
-835 227 836 0
836 239 -837 0
-836 -239 -837 0
836 -239 837 0
-836 239 837 0
837 245 -838 0
-837 -245 -838 0
837 -245 838 0
-837 245 838 0
838 257 -839 0
-838 -257 -839 0
838 -257 839 0
-838 257 839 0
-839 0
62 63 -840 0
-62 -63 -840 0
62 -63 840 0
-62 63 840 0
840 65 -841 0
-840 -65 -841 0
840 -65 841 0
-840 65 841 0
841 66 -842 0
-841 -66 -842 0
841 -66 842 0
-841 66 842 0
842 228 -843 0
-842 -228 -843 0
842 -228 843 0
-842 228 843 0
843 240 -844 0
-843 -240 -844 0
843 -240 844 0
-843 240 844 0
844 246 -845 0
-844 -246 -845 0
844 -246 845 0
-844 246 845 0
845 258 -846 0
-845 -258 -846 0
845 -258 846 0
-845 258 846 0
-846 0
63 64 -847 0
-63 -64 -847 0
63 -64 847 0
-63 64 847 0
847 66 -848 0
-847 -66 -848 0
847 -66 848 0
-847 66 848 0
848 67 -849 0
-848 -67 -849 0
848 -67 849 0
-848 67 849 0
849 229 -850 0
-849 -229 -850 0
849 -229 850 0
-849 229 850 0
850 241 -851 0
-850 -241 -851 0
850 -241 851 0
-850 241 851 0
851 247 -852 0
-851 -247 -852 0
851 -247 852 0
-851 247 852 0
852 259 -853 0
-852 -259 -853 0
852 -259 853 0
-852 259 853 0
-853 0
64 65 -854 0
-64 -65 -854 0
64 -65 854 0
-64 65 854 0
854 67 -855 0
-854 -67 -855 0
854 -67 855 0
-854 67 855 0
855 68 -856 0
-855 -68 -856 0
855 -68 856 0
-855 68 856 0
856 230 -857 0
-856 -230 -857 0
856 -230 857 0
-856 230 857 0
857 242 -858 0
-857 -242 -858 0
857 -242 858 0
-857 242 858 0
858 248 -859 0
-858 -248 -859 0
858 -248 859 0
-858 248 859 0
859 260 -860 0
-859 -260 -860 0
859 -260 860 0
-859 260 860 0
-860 0
65 66 -861 0
-65 -66 -861 0
65 -66 861 0
-65 66 861 0
861 68 -862 0
-861 -68 -862 0
861 -68 862 0
-861 68 862 0
862 69 -863 0
-862 -69 -863 0
862 -69 863 0
-862 69 863 0
863 231 -864 0
-863 -231 -864 0
863 -231 864 0
-863 231 864 0
864 243 -865 0
-864 -243 -865 0
864 -243 865 0
-864 243 865 0
865 249 -866 0
-865 -249 -866 0
865 -249 866 0
-865 249 866 0
866 261 -867 0
-866 -261 -867 0
866 -261 867 0
-866 261 867 0
-867 0
66 67 -868 0
-66 -67 -868 0
66 -67 868 0
-66 67 868 0
868 69 -869 0
-868 -69 -869 0
868 -69 869 0
-868 69 869 0
869 70 -870 0
-869 -70 -870 0
869 -70 870 0
-869 70 870 0
870 232 -871 0
-870 -232 -871 0
870 -232 871 0
-870 232 871 0
871 244 -872 0
-871 -244 -872 0
871 -244 872 0
-871 244 872 0
872 250 -873 0
-872 -250 -873 0
872 -250 873 0
-872 250 873 0
873 262 -874 0
-873 -262 -874 0
873 -262 874 0
-873 262 874 0
-874 0
67 68 -875 0
-67 -68 -875 0
67 -68 875 0
-67 68 875 0
875 70 -876 0
-875 -70 -876 0
875 -70 876 0
-875 70 876 0
876 71 -877 0
-876 -71 -877 0
876 -71 877 0
-876 71 877 0
877 233 -878 0
-877 -233 -878 0
877 -233 878 0
-877 233 878 0
878 245 -879 0
-878 -245 -879 0
878 -245 879 0
-878 245 879 0
879 251 -880 0
-879 -251 -880 0
879 -251 880 0
-879 251 880 0
880 263 -881 0
-880 -263 -881 0
880 -263 881 0
-880 263 881 0
-881 0
68 69 -882 0
-68 -69 -882 0
68 -69 882 0
-68 69 882 0
882 71 -883 0
-882 -71 -883 0
882 -71 883 0
-882 71 883 0
883 72 -884 0
-883 -72 -884 0
883 -72 884 0
-883 72 884 0
884 234 -885 0
-884 -234 -885 0
884 -234 885 0
-884 234 885 0
885 246 -886 0
-885 -246 -886 0
885 -246 886 0
-885 246 886 0
886 252 -887 0
-886 -252 -887 0
886 -252 887 0
-886 252 887 0
887 264 -888 0
-887 -264 -888 0
887 -264 888 0
-887 264 888 0
-888 0
69 70 -889 0
-69 -70 -889 0
69 -70 889 0
-69 70 889 0
889 72 -890 0
-889 -72 -890 0
889 -72 890 0
-889 72 890 0
890 73 -891 0
-890 -73 -891 0
890 -73 891 0
-890 73 891 0
891 235 -892 0
-891 -235 -892 0
891 -235 892 0
-891 235 892 0
892 247 -893 0
-892 -247 -893 0
892 -247 893 0
-892 247 893 0
893 253 -894 0
-893 -253 -894 0
893 -253 894 0
-893 253 894 0
894 265 -895 0
-894 -265 -895 0
894 -265 895 0
-894 265 895 0
-895 0
70 71 -896 0
-70 -71 -896 0
70 -71 896 0
-70 71 896 0
896 73 -897 0
-896 -73 -897 0
896 -73 897 0
-896 73 897 0
897 74 -898 0
-897 -74 -898 0
897 -74 898 0
-897 74 898 0
898 236 -899 0
-898 -236 -899 0
898 -236 899 0
-898 236 899 0
899 248 -900 0
-899 -248 -900 0
899 -248 900 0
-899 248 900 0
900 254 -901 0
-900 -254 -901 0
900 -254 901 0
-900 254 901 0
901 266 -902 0
-901 -266 -902 0
901 -266 902 0
-901 266 902 0
-902 0
71 72 -903 0
-71 -72 -903 0
71 -72 903 0
-71 72 903 0
903 74 -904 0
-903 -74 -904 0
903 -74 904 0
-903 74 904 0
904 75 -905 0
-904 -75 -905 0
904 -75 905 0
-904 75 905 0
905 237 -906 0
-905 -237 -906 0
905 -237 906 0
-905 237 906 0
906 249 -907 0
-906 -249 -907 0
906 -249 907 0
-906 249 907 0
907 255 -908 0
-907 -255 -908 0
907 -255 908 0
-907 255 908 0
908 267 -909 0
-908 -267 -909 0
908 -267 909 0
-908 267 909 0
-909 0
72 73 -910 0
-72 -73 -910 0
72 -73 910 0
-72 73 910 0
910 75 -911 0
-910 -75 -911 0
910 -75 911 0
-910 75 911 0
911 76 -912 0
-911 -76 -912 0
911 -76 912 0
-911 76 912 0
912 238 -913 0
-912 -238 -913 0
912 -238 913 0
-912 238 913 0
913 250 -914 0
-913 -250 -914 0
913 -250 914 0
-913 250 914 0
914 256 -915 0
-914 -256 -915 0
914 -256 915 0
-914 256 915 0
915 268 -916 0
-915 -268 -916 0
915 -268 916 0
-915 268 916 0
-916 0
73 74 -917 0
-73 -74 -917 0
73 -74 917 0
-73 74 917 0
917 76 -918 0
-917 -76 -918 0
917 -76 918 0
-917 76 918 0
918 77 -919 0
-918 -77 -919 0
918 -77 919 0
-918 77 919 0
919 239 -920 0
-919 -239 -920 0
919 -239 920 0
-919 239 920 0
920 251 -921 0
-920 -251 -921 0
920 -251 921 0
-920 251 921 0
921 257 -922 0
-921 -257 -922 0
921 -257 922 0
-921 257 922 0
922 269 -923 0
-922 -269 -923 0
922 -269 923 0
-922 269 923 0
-923 0
74 75 -924 0
-74 -75 -924 0
74 -75 924 0
-74 75 924 0
924 77 -925 0
-924 -77 -925 0
924 -77 925 0
-924 77 925 0
925 78 -926 0
-925 -78 -926 0
925 -78 926 0
-925 78 926 0
926 240 -927 0
-926 -240 -927 0
926 -240 927 0
-926 240 927 0
927 252 -928 0
-927 -252 -928 0
927 -252 928 0
-927 252 928 0
928 258 -929 0
-928 -258 -929 0
928 -258 929 0
-928 258 929 0
929 270 -930 0
-929 -270 -930 0
929 -270 930 0
-929 270 930 0
-930 0
75 76 -931 0
-75 -76 -931 0
75 -76 931 0
-75 76 931 0
931 78 -932 0
-931 -78 -932 0
931 -78 932 0
-931 78 932 0
932 79 -933 0
-932 -79 -933 0
932 -79 933 0
-932 79 933 0
933 241 -934 0
-933 -241 -934 0
933 -241 934 0
-933 241 934 0
934 253 -935 0
-934 -253 -935 0
934 -253 935 0
-934 253 935 0
935 259 -936 0
-935 -259 -936 0
935 -259 936 0
-935 259 936 0
936 271 -937 0
-936 -271 -937 0
936 -271 937 0
-936 271 937 0
-937 0
76 77 -938 0
-76 -77 -938 0
76 -77 938 0
-76 77 938 0
938 79 -939 0
-938 -79 -939 0
938 -79 939 0
-938 79 939 0
939 80 -940 0
-939 -80 -940 0
939 -80 940 0
-939 80 940 0
940 242 -941 0
-940 -242 -941 0
940 -242 941 0
-940 242 941 0
941 254 -942 0
-941 -254 -942 0
941 -254 942 0
-941 254 942 0
942 260 -943 0
-942 -260 -943 0
942 -260 943 0
-942 260 943 0
943 272 -944 0
-943 -272 -944 0
943 -272 944 0
-943 272 944 0
-944 0
77 78 -945 0
-77 -78 -945 0
77 -78 945 0
-77 78 945 0
945 80 -946 0
-945 -80 -946 0
945 -80 946 0
-945 80 946 0
946 81 -947 0
-946 -81 -947 0
946 -81 947 0
-946 81 947 0
947 243 -948 0
-947 -243 -948 0
947 -243 948 0
-947 243 948 0
948 255 -949 0
-948 -255 -949 0
948 -255 949 0
-948 255 949 0
949 261 -950 0
-949 -261 -950 0
949 -261 950 0
-949 261 950 0
950 273 -951 0
-950 -273 -951 0
950 -273 951 0
-950 273 951 0
-951 0
78 79 -952 0
-78 -79 -952 0
78 -79 952 0
-78 79 952 0
952 81 -953 0
-952 -81 -953 0
952 -81 953 0
-952 81 953 0
953 82 -954 0
-953 -82 -954 0
953 -82 954 0
-953 82 954 0
954 244 -955 0
-954 -244 -955 0
954 -244 955 0
-954 244 955 0
955 256 -956 0
-955 -256 -956 0
955 -256 956 0
-955 256 956 0
956 262 -957 0
-956 -262 -957 0
956 -262 957 0
-956 262 957 0
957 274 -958 0
-957 -274 -958 0
957 -274 958 0
-957 274 958 0
-958 0
79 80 -959 0
-79 -80 -959 0
79 -80 959 0
-79 80 959 0
959 82 -960 0
-959 -82 -960 0
959 -82 960 0
-959 82 960 0
960 83 -961 0
-960 -83 -961 0
960 -83 961 0
-960 83 961 0
961 245 -962 0
-961 -245 -962 0
961 -245 962 0
-961 245 962 0
962 257 -963 0
-962 -257 -963 0
962 -257 963 0
-962 257 963 0
963 263 -964 0
-963 -263 -964 0
963 -263 964 0
-963 263 964 0
964 275 -965 0
-964 -275 -965 0
964 -275 965 0
-964 275 965 0
-965 0
80 81 -966 0
-80 -81 -966 0
80 -81 966 0
-80 81 966 0
966 83 -967 0
-966 -83 -967 0
966 -83 967 0
-966 83 967 0
967 84 -968 0
-967 -84 -968 0
967 -84 968 0
-967 84 968 0
968 246 -969 0
-968 -246 -969 0
968 -246 969 0
-968 246 969 0
969 258 -970 0
-969 -258 -970 0
969 -258 970 0
-969 258 970 0
970 264 -971 0
-970 -264 -971 0
970 -264 971 0
-970 264 971 0
971 276 -972 0
-971 -276 -972 0
971 -276 972 0
-971 276 972 0
-972 0
81 82 -973 0
-81 -82 -973 0
81 -82 973 0
-81 82 973 0
973 84 -974 0
-973 -84 -974 0
973 -84 974 0
-973 84 974 0
974 85 -975 0
-974 -85 -975 0
974 -85 975 0
-974 85 975 0
975 247 -976 0
-975 -247 -976 0
975 -247 976 0
-975 247 976 0
976 259 -977 0
-976 -259 -977 0
976 -259 977 0
-976 259 977 0
977 265 -978 0
-977 -265 -978 0
977 -265 978 0
-977 265 978 0
978 277 -979 0
-978 -277 -979 0
978 -277 979 0
-978 277 979 0
-979 0
82 83 -980 0
-82 -83 -980 0
82 -83 980 0
-82 83 980 0
980 85 -981 0
-980 -85 -981 0
980 -85 981 0
-980 85 981 0
981 86 -982 0
-981 -86 -982 0
981 -86 982 0
-981 86 982 0
982 248 -983 0
-982 -248 -983 0
982 -248 983 0
-982 248 983 0
983 260 -984 0
-983 -260 -984 0
983 -260 984 0
-983 260 984 0
984 266 -985 0
-984 -266 -985 0
984 -266 985 0
-984 266 985 0
985 278 -986 0
-985 -278 -986 0
985 -278 986 0
-985 278 986 0
-986 0
83 84 -987 0
-83 -84 -987 0
83 -84 987 0
-83 84 987 0
987 86 -988 0
-987 -86 -988 0
987 -86 988 0
-987 86 988 0
988 87 -989 0
-988 -87 -989 0
988 -87 989 0
-988 87 989 0
989 249 -990 0
-989 -249 -990 0
989 -249 990 0
-989 249 990 0
990 261 -991 0
-990 -261 -991 0
990 -261 991 0
-990 261 991 0
991 267 -992 0
-991 -267 -992 0
991 -267 992 0
-991 267 992 0
992 279 -993 0
-992 -279 -993 0
992 -279 993 0
-992 279 993 0
-993 0
84 85 -994 0
-84 -85 -994 0
84 -85 994 0
-84 85 994 0
994 87 -995 0
-994 -87 -995 0
994 -87 995 0
-994 87 995 0
995 88 -996 0
-995 -88 -996 0
995 -88 996 0
-995 88 996 0
996 250 -997 0
-996 -250 -997 0
996 -250 997 0
-996 250 997 0
997 262 -998 0
-997 -262 -998 0
997 -262 998 0
-997 262 998 0
998 268 -999 0
-998 -268 -999 0
998 -268 999 0
-998 268 999 0
999 280 -1000 0
-999 -280 -1000 0
999 -280 1000 0
-999 280 1000 0
-1000 0
85 86 -1001 0
-85 -86 -1001 0
85 -86 1001 0
-85 86 1001 0
1001 88 -1002 0
-1001 -88 -1002 0
1001 -88 1002 0
-1001 88 1002 0
1002 89 -1003 0
-1002 -89 -1003 0
1002 -89 1003 0
-1002 89 1003 0
1003 251 -1004 0
-1003 -251 -1004 0
1003 -251 1004 0
-1003 251 1004 0
1004 263 -1005 0
-1004 -263 -1005 0
1004 -263 1005 0
-1004 263 1005 0
1005 269 -1006 0
-1005 -269 -1006 0
1005 -269 1006 0
-1005 269 1006 0
1006 281 -1007 0
-1006 -281 -1007 0
1006 -281 1007 0
-1006 281 1007 0
-1007 0
86 87 -1008 0
-86 -87 -1008 0
86 -87 1008 0
-86 87 1008 0
1008 89 -1009 0
-1008 -89 -1009 0
1008 -89 1009 0
-1008 89 1009 0
1009 90 -1010 0
-1009 -90 -1010 0
1009 -90 1010 0
-1009 90 1010 0
1010 252 -1011 0
-1010 -252 -1011 0
1010 -252 1011 0
-1010 252 1011 0
1011 264 -1012 0
-1011 -264 -1012 0
1011 -264 1012 0
-1011 264 1012 0
1012 270 -1013 0
-1012 -270 -1013 0
1012 -270 1013 0
-1012 270 1013 0
1013 282 -1014 0
-1013 -282 -1014 0
1013 -282 1014 0
-1013 282 1014 0
-1014 0
87 88 -1015 0
-87 -88 -1015 0
87 -88 1015 0
-87 88 1015 0
1015 90 -1016 0
-1015 -90 -1016 0
1015 -90 1016 0
-1015 90 1016 0
1016 91 -1017 0
-1016 -91 -1017 0
1016 -91 1017 0
-1016 91 1017 0
1017 253 -1018 0
-1017 -253 -1018 0
1017 -253 1018 0
-1017 253 1018 0
1018 265 -1019 0
-1018 -265 -1019 0
1018 -265 1019 0
-1018 265 1019 0
1019 271 -1020 0
-1019 -271 -1020 0
1019 -271 1020 0
-1019 271 1020 0
1020 283 -1021 0
-1020 -283 -1021 0
1020 -283 1021 0
-1020 283 1021 0
-1021 0
88 89 -1022 0
-88 -89 -1022 0
88 -89 1022 0
-88 89 1022 0
1022 91 -1023 0
-1022 -91 -1023 0
1022 -91 1023 0
-1022 91 1023 0
1023 92 -1024 0
-1023 -92 -1024 0
1023 -92 1024 0
-1023 92 1024 0
1024 254 -1025 0
-1024 -254 -1025 0
1024 -254 1025 0
-1024 254 1025 0
1025 266 -1026 0
-1025 -266 -1026 0
1025 -266 1026 0
-1025 266 1026 0
1026 272 -1027 0
-1026 -272 -1027 0
1026 -272 1027 0
-1026 272 1027 0
1027 284 -1028 0
-1027 -284 -1028 0
1027 -284 1028 0
-1027 284 1028 0
-1028 0
89 90 -1029 0
-89 -90 -1029 0
89 -90 1029 0
-89 90 1029 0
1029 92 -1030 0
-1029 -92 -1030 0
1029 -92 1030 0
-1029 92 1030 0
1030 93 -1031 0
-1030 -93 -1031 0
1030 -93 1031 0
-1030 93 1031 0
1031 255 -1032 0
-1031 -255 -1032 0
1031 -255 1032 0
-1031 255 1032 0
1032 267 -1033 0
-1032 -267 -1033 0
1032 -267 1033 0
-1032 267 1033 0
1033 273 -1034 0
-1033 -273 -1034 0
1033 -273 1034 0
-1033 273 1034 0
1034 285 -1035 0
-1034 -285 -1035 0
1034 -285 1035 0
-1034 285 1035 0
-1035 0
90 91 -1036 0
-90 -91 -1036 0
90 -91 1036 0
-90 91 1036 0
1036 93 -1037 0
-1036 -93 -1037 0
1036 -93 1037 0
-1036 93 1037 0
1037 94 -1038 0
-1037 -94 -1038 0
1037 -94 1038 0
-1037 94 1038 0
1038 256 -1039 0
-1038 -256 -1039 0
1038 -256 1039 0
-1038 256 1039 0
1039 268 -1040 0
-1039 -268 -1040 0
1039 -268 1040 0
-1039 268 1040 0
1040 274 -1041 0
-1040 -274 -1041 0
1040 -274 1041 0
-1040 274 1041 0
1041 286 -1042 0
-1041 -286 -1042 0
1041 -286 1042 0
-1041 286 1042 0
-1042 0
91 92 -1043 0
-91 -92 -1043 0
91 -92 1043 0
-91 92 1043 0
1043 94 -1044 0
-1043 -94 -1044 0
1043 -94 1044 0
-1043 94 1044 0
1044 95 -1045 0
-1044 -95 -1045 0
1044 -95 1045 0
-1044 95 1045 0
1045 257 -1046 0
-1045 -257 -1046 0
1045 -257 1046 0
-1045 257 1046 0
1046 269 -1047 0
-1046 -269 -1047 0
1046 -269 1047 0
-1046 269 1047 0
1047 275 -1048 0
-1047 -275 -1048 0
1047 -275 1048 0
-1047 275 1048 0
1048 287 -1049 0
-1048 -287 -1049 0
1048 -287 1049 0
-1048 287 1049 0
-1049 0
92 93 -1050 0
-92 -93 -1050 0
92 -93 1050 0
-92 93 1050 0
1050 95 -1051 0
-1050 -95 -1051 0
1050 -95 1051 0
-1050 95 1051 0
1051 96 -1052 0
-1051 -96 -1052 0
1051 -96 1052 0
-1051 96 1052 0
1052 258 -1053 0
-1052 -258 -1053 0
1052 -258 1053 0
-1052 258 1053 0
1053 270 -1054 0
-1053 -270 -1054 0
1053 -270 1054 0
-1053 270 1054 0
1054 276 -1055 0
-1054 -276 -1055 0
1054 -276 1055 0
-1054 276 1055 0
1055 288 -1056 0
-1055 -288 -1056 0
1055 -288 1056 0
-1055 288 1056 0
-1056 0
93 94 -1057 0
-93 -94 -1057 0
93 -94 1057 0
-93 94 1057 0
1057 96 -1058 0
-1057 -96 -1058 0
1057 -96 1058 0
-1057 96 1058 0
1058 97 -1059 0
-1058 -97 -1059 0
1058 -97 1059 0
-1058 97 1059 0
1059 259 -1060 0
-1059 -259 -1060 0
1059 -259 1060 0
-1059 259 1060 0
1060 271 -1061 0
-1060 -271 -1061 0
1060 -271 1061 0
-1060 271 1061 0
1061 277 -1062 0
-1061 -277 -1062 0
1061 -277 1062 0
-1061 277 1062 0
1062 289 -1063 0
-1062 -289 -1063 0
1062 -289 1063 0
-1062 289 1063 0
-1063 0
94 95 -1064 0
-94 -95 -1064 0
94 -95 1064 0
-94 95 1064 0
1064 97 -1065 0
-1064 -97 -1065 0
1064 -97 1065 0
-1064 97 1065 0
1065 98 -1066 0
-1065 -98 -1066 0
1065 -98 1066 0
-1065 98 1066 0
1066 260 -1067 0
-1066 -260 -1067 0
1066 -260 1067 0
-1066 260 1067 0
1067 272 -1068 0
-1067 -272 -1068 0
1067 -272 1068 0
-1067 272 1068 0
1068 278 -1069 0
-1068 -278 -1069 0
1068 -278 1069 0
-1068 278 1069 0
1069 290 -1070 0
-1069 -290 -1070 0
1069 -290 1070 0
-1069 290 1070 0
-1070 0
95 96 -1071 0
-95 -96 -1071 0
95 -96 1071 0
-95 96 1071 0
1071 98 -1072 0
-1071 -98 -1072 0
1071 -98 1072 0
-1071 98 1072 0
1072 99 -1073 0
-1072 -99 -1073 0
1072 -99 1073 0
-1072 99 1073 0
1073 261 -1074 0
-1073 -261 -1074 0
1073 -261 1074 0
-1073 261 1074 0
1074 273 -1075 0
-1074 -273 -1075 0
1074 -273 1075 0
-1074 273 1075 0
1075 279 -1076 0
-1075 -279 -1076 0
1075 -279 1076 0
-1075 279 1076 0
1076 291 -1077 0
-1076 -291 -1077 0
1076 -291 1077 0
-1076 291 1077 0
-1077 0
96 97 -1078 0
-96 -97 -1078 0
96 -97 1078 0
-96 97 1078 0
1078 99 -1079 0
-1078 -99 -1079 0
1078 -99 1079 0
-1078 99 1079 0
1079 100 -1080 0
-1079 -100 -1080 0
1079 -100 1080 0
-1079 100 1080 0
1080 262 -1081 0
-1080 -262 -1081 0
1080 -262 1081 0
-1080 262 1081 0
1081 274 -1082 0
-1081 -274 -1082 0
1081 -274 1082 0
-1081 274 1082 0
1082 280 -1083 0
-1082 -280 -1083 0
1082 -280 1083 0
-1082 280 1083 0
1083 292 -1084 0
-1083 -292 -1084 0
1083 -292 1084 0
-1083 292 1084 0
-1084 0
97 98 -1085 0
-97 -98 -1085 0
97 -98 1085 0
-97 98 1085 0
1085 100 -1086 0
-1085 -100 -1086 0
1085 -100 1086 0
-1085 100 1086 0
1086 101 -1087 0
-1086 -101 -1087 0
1086 -101 1087 0
-1086 101 1087 0
1087 263 -1088 0
-1087 -263 -1088 0
1087 -263 1088 0
-1087 263 1088 0
1088 275 -1089 0
-1088 -275 -1089 0
1088 -275 1089 0
-1088 275 1089 0
1089 281 -1090 0
-1089 -281 -1090 0
1089 -281 1090 0
-1089 281 1090 0
1090 293 -1091 0
-1090 -293 -1091 0
1090 -293 1091 0
-1090 293 1091 0
-1091 0
98 99 -1092 0
-98 -99 -1092 0
98 -99 1092 0
-98 99 1092 0
1092 101 -1093 0
-1092 -101 -1093 0
1092 -101 1093 0
-1092 101 1093 0
1093 102 -1094 0
-1093 -102 -1094 0
1093 -102 1094 0
-1093 102 1094 0
1094 264 -1095 0
-1094 -264 -1095 0
1094 -264 1095 0
-1094 264 1095 0
1095 276 -1096 0
-1095 -276 -1096 0
1095 -276 1096 0
-1095 276 1096 0
1096 282 -1097 0
-1096 -282 -1097 0
1096 -282 1097 0
-1096 282 1097 0
1097 294 -1098 0
-1097 -294 -1098 0
1097 -294 1098 0
-1097 294 1098 0
-1098 0
99 100 -1099 0
-99 -100 -1099 0
99 -100 1099 0
-99 100 1099 0
1099 102 -1100 0
-1099 -102 -1100 0
1099 -102 1100 0
-1099 102 1100 0
1100 103 -1101 0
-1100 -103 -1101 0
1100 -103 1101 0
-1100 103 1101 0
1101 265 -1102 0
-1101 -265 -1102 0
1101 -265 1102 0
-1101 265 1102 0
1102 277 -1103 0
-1102 -277 -1103 0
1102 -277 1103 0
-1102 277 1103 0
1103 283 -1104 0
-1103 -283 -1104 0
1103 -283 1104 0
-1103 283 1104 0
1104 295 -1105 0
-1104 -295 -1105 0
1104 -295 1105 0
-1104 295 1105 0
-1105 0
100 101 -1106 0
-100 -101 -1106 0
100 -101 1106 0
-100 101 1106 0
1106 103 -1107 0
-1106 -103 -1107 0
1106 -103 1107 0
-1106 103 1107 0
1107 104 -1108 0
-1107 -104 -1108 0
1107 -104 1108 0
-1107 104 1108 0
1108 266 -1109 0
-1108 -266 -1109 0
1108 -266 1109 0
-1108 266 1109 0
1109 278 -1110 0
-1109 -278 -1110 0
1109 -278 1110 0
-1109 278 1110 0
1110 284 -1111 0
-1110 -284 -1111 0
1110 -284 1111 0
-1110 284 1111 0
1111 296 -1112 0
-1111 -296 -1112 0
1111 -296 1112 0
-1111 296 1112 0
-1112 0
101 102 -1113 0
-101 -102 -1113 0
101 -102 1113 0
-101 102 1113 0
1113 104 -1114 0
-1113 -104 -1114 0
1113 -104 1114 0
-1113 104 1114 0
1114 105 -1115 0
-1114 -105 -1115 0
1114 -105 1115 0
-1114 105 1115 0
1115 267 -1116 0
-1115 -267 -1116 0
1115 -267 1116 0
-1115 267 1116 0
1116 279 -1117 0
-1116 -279 -1117 0
1116 -279 1117 0
-1116 279 1117 0
1117 285 -1118 0
-1117 -285 -1118 0
1117 -285 1118 0
-1117 285 1118 0
1118 297 -1119 0
-1118 -297 -1119 0
1118 -297 1119 0
-1118 297 1119 0
-1119 0
102 103 -1120 0
-102 -103 -1120 0
102 -103 1120 0
-102 103 1120 0
1120 105 -1121 0
-1120 -105 -1121 0
1120 -105 1121 0
-1120 105 1121 0
1121 106 -1122 0
-1121 -106 -1122 0
1121 -106 1122 0
-1121 106 1122 0
1122 268 -1123 0
-1122 -268 -1123 0
1122 -268 1123 0
-1122 268 1123 0
1123 280 -1124 0
-1123 -280 -1124 0
1123 -280 1124 0
-1123 280 1124 0
1124 286 -1125 0
-1124 -286 -1125 0
1124 -286 1125 0
-1124 286 1125 0
1125 298 -1126 0
-1125 -298 -1126 0
1125 -298 1126 0
-1125 298 1126 0
-1126 0
103 104 -1127 0
-103 -104 -1127 0
103 -104 1127 0
-103 104 1127 0
1127 106 -1128 0
-1127 -106 -1128 0
1127 -106 1128 0
-1127 106 1128 0
1128 107 -1129 0
-1128 -107 -1129 0
1128 -107 1129 0
-1128 107 1129 0
1129 269 -1130 0
-1129 -269 -1130 0
1129 -269 1130 0
-1129 269 1130 0
1130 281 -1131 0
-1130 -281 -1131 0
1130 -281 1131 0
-1130 281 1131 0
1131 287 -1132 0
-1131 -287 -1132 0
1131 -287 1132 0
-1131 287 1132 0
1132 299 -1133 0
-1132 -299 -1133 0
1132 -299 1133 0
-1132 299 1133 0
-1133 0
104 105 -1134 0
-104 -105 -1134 0
104 -105 1134 0
-104 105 1134 0
1134 107 -1135 0
-1134 -107 -1135 0
1134 -107 1135 0
-1134 107 1135 0
1135 108 -1136 0
-1135 -108 -1136 0
1135 -108 1136 0
-1135 108 1136 0
1136 270 -1137 0
-1136 -270 -1137 0
1136 -270 1137 0
-1136 270 1137 0
1137 282 -1138 0
-1137 -282 -1138 0
1137 -282 1138 0
-1137 282 1138 0
1138 288 -1139 0
-1138 -288 -1139 0
1138 -288 1139 0
-1138 288 1139 0
1139 300 -1140 0
-1139 -300 -1140 0
1139 -300 1140 0
-1139 300 1140 0
-1140 0
105 106 -1141 0
-105 -106 -1141 0
105 -106 1141 0
-105 106 1141 0
1141 108 -1142 0
-1141 -108 -1142 0
1141 -108 1142 0
-1141 108 1142 0
1142 109 -1143 0
-1142 -109 -1143 0
1142 -109 1143 0
-1142 109 1143 0
1143 271 -1144 0
-1143 -271 -1144 0
1143 -271 1144 0
-1143 271 1144 0
1144 283 -1145 0
-1144 -283 -1145 0
1144 -283 1145 0
-1144 283 1145 0
1145 289 -1146 0
-1145 -289 -1146 0
1145 -289 1146 0
-1145 289 1146 0
1146 301 -1147 0
-1146 -301 -1147 0
1146 -301 1147 0
-1146 301 1147 0
-1147 0
106 107 -1148 0
-106 -107 -1148 0
106 -107 1148 0
-106 107 1148 0
1148 109 -1149 0
-1148 -109 -1149 0
1148 -109 1149 0
-1148 109 1149 0
1149 110 -1150 0
-1149 -110 -1150 0
1149 -110 1150 0
-1149 110 1150 0
1150 272 -1151 0
-1150 -272 -1151 0
1150 -272 1151 0
-1150 272 1151 0
1151 284 -1152 0
-1151 -284 -1152 0
1151 -284 1152 0
-1151 284 1152 0
1152 290 -1153 0
-1152 -290 -1153 0
1152 -290 1153 0
-1152 290 1153 0
1153 302 -1154 0
-1153 -302 -1154 0
1153 -302 1154 0
-1153 302 1154 0
-1154 0
107 108 -1155 0
-107 -108 -1155 0
107 -108 1155 0
-107 108 1155 0
1155 110 -1156 0
-1155 -110 -1156 0
1155 -110 1156 0
-1155 110 1156 0
1156 111 -1157 0
-1156 -111 -1157 0
1156 -111 1157 0
-1156 111 1157 0
1157 273 -1158 0
-1157 -273 -1158 0
1157 -273 1158 0
-1157 273 1158 0
1158 285 -1159 0
-1158 -285 -1159 0
1158 -285 1159 0
-1158 285 1159 0
1159 291 -1160 0
-1159 -291 -1160 0
1159 -291 1160 0
-1159 291 1160 0
1160 303 -1161 0
-1160 -303 -1161 0
1160 -303 1161 0
-1160 303 1161 0
-1161 0
108 109 -1162 0
-108 -109 -1162 0
108 -109 1162 0
-108 109 1162 0
1162 111 -1163 0
-1162 -111 -1163 0
1162 -111 1163 0
-1162 111 1163 0
1163 112 -1164 0
-1163 -112 -1164 0
1163 -112 1164 0
-1163 112 1164 0
1164 274 -1165 0
-1164 -274 -1165 0
1164 -274 1165 0
-1164 274 1165 0
1165 286 -1166 0
-1165 -286 -1166 0
1165 -286 1166 0
-1165 286 1166 0
1166 292 -1167 0
-1166 -292 -1167 0
1166 -292 1167 0
-1166 292 1167 0
1167 304 -1168 0
-1167 -304 -1168 0
1167 -304 1168 0
-1167 304 1168 0
-1168 0
109 110 -1169 0
-109 -110 -1169 0
109 -110 1169 0
-109 110 1169 0
1169 112 -1170 0
-1169 -112 -1170 0
1169 -112 1170 0
-1169 112 1170 0
1170 113 -1171 0
-1170 -113 -1171 0
1170 -113 1171 0
-1170 113 1171 0
1171 275 -1172 0
-1171 -275 -1172 0
1171 -275 1172 0
-1171 275 1172 0
1172 287 -1173 0
-1172 -287 -1173 0
1172 -287 1173 0
-1172 287 1173 0
1173 293 -1174 0
-1173 -293 -1174 0
1173 -293 1174 0
-1173 293 1174 0
1174 305 -1175 0
-1174 -305 -1175 0
1174 -305 1175 0
-1174 305 1175 0
-1175 0
110 111 -1176 0
-110 -111 -1176 0
110 -111 1176 0
-110 111 1176 0
1176 113 -1177 0
-1176 -113 -1177 0
1176 -113 1177 0
-1176 113 1177 0
1177 114 -1178 0
-1177 -114 -1178 0
1177 -114 1178 0
-1177 114 1178 0
1178 276 -1179 0
-1178 -276 -1179 0
1178 -276 1179 0
-1178 276 1179 0
1179 288 -1180 0
-1179 -288 -1180 0
1179 -288 1180 0
-1179 288 1180 0
1180 294 -1181 0
-1180 -294 -1181 0
1180 -294 1181 0
-1180 294 1181 0
1181 306 -1182 0
-1181 -306 -1182 0
1181 -306 1182 0
-1181 306 1182 0
-1182 0
111 112 -1183 0
-111 -112 -1183 0
111 -112 1183 0
-111 112 1183 0
1183 114 -1184 0
-1183 -114 -1184 0
1183 -114 1184 0
-1183 114 1184 0
1184 115 -1185 0
-1184 -115 -1185 0
1184 -115 1185 0
-1184 115 1185 0
1185 277 -1186 0
-1185 -277 -1186 0
1185 -277 1186 0
-1185 277 1186 0
1186 289 -1187 0
-1186 -289 -1187 0
1186 -289 1187 0
-1186 289 1187 0
1187 295 -1188 0
-1187 -295 -1188 0
1187 -295 1188 0
-1187 295 1188 0
1188 307 -1189 0
-1188 -307 -1189 0
1188 -307 1189 0
-1188 307 1189 0
-1189 0
112 113 -1190 0
-112 -113 -1190 0
112 -113 1190 0
-112 113 1190 0
1190 115 -1191 0
-1190 -115 -1191 0
1190 -115 1191 0
-1190 115 1191 0
1191 116 -1192 0
-1191 -116 -1192 0
1191 -116 1192 0
-1191 116 1192 0
1192 278 -1193 0
-1192 -278 -1193 0
1192 -278 1193 0
-1192 278 1193 0
1193 290 -1194 0
-1193 -290 -1194 0
1193 -290 1194 0
-1193 290 1194 0
1194 296 -1195 0
-1194 -296 -1195 0
1194 -296 1195 0
-1194 296 1195 0
1195 308 -1196 0
-1195 -308 -1196 0
1195 -308 1196 0
-1195 308 1196 0
-1196 0
113 114 -1197 0
-113 -114 -1197 0
113 -114 1197 0
-113 114 1197 0
1197 116 -1198 0
-1197 -116 -1198 0
1197 -116 1198 0
-1197 116 1198 0
1198 117 -1199 0
-1198 -117 -1199 0
1198 -117 1199 0
-1198 117 1199 0
1199 279 -1200 0
-1199 -279 -1200 0
1199 -279 1200 0
-1199 279 1200 0
1200 291 -1201 0
-1200 -291 -1201 0
1200 -291 1201 0
-1200 291 1201 0
1201 297 -1202 0
-1201 -297 -1202 0
1201 -297 1202 0
-1201 297 1202 0
1202 309 -1203 0
-1202 -309 -1203 0
1202 -309 1203 0
-1202 309 1203 0
-1203 0
114 115 -1204 0
-114 -115 -1204 0
114 -115 1204 0
-114 115 1204 0
1204 117 -1205 0
-1204 -117 -1205 0
1204 -117 1205 0
-1204 117 1205 0
1205 118 -1206 0
-1205 -118 -1206 0
1205 -118 1206 0
-1205 118 1206 0
1206 280 -1207 0
-1206 -280 -1207 0
1206 -280 1207 0
-1206 280 1207 0
1207 292 -1208 0
-1207 -292 -1208 0
1207 -292 1208 0
-1207 292 1208 0
1208 298 -1209 0
-1208 -298 -1209 0
1208 -298 1209 0
-1208 298 1209 0
1209 310 -1210 0
-1209 -310 -1210 0
1209 -310 1210 0
-1209 310 1210 0
-1210 0
115 116 -1211 0
-115 -116 -1211 0
115 -116 1211 0
-115 116 1211 0
1211 118 -1212 0
-1211 -118 -1212 0
1211 -118 1212 0
-1211 118 1212 0
1212 119 -1213 0
-1212 -119 -1213 0
1212 -119 1213 0
-1212 119 1213 0
1213 281 -1214 0
-1213 -281 -1214 0
1213 -281 1214 0
-1213 281 1214 0
1214 293 -1215 0
-1214 -293 -1215 0
1214 -293 1215 0
-1214 293 1215 0
1215 299 -1216 0
-1215 -299 -1216 0
1215 -299 1216 0
-1215 299 1216 0
1216 311 -1217 0
-1216 -311 -1217 0
1216 -311 1217 0
-1216 311 1217 0
-1217 0
116 117 -1218 0
-116 -117 -1218 0
116 -117 1218 0
-116 117 1218 0
1218 119 -1219 0
-1218 -119 -1219 0
1218 -119 1219 0
-1218 119 1219 0
1219 120 -1220 0
-1219 -120 -1220 0
1219 -120 1220 0
-1219 120 1220 0
1220 282 -1221 0
-1220 -282 -1221 0
1220 -282 1221 0
-1220 282 1221 0
1221 294 -1222 0
-1221 -294 -1222 0
1221 -294 1222 0
-1221 294 1222 0
1222 300 -1223 0
-1222 -300 -1223 0
1222 -300 1223 0
-1222 300 1223 0
1223 312 -1224 0
-1223 -312 -1224 0
1223 -312 1224 0
-1223 312 1224 0
-1224 0
117 118 -1225 0
-117 -118 -1225 0
117 -118 1225 0
-117 118 1225 0
1225 120 -1226 0
-1225 -120 -1226 0
1225 -120 1226 0
-1225 120 1226 0
1226 121 -1227 0
-1226 -121 -1227 0
1226 -121 1227 0
-1226 121 1227 0
1227 283 -1228 0
-1227 -283 -1228 0
1227 -283 1228 0
-1227 283 1228 0
1228 295 -1229 0
-1228 -295 -1229 0
1228 -295 1229 0
-1228 295 1229 0
1229 301 -1230 0
-1229 -301 -1230 0
1229 -301 1230 0
-1229 301 1230 0
1230 313 -1231 0
-1230 -313 -1231 0
1230 -313 1231 0
-1230 313 1231 0
-1231 0
118 119 -1232 0
-118 -119 -1232 0
118 -119 1232 0
-118 119 1232 0
1232 121 -1233 0
-1232 -121 -1233 0
1232 -121 1233 0
-1232 121 1233 0
1233 122 -1234 0
-1233 -122 -1234 0
1233 -122 1234 0
-1233 122 1234 0
1234 284 -1235 0
-1234 -284 -1235 0
1234 -284 1235 0
-1234 284 1235 0
1235 296 -1236 0
-1235 -296 -1236 0
1235 -296 1236 0
-1235 296 1236 0
1236 302 -1237 0
-1236 -302 -1237 0
1236 -302 1237 0
-1236 302 1237 0
1237 314 -1238 0
-1237 -314 -1238 0
1237 -314 1238 0
-1237 314 1238 0
-1238 0
119 120 -1239 0
-119 -120 -1239 0
119 -120 1239 0
-119 120 1239 0
1239 122 -1240 0
-1239 -122 -1240 0
1239 -122 1240 0
-1239 122 1240 0
1240 123 -1241 0
-1240 -123 -1241 0
1240 -123 1241 0
-1240 123 1241 0
1241 285 -1242 0
-1241 -285 -1242 0
1241 -285 1242 0
-1241 285 1242 0
1242 297 -1243 0
-1242 -297 -1243 0
1242 -297 1243 0
-1242 297 1243 0
1243 303 -1244 0
-1243 -303 -1244 0
1243 -303 1244 0
-1243 303 1244 0
1244 315 -1245 0
-1244 -315 -1245 0
1244 -315 1245 0
-1244 315 1245 0
-1245 0
120 121 -1246 0
-120 -121 -1246 0
120 -121 1246 0
-120 121 1246 0
1246 123 -1247 0
-1246 -123 -1247 0
1246 -123 1247 0
-1246 123 1247 0
1247 124 -1248 0
-1247 -124 -1248 0
1247 -124 1248 0
-1247 124 1248 0
1248 286 -1249 0
-1248 -286 -1249 0
1248 -286 1249 0
-1248 286 1249 0
1249 298 -1250 0
-1249 -298 -1250 0
1249 -298 1250 0
-1249 298 1250 0
1250 304 -1251 0
-1250 -304 -1251 0
1250 -304 1251 0
-1250 304 1251 0
1251 316 -1252 0
-1251 -316 -1252 0
1251 -316 1252 0
-1251 316 1252 0
-1252 0
121 122 -1253 0
-121 -122 -1253 0
121 -122 1253 0
-121 122 1253 0
1253 124 -1254 0
-1253 -124 -1254 0
1253 -124 1254 0
-1253 124 1254 0
1254 125 -1255 0
-1254 -125 -1255 0
1254 -125 1255 0
-1254 125 1255 0
1255 287 -1256 0
-1255 -287 -1256 0
1255 -287 1256 0
-1255 287 1256 0
1256 299 -1257 0
-1256 -299 -1257 0
1256 -299 1257 0
-1256 299 1257 0
1257 305 -1258 0
-1257 -305 -1258 0
1257 -305 1258 0
-1257 305 1258 0
1258 317 -1259 0
-1258 -317 -1259 0
1258 -317 1259 0
-1258 317 1259 0
-1259 0
122 123 -1260 0
-122 -123 -1260 0
122 -123 1260 0
-122 123 1260 0
1260 125 -1261 0
-1260 -125 -1261 0
1260 -125 1261 0
-1260 125 1261 0
1261 126 -1262 0
-1261 -126 -1262 0
1261 -126 1262 0
-1261 126 1262 0
1262 288 -1263 0
-1262 -288 -1263 0
1262 -288 1263 0
-1262 288 1263 0
1263 300 -1264 0
-1263 -300 -1264 0
1263 -300 1264 0
-1263 300 1264 0
1264 306 -1265 0
-1264 -306 -1265 0
1264 -306 1265 0
-1264 306 1265 0
1265 318 -1266 0
-1265 -318 -1266 0
1265 -318 1266 0
-1265 318 1266 0
-1266 0
123 124 -1267 0
-123 -124 -1267 0
123 -124 1267 0
-123 124 1267 0
1267 126 -1268 0
-1267 -126 -1268 0
1267 -126 1268 0
-1267 126 1268 0
1268 127 -1269 0
-1268 -127 -1269 0
1268 -127 1269 0
-1268 127 1269 0
1269 289 -1270 0
-1269 -289 -1270 0
1269 -289 1270 0
-1269 289 1270 0
1270 301 -1271 0
-1270 -301 -1271 0
1270 -301 1271 0
-1270 301 1271 0
1271 307 -1272 0
-1271 -307 -1272 0
1271 -307 1272 0
-1271 307 1272 0
1272 319 -1273 0
-1272 -319 -1273 0
1272 -319 1273 0
-1272 319 1273 0
-1273 0
124 125 -1274 0
-124 -125 -1274 0
124 -125 1274 0
-124 125 1274 0
1274 127 -1275 0
-1274 -127 -1275 0
1274 -127 1275 0
-1274 127 1275 0
1275 128 -1276 0
-1275 -128 -1276 0
1275 -128 1276 0
-1275 128 1276 0
1276 290 -1277 0
-1276 -290 -1277 0
1276 -290 1277 0
-1276 290 1277 0
1277 302 -1278 0
-1277 -302 -1278 0
1277 -302 1278 0
-1277 302 1278 0
1278 308 -1279 0
-1278 -308 -1279 0
1278 -308 1279 0
-1278 308 1279 0
1279 320 -1280 0
-1279 -320 -1280 0
1279 -320 1280 0
-1279 320 1280 0
-1280 0
125 126 -1281 0
-125 -126 -1281 0
125 -126 1281 0
-125 126 1281 0
1281 128 -1282 0
-1281 -128 -1282 0
1281 -128 1282 0
-1281 128 1282 0
1282 129 -1283 0
-1282 -129 -1283 0
1282 -129 1283 0
-1282 129 1283 0
1283 291 -1284 0
-1283 -291 -1284 0
1283 -291 1284 0
-1283 291 1284 0
1284 303 -1285 0
-1284 -303 -1285 0
1284 -303 1285 0
-1284 303 1285 0
1285 309 -1286 0
-1285 -309 -1286 0
1285 -309 1286 0
-1285 309 1286 0
1286 321 -1287 0
-1286 -321 -1287 0
1286 -321 1287 0
-1286 321 1287 0
-1287 0
126 127 -1288 0
-126 -127 -1288 0
126 -127 1288 0
-126 127 1288 0
1288 129 -1289 0
-1288 -129 -1289 0
1288 -129 1289 0
-1288 129 1289 0
1289 130 -1290 0
-1289 -130 -1290 0
1289 -130 1290 0
-1289 130 1290 0
1290 292 -1291 0
-1290 -292 -1291 0
1290 -292 1291 0
-1290 292 1291 0
1291 304 -1292 0
-1291 -304 -1292 0
1291 -304 1292 0
-1291 304 1292 0
1292 310 -1293 0
-1292 -310 -1293 0
1292 -310 1293 0
-1292 310 1293 0
1293 322 -1294 0
-1293 -322 -1294 0
1293 -322 1294 0
-1293 322 1294 0
-1294 0
127 128 -1295 0
-127 -128 -1295 0
127 -128 1295 0
-127 128 1295 0
1295 130 -1296 0
-1295 -130 -1296 0
1295 -130 1296 0
-1295 130 1296 0
1296 131 -1297 0
-1296 -131 -1297 0
1296 -131 1297 0
-1296 131 1297 0
1297 293 -1298 0
-1297 -293 -1298 0
1297 -293 1298 0
-1297 293 1298 0
1298 305 -1299 0
-1298 -305 -1299 0
1298 -305 1299 0
-1298 305 1299 0
1299 311 -1300 0
-1299 -311 -1300 0
1299 -311 1300 0
-1299 311 1300 0
1300 323 -1301 0
-1300 -323 -1301 0
1300 -323 1301 0
-1300 323 1301 0
-1301 0
128 129 -1302 0
-128 -129 -1302 0
128 -129 1302 0
-128 129 1302 0
1302 131 -1303 0
-1302 -131 -1303 0
1302 -131 1303 0
-1302 131 1303 0
1303 132 -1304 0
-1303 -132 -1304 0
1303 -132 1304 0
-1303 132 1304 0
1304 294 -1305 0
-1304 -294 -1305 0
1304 -294 1305 0
-1304 294 1305 0
1305 306 -1306 0
-1305 -306 -1306 0
1305 -306 1306 0
-1305 306 1306 0
1306 312 -1307 0
-1306 -312 -1307 0
1306 -312 1307 0
-1306 312 1307 0
1307 324 -1308 0
-1307 -324 -1308 0
1307 -324 1308 0
-1307 324 1308 0
-1308 0
129 130 -1309 0
-129 -130 -1309 0
129 -130 1309 0
-129 130 1309 0
1309 132 -1310 0
-1309 -132 -1310 0
1309 -132 1310 0
-1309 132 1310 0
1310 133 -1311 0
-1310 -133 -1311 0
1310 -133 1311 0
-1310 133 1311 0
1311 295 -1312 0
-1311 -295 -1312 0
1311 -295 1312 0
-1311 295 1312 0
1312 307 -1313 0
-1312 -307 -1313 0
1312 -307 1313 0
-1312 307 1313 0
1313 313 -1314 0
-1313 -313 -1314 0
1313 -313 1314 0
-1313 313 1314 0
1314 325 -1315 0
-1314 -325 -1315 0
1314 -325 1315 0
-1314 325 1315 0
-1315 0
130 131 -1316 0
-130 -131 -1316 0
130 -131 1316 0
-130 131 1316 0
1316 133 -1317 0
-1316 -133 -1317 0
1316 -133 1317 0
-1316 133 1317 0
1317 134 -1318 0
-1317 -134 -1318 0
1317 -134 1318 0
-1317 134 1318 0
1318 296 -1319 0
-1318 -296 -1319 0
1318 -296 1319 0
-1318 296 1319 0
1319 308 -1320 0
-1319 -308 -1320 0
1319 -308 1320 0
-1319 308 1320 0
1320 314 -1321 0
-1320 -314 -1321 0
1320 -314 1321 0
-1320 314 1321 0
1321 326 -1322 0
-1321 -326 -1322 0
1321 -326 1322 0
-1321 326 1322 0
-1322 0
131 132 -1323 0
-131 -132 -1323 0
131 -132 1323 0
-131 132 1323 0
1323 134 -1324 0
-1323 -134 -1324 0
1323 -134 1324 0
-1323 134 1324 0
1324 135 -1325 0
-1324 -135 -1325 0
1324 -135 1325 0
-1324 135 1325 0
1325 297 -1326 0
-1325 -297 -1326 0
1325 -297 1326 0
-1325 297 1326 0
1326 309 -1327 0
-1326 -309 -1327 0
1326 -309 1327 0
-1326 309 1327 0
1327 315 -1328 0
-1327 -315 -1328 0
1327 -315 1328 0
-1327 315 1328 0
1328 327 -1329 0
-1328 -327 -1329 0
1328 -327 1329 0
-1328 327 1329 0
-1329 0
132 133 -1330 0
-132 -133 -1330 0
132 -133 1330 0
-132 133 1330 0
1330 135 -1331 0
-1330 -135 -1331 0
1330 -135 1331 0
-1330 135 1331 0
1331 136 -1332 0
-1331 -136 -1332 0
1331 -136 1332 0
-1331 136 1332 0
1332 298 -1333 0
-1332 -298 -1333 0
1332 -298 1333 0
-1332 298 1333 0
1333 310 -1334 0
-1333 -310 -1334 0
1333 -310 1334 0
-1333 310 1334 0
1334 316 -1335 0
-1334 -316 -1335 0
1334 -316 1335 0
-1334 316 1335 0
1335 328 -1336 0
-1335 -328 -1336 0
1335 -328 1336 0
-1335 328 1336 0
-1336 0
133 134 -1337 0
-133 -134 -1337 0
133 -134 1337 0
-133 134 1337 0
1337 136 -1338 0
-1337 -136 -1338 0
1337 -136 1338 0
-1337 136 1338 0
1338 137 -1339 0
-1338 -137 -1339 0
1338 -137 1339 0
-1338 137 1339 0
1339 299 -1340 0
-1339 -299 -1340 0
1339 -299 1340 0
-1339 299 1340 0
1340 311 -1341 0
-1340 -311 -1341 0
1340 -311 1341 0
-1340 311 1341 0
1341 317 -1342 0
-1341 -317 -1342 0
1341 -317 1342 0
-1341 317 1342 0
1342 329 -1343 0
-1342 -329 -1343 0
1342 -329 1343 0
-1342 329 1343 0
-1343 0
134 135 -1344 0
-134 -135 -1344 0
134 -135 1344 0
-134 135 1344 0
1344 137 -1345 0
-1344 -137 -1345 0
1344 -137 1345 0
-1344 137 1345 0
1345 138 -1346 0
-1345 -138 -1346 0
1345 -138 1346 0
-1345 138 1346 0
1346 300 -1347 0
-1346 -300 -1347 0
1346 -300 1347 0
-1346 300 1347 0
1347 312 -1348 0
-1347 -312 -1348 0
1347 -312 1348 0
-1347 312 1348 0
1348 318 -1349 0
-1348 -318 -1349 0
1348 -318 1349 0
-1348 318 1349 0
1349 330 -1350 0
-1349 -330 -1350 0
1349 -330 1350 0
-1349 330 1350 0
-1350 0
135 136 -1351 0
-135 -136 -1351 0
135 -136 1351 0
-135 136 1351 0
1351 138 -1352 0
-1351 -138 -1352 0
1351 -138 1352 0
-1351 138 1352 0
1352 139 -1353 0
-1352 -139 -1353 0
1352 -139 1353 0
-1352 139 1353 0
1353 301 -1354 0
-1353 -301 -1354 0
1353 -301 1354 0
-1353 301 1354 0
1354 313 -1355 0
-1354 -313 -1355 0
1354 -313 1355 0
-1354 313 1355 0
1355 319 -1356 0
-1355 -319 -1356 0
1355 -319 1356 0
-1355 319 1356 0
1356 331 -1357 0
-1356 -331 -1357 0
1356 -331 1357 0
-1356 331 1357 0
-1357 0
136 137 -1358 0
-136 -137 -1358 0
136 -137 1358 0
-136 137 1358 0
1358 139 -1359 0
-1358 -139 -1359 0
1358 -139 1359 0
-1358 139 1359 0
1359 140 -1360 0
-1359 -140 -1360 0
1359 -140 1360 0
-1359 140 1360 0
1360 302 -1361 0
-1360 -302 -1361 0
1360 -302 1361 0
-1360 302 1361 0
1361 314 -1362 0
-1361 -314 -1362 0
1361 -314 1362 0
-1361 314 1362 0
1362 320 -1363 0
-1362 -320 -1363 0
1362 -320 1363 0
-1362 320 1363 0
1363 332 -1364 0
-1363 -332 -1364 0
1363 -332 1364 0
-1363 332 1364 0
-1364 0
137 138 -1365 0
-137 -138 -1365 0
137 -138 1365 0
-137 138 1365 0
1365 140 -1366 0
-1365 -140 -1366 0
1365 -140 1366 0
-1365 140 1366 0
1366 141 -1367 0
-1366 -141 -1367 0
1366 -141 1367 0
-1366 141 1367 0
1367 303 -1368 0
-1367 -303 -1368 0
1367 -303 1368 0
-1367 303 1368 0
1368 315 -1369 0
-1368 -315 -1369 0
1368 -315 1369 0
-1368 315 1369 0
1369 321 -1370 0
-1369 -321 -1370 0
1369 -321 1370 0
-1369 321 1370 0
1370 333 -1371 0
-1370 -333 -1371 0
1370 -333 1371 0
-1370 333 1371 0
-1371 0
138 139 -1372 0
-138 -139 -1372 0
138 -139 1372 0
-138 139 1372 0
1372 141 -1373 0
-1372 -141 -1373 0
1372 -141 1373 0
-1372 141 1373 0
1373 142 -1374 0
-1373 -142 -1374 0
1373 -142 1374 0
-1373 142 1374 0
1374 304 -1375 0
-1374 -304 -1375 0
1374 -304 1375 0
-1374 304 1375 0
1375 316 -1376 0
-1375 -316 -1376 0
1375 -316 1376 0
-1375 316 1376 0
1376 322 -1377 0
-1376 -322 -1377 0
1376 -322 1377 0
-1376 322 1377 0
1377 334 -1378 0
-1377 -334 -1378 0
1377 -334 1378 0
-1377 334 1378 0
-1378 0
139 140 -1379 0
-139 -140 -1379 0
139 -140 1379 0
-139 140 1379 0
1379 142 -1380 0
-1379 -142 -1380 0
1379 -142 1380 0
-1379 142 1380 0
1380 143 -1381 0
-1380 -143 -1381 0
1380 -143 1381 0
-1380 143 1381 0
1381 305 -1382 0
-1381 -305 -1382 0
1381 -305 1382 0
-1381 305 1382 0
1382 317 -1383 0
-1382 -317 -1383 0
1382 -317 1383 0
-1382 317 1383 0
1383 323 -1384 0
-1383 -323 -1384 0
1383 -323 1384 0
-1383 323 1384 0
1384 335 -1385 0
-1384 -335 -1385 0
1384 -335 1385 0
-1384 335 1385 0
-1385 0
140 141 -1386 0
-140 -141 -1386 0
140 -141 1386 0
-140 141 1386 0
1386 143 -1387 0
-1386 -143 -1387 0
1386 -143 1387 0
-1386 143 1387 0
1387 144 -1388 0
-1387 -144 -1388 0
1387 -144 1388 0
-1387 144 1388 0
1388 306 -1389 0
-1388 -306 -1389 0
1388 -306 1389 0
-1388 306 1389 0
1389 318 -1390 0
-1389 -318 -1390 0
1389 -318 1390 0
-1389 318 1390 0
1390 324 -1391 0
-1390 -324 -1391 0
1390 -324 1391 0
-1390 324 1391 0
1391 336 -1392 0
-1391 -336 -1392 0
1391 -336 1392 0
-1391 336 1392 0
-1392 0
141 142 -1393 0
-141 -142 -1393 0
141 -142 1393 0
-141 142 1393 0
1393 144 -1394 0
-1393 -144 -1394 0
1393 -144 1394 0
-1393 144 1394 0
1394 145 -1395 0
-1394 -145 -1395 0
1394 -145 1395 0
-1394 145 1395 0
1395 307 -1396 0
-1395 -307 -1396 0
1395 -307 1396 0
-1395 307 1396 0
1396 319 -1397 0
-1396 -319 -1397 0
1396 -319 1397 0
-1396 319 1397 0
1397 325 -1398 0
-1397 -325 -1398 0
1397 -325 1398 0
-1397 325 1398 0
1398 337 -1399 0
-1398 -337 -1399 0
1398 -337 1399 0
-1398 337 1399 0
-1399 0
142 143 -1400 0
-142 -143 -1400 0
142 -143 1400 0
-142 143 1400 0
1400 145 -1401 0
-1400 -145 -1401 0
1400 -145 1401 0
-1400 145 1401 0
1401 146 -1402 0
-1401 -146 -1402 0
1401 -146 1402 0
-1401 146 1402 0
1402 308 -1403 0
-1402 -308 -1403 0
1402 -308 1403 0
-1402 308 1403 0
1403 320 -1404 0
-1403 -320 -1404 0
1403 -320 1404 0
-1403 320 1404 0
1404 326 -1405 0
-1404 -326 -1405 0
1404 -326 1405 0
-1404 326 1405 0
1405 338 -1406 0
-1405 -338 -1406 0
1405 -338 1406 0
-1405 338 1406 0
-1406 0
143 144 -1407 0
-143 -144 -1407 0
143 -144 1407 0
-143 144 1407 0
1407 146 -1408 0
-1407 -146 -1408 0
1407 -146 1408 0
-1407 146 1408 0
1408 147 -1409 0
-1408 -147 -1409 0
1408 -147 1409 0
-1408 147 1409 0
1409 309 -1410 0
-1409 -309 -1410 0
1409 -309 1410 0
-1409 309 1410 0
1410 321 -1411 0
-1410 -321 -1411 0
1410 -321 1411 0
-1410 321 1411 0
1411 327 -1412 0
-1411 -327 -1412 0
1411 -327 1412 0
-1411 327 1412 0
1412 339 -1413 0
-1412 -339 -1413 0
1412 -339 1413 0
-1412 339 1413 0
-1413 0
144 145 -1414 0
-144 -145 -1414 0
144 -145 1414 0
-144 145 1414 0
1414 147 -1415 0
-1414 -147 -1415 0
1414 -147 1415 0
-1414 147 1415 0
1415 148 -1416 0
-1415 -148 -1416 0
1415 -148 1416 0
-1415 148 1416 0
1416 310 -1417 0
-1416 -310 -1417 0
1416 -310 1417 0
-1416 310 1417 0
1417 322 -1418 0
-1417 -322 -1418 0
1417 -322 1418 0
-1417 322 1418 0
1418 328 -1419 0
-1418 -328 -1419 0
1418 -328 1419 0
-1418 328 1419 0
1419 340 -1420 0
-1419 -340 -1420 0
1419 -340 1420 0
-1419 340 1420 0
-1420 0
145 146 -1421 0
-145 -146 -1421 0
145 -146 1421 0
-145 146 1421 0
1421 148 -1422 0
-1421 -148 -1422 0
1421 -148 1422 0
-1421 148 1422 0
1422 149 -1423 0
-1422 -149 -1423 0
1422 -149 1423 0
-1422 149 1423 0
1423 311 -1424 0
-1423 -311 -1424 0
1423 -311 1424 0
-1423 311 1424 0
1424 323 -1425 0
-1424 -323 -1425 0
1424 -323 1425 0
-1424 323 1425 0
1425 329 -1426 0
-1425 -329 -1426 0
1425 -329 1426 0
-1425 329 1426 0
1426 341 -1427 0
-1426 -341 -1427 0
1426 -341 1427 0
-1426 341 1427 0
-1427 0
146 147 -1428 0
-146 -147 -1428 0
146 -147 1428 0
-146 147 1428 0
1428 149 -1429 0
-1428 -149 -1429 0
1428 -149 1429 0
-1428 149 1429 0
1429 150 -1430 0
-1429 -150 -1430 0
1429 -150 1430 0
-1429 150 1430 0
1430 312 -1431 0
-1430 -312 -1431 0
1430 -312 1431 0
-1430 312 1431 0
1431 324 -1432 0
-1431 -324 -1432 0
1431 -324 1432 0
-1431 324 1432 0
1432 330 -1433 0
-1432 -330 -1433 0
1432 -330 1433 0
-1432 330 1433 0
1433 342 -1434 0
-1433 -342 -1434 0
1433 -342 1434 0
-1433 342 1434 0
-1434 0
147 148 -1435 0
-147 -148 -1435 0
147 -148 1435 0
-147 148 1435 0
1435 150 -1436 0
-1435 -150 -1436 0
1435 -150 1436 0
-1435 150 1436 0
1436 151 -1437 0
-1436 -151 -1437 0
1436 -151 1437 0
-1436 151 1437 0
1437 313 -1438 0
-1437 -313 -1438 0
1437 -313 1438 0
-1437 313 1438 0
1438 325 -1439 0
-1438 -325 -1439 0
1438 -325 1439 0
-1438 325 1439 0
1439 331 -1440 0
-1439 -331 -1440 0
1439 -331 1440 0
-1439 331 1440 0
1440 343 -1441 0
-1440 -343 -1441 0
1440 -343 1441 0
-1440 343 1441 0
-1441 0
148 149 -1442 0
-148 -149 -1442 0
148 -149 1442 0
-148 149 1442 0
1442 151 -1443 0
-1442 -151 -1443 0
1442 -151 1443 0
-1442 151 1443 0
1443 152 -1444 0
-1443 -152 -1444 0
1443 -152 1444 0
-1443 152 1444 0
1444 314 -1445 0
-1444 -314 -1445 0
1444 -314 1445 0
-1444 314 1445 0
1445 326 -1446 0
-1445 -326 -1446 0
1445 -326 1446 0
-1445 326 1446 0
1446 332 -1447 0
-1446 -332 -1447 0
1446 -332 1447 0
-1446 332 1447 0
1447 344 -1448 0
-1447 -344 -1448 0
1447 -344 1448 0
-1447 344 1448 0
-1448 0
149 150 -1449 0
-149 -150 -1449 0
149 -150 1449 0
-149 150 1449 0
1449 152 -1450 0
-1449 -152 -1450 0
1449 -152 1450 0
-1449 152 1450 0
1450 153 -1451 0
-1450 -153 -1451 0
1450 -153 1451 0
-1450 153 1451 0
1451 315 -1452 0
-1451 -315 -1452 0
1451 -315 1452 0
-1451 315 1452 0
1452 327 -1453 0
-1452 -327 -1453 0
1452 -327 1453 0
-1452 327 1453 0
1453 333 -1454 0
-1453 -333 -1454 0
1453 -333 1454 0
-1453 333 1454 0
1454 345 -1455 0
-1454 -345 -1455 0
1454 -345 1455 0
-1454 345 1455 0
-1455 0
150 151 -1456 0
-150 -151 -1456 0
150 -151 1456 0
-150 151 1456 0
1456 153 -1457 0
-1456 -153 -1457 0
1456 -153 1457 0
-1456 153 1457 0
1457 154 -1458 0
-1457 -154 -1458 0
1457 -154 1458 0
-1457 154 1458 0
1458 316 -1459 0
-1458 -316 -1459 0
1458 -316 1459 0
-1458 316 1459 0
1459 328 -1460 0
-1459 -328 -1460 0
1459 -328 1460 0
-1459 328 1460 0
1460 334 -1461 0
-1460 -334 -1461 0
1460 -334 1461 0
-1460 334 1461 0
1461 346 -1462 0
-1461 -346 -1462 0
1461 -346 1462 0
-1461 346 1462 0
-1462 0
151 152 -1463 0
-151 -152 -1463 0
151 -152 1463 0
-151 152 1463 0
1463 154 -1464 0
-1463 -154 -1464 0
1463 -154 1464 0
-1463 154 1464 0
1464 155 -1465 0
-1464 -155 -1465 0
1464 -155 1465 0
-1464 155 1465 0
1465 317 -1466 0
-1465 -317 -1466 0
1465 -317 1466 0
-1465 317 1466 0
1466 329 -1467 0
-1466 -329 -1467 0
1466 -329 1467 0
-1466 329 1467 0
1467 335 -1468 0
-1467 -335 -1468 0
1467 -335 1468 0
-1467 335 1468 0
1468 347 -1469 0
-1468 -347 -1469 0
1468 -347 1469 0
-1468 347 1469 0
-1469 0
152 153 -1470 0
-152 -153 -1470 0
152 -153 1470 0
-152 153 1470 0
1470 155 -1471 0
-1470 -155 -1471 0
1470 -155 1471 0
-1470 155 1471 0
1471 156 -1472 0
-1471 -156 -1472 0
1471 -156 1472 0
-1471 156 1472 0
1472 318 -1473 0
-1472 -318 -1473 0
1472 -318 1473 0
-1472 318 1473 0
1473 330 -1474 0
-1473 -330 -1474 0
1473 -330 1474 0
-1473 330 1474 0
1474 336 -1475 0
-1474 -336 -1475 0
1474 -336 1475 0
-1474 336 1475 0
1475 348 -1476 0
-1475 -348 -1476 0
1475 -348 1476 0
-1475 348 1476 0
-1476 0
153 154 -1477 0
-153 -154 -1477 0
153 -154 1477 0
-153 154 1477 0
1477 156 -1478 0
-1477 -156 -1478 0
1477 -156 1478 0
-1477 156 1478 0
1478 157 -1479 0
-1478 -157 -1479 0
1478 -157 1479 0
-1478 157 1479 0
1479 319 -1480 0
-1479 -319 -1480 0
1479 -319 1480 0
-1479 319 1480 0
1480 331 -1481 0
-1480 -331 -1481 0
1480 -331 1481 0
-1480 331 1481 0
1481 337 -1482 0
-1481 -337 -1482 0
1481 -337 1482 0
-1481 337 1482 0
1482 349 -1483 0
-1482 -349 -1483 0
1482 -349 1483 0
-1482 349 1483 0
-1483 0
154 155 -1484 0
-154 -155 -1484 0
154 -155 1484 0
-154 155 1484 0
1484 157 -1485 0
-1484 -157 -1485 0
1484 -157 1485 0
-1484 157 1485 0
1485 158 -1486 0
-1485 -158 -1486 0
1485 -158 1486 0
-1485 158 1486 0
1486 320 -1487 0
-1486 -320 -1487 0
1486 -320 1487 0
-1486 320 1487 0
1487 332 -1488 0
-1487 -332 -1488 0
1487 -332 1488 0
-1487 332 1488 0
1488 338 -1489 0
-1488 -338 -1489 0
1488 -338 1489 0
-1488 338 1489 0
1489 350 -1490 0
-1489 -350 -1490 0
1489 -350 1490 0
-1489 350 1490 0
-1490 0
155 156 -1491 0
-155 -156 -1491 0
155 -156 1491 0
-155 156 1491 0
1491 158 -1492 0
-1491 -158 -1492 0
1491 -158 1492 0
-1491 158 1492 0
1492 159 -1493 0
-1492 -159 -1493 0
1492 -159 1493 0
-1492 159 1493 0
1493 321 -1494 0
-1493 -321 -1494 0
1493 -321 1494 0
-1493 321 1494 0
1494 333 -1495 0
-1494 -333 -1495 0
1494 -333 1495 0
-1494 333 1495 0
1495 339 -1496 0
-1495 -339 -1496 0
1495 -339 1496 0
-1495 339 1496 0
1496 351 -1497 0
-1496 -351 -1497 0
1496 -351 1497 0
-1496 351 1497 0
-1497 0
156 157 -1498 0
-156 -157 -1498 0
156 -157 1498 0
-156 157 1498 0
1498 159 -1499 0
-1498 -159 -1499 0
1498 -159 1499 0
-1498 159 1499 0
1499 160 -1500 0
-1499 -160 -1500 0
1499 -160 1500 0
-1499 160 1500 0
1500 322 -1501 0
-1500 -322 -1501 0
1500 -322 1501 0
-1500 322 1501 0
1501 334 -1502 0
-1501 -334 -1502 0
1501 -334 1502 0
-1501 334 1502 0
1502 340 -1503 0
-1502 -340 -1503 0
1502 -340 1503 0
-1502 340 1503 0
1503 352 -1504 0
-1503 -352 -1504 0
1503 -352 1504 0
-1503 352 1504 0
-1504 0
157 158 -1505 0
-157 -158 -1505 0
157 -158 1505 0
-157 158 1505 0
1505 160 -1506 0
-1505 -160 -1506 0
1505 -160 1506 0
-1505 160 1506 0
1506 161 -1507 0
-1506 -161 -1507 0
1506 -161 1507 0
-1506 161 1507 0
1507 323 -1508 0
-1507 -323 -1508 0
1507 -323 1508 0
-1507 323 1508 0
1508 335 -1509 0
-1508 -335 -1509 0
1508 -335 1509 0
-1508 335 1509 0
1509 341 -1510 0
-1509 -341 -1510 0
1509 -341 1510 0
-1509 341 1510 0
1510 353 -1511 0
-1510 -353 -1511 0
1510 -353 1511 0
-1510 353 1511 0
-1511 0
158 159 -1512 0
-158 -159 -1512 0
158 -159 1512 0
-158 159 1512 0
1512 161 -1513 0
-1512 -161 -1513 0
1512 -161 1513 0
-1512 161 1513 0
1513 162 -1514 0
-1513 -162 -1514 0
1513 -162 1514 0
-1513 162 1514 0
1514 324 -1515 0
-1514 -324 -1515 0
1514 -324 1515 0
-1514 324 1515 0
1515 336 -1516 0
-1515 -336 -1516 0
1515 -336 1516 0
-1515 336 1516 0
1516 342 -1517 0
-1516 -342 -1517 0
1516 -342 1517 0
-1516 342 1517 0
1517 354 -1518 0
-1517 -354 -1518 0
1517 -354 1518 0
-1517 354 1518 0
-1518 0
159 160 -1519 0
-159 -160 -1519 0
159 -160 1519 0
-159 160 1519 0
1519 162 -1520 0
-1519 -162 -1520 0
1519 -162 1520 0
-1519 162 1520 0
1520 163 -1521 0
-1520 -163 -1521 0
1520 -163 1521 0
-1520 163 1521 0
1521 325 -1522 0
-1521 -325 -1522 0
1521 -325 1522 0
-1521 325 1522 0
1522 337 -1523 0
-1522 -337 -1523 0
1522 -337 1523 0
-1522 337 1523 0
1523 343 -1524 0
-1523 -343 -1524 0
1523 -343 1524 0
-1523 343 1524 0
1524 355 -1525 0
-1524 -355 -1525 0
1524 -355 1525 0
-1524 355 1525 0
-1525 0
160 161 -1526 0
-160 -161 -1526 0
160 -161 1526 0
-160 161 1526 0
1526 163 -1527 0
-1526 -163 -1527 0
1526 -163 1527 0
-1526 163 1527 0
1527 164 -1528 0
-1527 -164 -1528 0
1527 -164 1528 0
-1527 164 1528 0
1528 326 -1529 0
-1528 -326 -1529 0
1528 -326 1529 0
-1528 326 1529 0
1529 338 -1530 0
-1529 -338 -1530 0
1529 -338 1530 0
-1529 338 1530 0
1530 344 -1531 0
-1530 -344 -1531 0
1530 -344 1531 0
-1530 344 1531 0
1531 356 -1532 0
-1531 -356 -1532 0
1531 -356 1532 0
-1531 356 1532 0
-1532 0
161 162 -1533 0
-161 -162 -1533 0
161 -162 1533 0
-161 162 1533 0
1533 164 -1534 0
-1533 -164 -1534 0
1533 -164 1534 0
-1533 164 1534 0
1534 165 -1535 0
-1534 -165 -1535 0
1534 -165 1535 0
-1534 165 1535 0
1535 327 -1536 0
-1535 -327 -1536 0
1535 -327 1536 0
-1535 327 1536 0
1536 339 -1537 0
-1536 -339 -1537 0
1536 -339 1537 0
-1536 339 1537 0
1537 345 -1538 0
-1537 -345 -1538 0
1537 -345 1538 0
-1537 345 1538 0
1538 357 -1539 0
-1538 -357 -1539 0
1538 -357 1539 0
-1538 357 1539 0
-1539 0
162 163 -1540 0
-162 -163 -1540 0
162 -163 1540 0
-162 163 1540 0
1540 165 -1541 0
-1540 -165 -1541 0
1540 -165 1541 0
-1540 165 1541 0
1541 166 -1542 0
-1541 -166 -1542 0
1541 -166 1542 0
-1541 166 1542 0
1542 328 -1543 0
-1542 -328 -1543 0
1542 -328 1543 0
-1542 328 1543 0
1543 340 -1544 0
-1543 -340 -1544 0
1543 -340 1544 0
-1543 340 1544 0
1544 346 -1545 0
-1544 -346 -1545 0
1544 -346 1545 0
-1544 346 1545 0
1545 358 -1546 0
-1545 -358 -1546 0
1545 -358 1546 0
-1545 358 1546 0
-1546 0
163 164 -1547 0
-163 -164 -1547 0
163 -164 1547 0
-163 164 1547 0
1547 166 -1548 0
-1547 -166 -1548 0
1547 -166 1548 0
-1547 166 1548 0
1548 167 -1549 0
-1548 -167 -1549 0
1548 -167 1549 0
-1548 167 1549 0
1549 329 -1550 0
-1549 -329 -1550 0
1549 -329 1550 0
-1549 329 1550 0
1550 341 -1551 0
-1550 -341 -1551 0
1550 -341 1551 0
-1550 341 1551 0
1551 347 -1552 0
-1551 -347 -1552 0
1551 -347 1552 0
-1551 347 1552 0
1552 359 -1553 0
-1552 -359 -1553 0
1552 -359 1553 0
-1552 359 1553 0
-1553 0
164 165 -1554 0
-164 -165 -1554 0
164 -165 1554 0
-164 165 1554 0
1554 167 -1555 0
-1554 -167 -1555 0
1554 -167 1555 0
-1554 167 1555 0
1555 168 -1556 0
-1555 -168 -1556 0
1555 -168 1556 0
-1555 168 1556 0
1556 330 -1557 0
-1556 -330 -1557 0
1556 -330 1557 0
-1556 330 1557 0
1557 342 -1558 0
-1557 -342 -1558 0
1557 -342 1558 0
-1557 342 1558 0
1558 348 -1559 0
-1558 -348 -1559 0
1558 -348 1559 0
-1558 348 1559 0
1559 360 -1560 0
-1559 -360 -1560 0
1559 -360 1560 0
-1559 360 1560 0
-1560 0
165 166 -1561 0
-165 -166 -1561 0
165 -166 1561 0
-165 166 1561 0
1561 168 -1562 0
-1561 -168 -1562 0
1561 -168 1562 0
-1561 168 1562 0
1562 169 -1563 0
-1562 -169 -1563 0
1562 -169 1563 0
-1562 169 1563 0
1563 331 -1564 0
-1563 -331 -1564 0
1563 -331 1564 0
-1563 331 1564 0
1564 343 -1565 0
-1564 -343 -1565 0
1564 -343 1565 0
-1564 343 1565 0
1565 349 -1566 0
-1565 -349 -1566 0
1565 -349 1566 0
-1565 349 1566 0
1566 361 -1567 0
-1566 -361 -1567 0
1566 -361 1567 0
-1566 361 1567 0
-1567 0
166 167 -1568 0
-166 -167 -1568 0
166 -167 1568 0
-166 167 1568 0
1568 169 -1569 0
-1568 -169 -1569 0
1568 -169 1569 0
-1568 169 1569 0
1569 170 -1570 0
-1569 -170 -1570 0
1569 -170 1570 0
-1569 170 1570 0
1570 332 -1571 0
-1570 -332 -1571 0
1570 -332 1571 0
-1570 332 1571 0
1571 344 -1572 0
-1571 -344 -1572 0
1571 -344 1572 0
-1571 344 1572 0
1572 350 -1573 0
-1572 -350 -1573 0
1572 -350 1573 0
-1572 350 1573 0
1573 362 -1574 0
-1573 -362 -1574 0
1573 -362 1574 0
-1573 362 1574 0
-1574 0
167 168 -1575 0
-167 -168 -1575 0
167 -168 1575 0
-167 168 1575 0
1575 170 -1576 0
-1575 -170 -1576 0
1575 -170 1576 0
-1575 170 1576 0
1576 171 -1577 0
-1576 -171 -1577 0
1576 -171 1577 0
-1576 171 1577 0
1577 333 -1578 0
-1577 -333 -1578 0
1577 -333 1578 0
-1577 333 1578 0
1578 345 -1579 0
-1578 -345 -1579 0
1578 -345 1579 0
-1578 345 1579 0
1579 351 -1580 0
-1579 -351 -1580 0
1579 -351 1580 0
-1579 351 1580 0
1580 363 -1581 0
-1580 -363 -1581 0
1580 -363 1581 0
-1580 363 1581 0
-1581 0
168 169 -1582 0
-168 -169 -1582 0
168 -169 1582 0
-168 169 1582 0
1582 171 -1583 0
-1582 -171 -1583 0
1582 -171 1583 0
-1582 171 1583 0
1583 172 -1584 0
-1583 -172 -1584 0
1583 -172 1584 0
-1583 172 1584 0
1584 334 -1585 0
-1584 -334 -1585 0
1584 -334 1585 0
-1584 334 1585 0
1585 346 -1586 0
-1585 -346 -1586 0
1585 -346 1586 0
-1585 346 1586 0
1586 352 -1587 0
-1586 -352 -1587 0
1586 -352 1587 0
-1586 352 1587 0
1587 364 -1588 0
-1587 -364 -1588 0
1587 -364 1588 0
-1587 364 1588 0
-1588 0
169 170 -1589 0
-169 -170 -1589 0
169 -170 1589 0
-169 170 1589 0
1589 172 -1590 0
-1589 -172 -1590 0
1589 -172 1590 0
-1589 172 1590 0
1590 173 -1591 0
-1590 -173 -1591 0
1590 -173 1591 0
-1590 173 1591 0
1591 335 -1592 0
-1591 -335 -1592 0
1591 -335 1592 0
-1591 335 1592 0
1592 347 -1593 0
-1592 -347 -1593 0
1592 -347 1593 0
-1592 347 1593 0
1593 353 -1594 0
-1593 -353 -1594 0
1593 -353 1594 0
-1593 353 1594 0
1594 365 -1595 0
-1594 -365 -1595 0
1594 -365 1595 0
-1594 365 1595 0
-1595 0
170 171 -1596 0
-170 -171 -1596 0
170 -171 1596 0
-170 171 1596 0
1596 173 -1597 0
-1596 -173 -1597 0
1596 -173 1597 0
-1596 173 1597 0
1597 174 -1598 0
-1597 -174 -1598 0
1597 -174 1598 0
-1597 174 1598 0
1598 336 -1599 0
-1598 -336 -1599 0
1598 -336 1599 0
-1598 336 1599 0
1599 348 -1600 0
-1599 -348 -1600 0
1599 -348 1600 0
-1599 348 1600 0
1600 354 -1601 0
-1600 -354 -1601 0
1600 -354 1601 0
-1600 354 1601 0
1601 366 -1602 0
-1601 -366 -1602 0
1601 -366 1602 0
-1601 366 1602 0
-1602 0
171 172 -1603 0
-171 -172 -1603 0
171 -172 1603 0
-171 172 1603 0
1603 174 -1604 0
-1603 -174 -1604 0
1603 -174 1604 0
-1603 174 1604 0
1604 175 -1605 0
-1604 -175 -1605 0
1604 -175 1605 0
-1604 175 1605 0
1605 337 -1606 0
-1605 -337 -1606 0
1605 -337 1606 0
-1605 337 1606 0
1606 349 -1607 0
-1606 -349 -1607 0
1606 -349 1607 0
-1606 349 1607 0
1607 355 -1608 0
-1607 -355 -1608 0
1607 -355 1608 0
-1607 355 1608 0
1608 367 -1609 0
-1608 -367 -1609 0
1608 -367 1609 0
-1608 367 1609 0
-1609 0
172 173 -1610 0
-172 -173 -1610 0
172 -173 1610 0
-172 173 1610 0
1610 175 -1611 0
-1610 -175 -1611 0
1610 -175 1611 0
-1610 175 1611 0
1611 176 -1612 0
-1611 -176 -1612 0
1611 -176 1612 0
-1611 176 1612 0
1612 338 -1613 0
-1612 -338 -1613 0
1612 -338 1613 0
-1612 338 1613 0
1613 350 -1614 0
-1613 -350 -1614 0
1613 -350 1614 0
-1613 350 1614 0
1614 356 -1615 0
-1614 -356 -1615 0
1614 -356 1615 0
-1614 356 1615 0
1615 368 -1616 0
-1615 -368 -1616 0
1615 -368 1616 0
-1615 368 1616 0
-1616 0
173 174 -1617 0
-173 -174 -1617 0
173 -174 1617 0
-173 174 1617 0
1617 176 -1618 0
-1617 -176 -1618 0
1617 -176 1618 0
-1617 176 1618 0
1618 177 -1619 0
-1618 -177 -1619 0
1618 -177 1619 0
-1618 177 1619 0
1619 339 -1620 0
-1619 -339 -1620 0
1619 -339 1620 0
-1619 339 1620 0
1620 351 -1621 0
-1620 -351 -1621 0
1620 -351 1621 0
-1620 351 1621 0
1621 357 -1622 0
-1621 -357 -1622 0
1621 -357 1622 0
-1621 357 1622 0
1622 369 -1623 0
-1622 -369 -1623 0
1622 -369 1623 0
-1622 369 1623 0
-1623 0
174 175 -1624 0
-174 -175 -1624 0
174 -175 1624 0
-174 175 1624 0
1624 177 -1625 0
-1624 -177 -1625 0
1624 -177 1625 0
-1624 177 1625 0
1625 178 -1626 0
-1625 -178 -1626 0
1625 -178 1626 0
-1625 178 1626 0
1626 340 -1627 0
-1626 -340 -1627 0
1626 -340 1627 0
-1626 340 1627 0
1627 352 -1628 0
-1627 -352 -1628 0
1627 -352 1628 0
-1627 352 1628 0
1628 358 -1629 0
-1628 -358 -1629 0
1628 -358 1629 0
-1628 358 1629 0
1629 370 -1630 0
-1629 -370 -1630 0
1629 -370 1630 0
-1629 370 1630 0
-1630 0
175 176 -1631 0
-175 -176 -1631 0
175 -176 1631 0
-175 176 1631 0
1631 178 -1632 0
-1631 -178 -1632 0
1631 -178 1632 0
-1631 178 1632 0
1632 179 -1633 0
-1632 -179 -1633 0
1632 -179 1633 0
-1632 179 1633 0
1633 341 -1634 0
-1633 -341 -1634 0
1633 -341 1634 0
-1633 341 1634 0
1634 353 -1635 0
-1634 -353 -1635 0
1634 -353 1635 0
-1634 353 1635 0
1635 359 -1636 0
-1635 -359 -1636 0
1635 -359 1636 0
-1635 359 1636 0
1636 371 -1637 0
-1636 -371 -1637 0
1636 -371 1637 0
-1636 371 1637 0
-1637 0
176 177 -1638 0
-176 -177 -1638 0
176 -177 1638 0
-176 177 1638 0
1638 179 -1639 0
-1638 -179 -1639 0
1638 -179 1639 0
-1638 179 1639 0
1639 180 -1640 0
-1639 -180 -1640 0
1639 -180 1640 0
-1639 180 1640 0
1640 342 -1641 0
-1640 -342 -1641 0
1640 -342 1641 0
-1640 342 1641 0
1641 354 -1642 0
-1641 -354 -1642 0
1641 -354 1642 0
-1641 354 1642 0
1642 360 -1643 0
-1642 -360 -1643 0
1642 -360 1643 0
-1642 360 1643 0
1643 372 -1644 0
-1643 -372 -1644 0
1643 -372 1644 0
-1643 372 1644 0
-1644 0
177 178 -1645 0
-177 -178 -1645 0
177 -178 1645 0
-177 178 1645 0
1645 180 -1646 0
-1645 -180 -1646 0
1645 -180 1646 0
-1645 180 1646 0
1646 181 -1647 0
-1646 -181 -1647 0
1646 -181 1647 0
-1646 181 1647 0
1647 343 -1648 0
-1647 -343 -1648 0
1647 -343 1648 0
-1647 343 1648 0
1648 355 -1649 0
-1648 -355 -1649 0
1648 -355 1649 0
-1648 355 1649 0
1649 361 -1650 0
-1649 -361 -1650 0
1649 -361 1650 0
-1649 361 1650 0
1650 373 -1651 0
-1650 -373 -1651 0
1650 -373 1651 0
-1650 373 1651 0
-1651 0
178 179 -1652 0
-178 -179 -1652 0
178 -179 1652 0
-178 179 1652 0
1652 181 -1653 0
-1652 -181 -1653 0
1652 -181 1653 0
-1652 181 1653 0
1653 182 -1654 0
-1653 -182 -1654 0
1653 -182 1654 0
-1653 182 1654 0
1654 344 -1655 0
-1654 -344 -1655 0
1654 -344 1655 0
-1654 344 1655 0
1655 356 -1656 0
-1655 -356 -1656 0
1655 -356 1656 0
-1655 356 1656 0
1656 362 -1657 0
-1656 -362 -1657 0
1656 -362 1657 0
-1656 362 1657 0
1657 374 -1658 0
-1657 -374 -1658 0
1657 -374 1658 0
-1657 374 1658 0
-1658 0
179 180 -1659 0
-179 -180 -1659 0
179 -180 1659 0
-179 180 1659 0
1659 182 -1660 0
-1659 -182 -1660 0
1659 -182 1660 0
-1659 182 1660 0
1660 183 -1661 0
-1660 -183 -1661 0
1660 -183 1661 0
-1660 183 1661 0
1661 345 -1662 0
-1661 -345 -1662 0
1661 -345 1662 0
-1661 345 1662 0
1662 357 -1663 0
-1662 -357 -1663 0
1662 -357 1663 0
-1662 357 1663 0
1663 363 -1664 0
-1663 -363 -1664 0
1663 -363 1664 0
-1663 363 1664 0
1664 375 -1665 0
-1664 -375 -1665 0
1664 -375 1665 0
-1664 375 1665 0
-1665 0
180 181 -1666 0
-180 -181 -1666 0
180 -181 1666 0
-180 181 1666 0
1666 183 -1667 0
-1666 -183 -1667 0
1666 -183 1667 0
-1666 183 1667 0
1667 184 -1668 0
-1667 -184 -1668 0
1667 -184 1668 0
-1667 184 1668 0
1668 346 -1669 0
-1668 -346 -1669 0
1668 -346 1669 0
-1668 346 1669 0
1669 358 -1670 0
-1669 -358 -1670 0
1669 -358 1670 0
-1669 358 1670 0
1670 364 -1671 0
-1670 -364 -1671 0
1670 -364 1671 0
-1670 364 1671 0
1671 376 -1672 0
-1671 -376 -1672 0
1671 -376 1672 0
-1671 376 1672 0
-1672 0
181 182 -1673 0
-181 -182 -1673 0
181 -182 1673 0
-181 182 1673 0
1673 184 -1674 0
-1673 -184 -1674 0
1673 -184 1674 0
-1673 184 1674 0
1674 185 -1675 0
-1674 -185 -1675 0
1674 -185 1675 0
-1674 185 1675 0
1675 347 -1676 0
-1675 -347 -1676 0
1675 -347 1676 0
-1675 347 1676 0
1676 359 -1677 0
-1676 -359 -1677 0
1676 -359 1677 0
-1676 359 1677 0
1677 365 -1678 0
-1677 -365 -1678 0
1677 -365 1678 0
-1677 365 1678 0
1678 377 -1679 0
-1678 -377 -1679 0
1678 -377 1679 0
-1678 377 1679 0
-1679 0
182 183 -1680 0
-182 -183 -1680 0
182 -183 1680 0
-182 183 1680 0
1680 185 -1681 0
-1680 -185 -1681 0
1680 -185 1681 0
-1680 185 1681 0
1681 186 -1682 0
-1681 -186 -1682 0
1681 -186 1682 0
-1681 186 1682 0
1682 348 -1683 0
-1682 -348 -1683 0
1682 -348 1683 0
-1682 348 1683 0
1683 360 -1684 0
-1683 -360 -1684 0
1683 -360 1684 0
-1683 360 1684 0
1684 366 -1685 0
-1684 -366 -1685 0
1684 -366 1685 0
-1684 366 1685 0
1685 378 -1686 0
-1685 -378 -1686 0
1685 -378 1686 0
-1685 378 1686 0
-1686 0
183 184 -1687 0
-183 -184 -1687 0
183 -184 1687 0
-183 184 1687 0
1687 186 -1688 0
-1687 -186 -1688 0
1687 -186 1688 0
-1687 186 1688 0
1688 187 -1689 0
-1688 -187 -1689 0
1688 -187 1689 0
-1688 187 1689 0
1689 349 -1690 0
-1689 -349 -1690 0
1689 -349 1690 0
-1689 349 1690 0
1690 361 -1691 0
-1690 -361 -1691 0
1690 -361 1691 0
-1690 361 1691 0
1691 367 -1692 0
-1691 -367 -1692 0
1691 -367 1692 0
-1691 367 1692 0
1692 379 -1693 0
-1692 -379 -1693 0
1692 -379 1693 0
-1692 379 1693 0
-1693 0
184 185 -1694 0
-184 -185 -1694 0
184 -185 1694 0
-184 185 1694 0
1694 187 -1695 0
-1694 -187 -1695 0
1694 -187 1695 0
-1694 187 1695 0
1695 188 -1696 0
-1695 -188 -1696 0
1695 -188 1696 0
-1695 188 1696 0
1696 350 -1697 0
-1696 -350 -1697 0
1696 -350 1697 0
-1696 350 1697 0
1697 362 -1698 0
-1697 -362 -1698 0
1697 -362 1698 0
-1697 362 1698 0
1698 368 -1699 0
-1698 -368 -1699 0
1698 -368 1699 0
-1698 368 1699 0
1699 380 -1700 0
-1699 -380 -1700 0
1699 -380 1700 0
-1699 380 1700 0
-1700 0
185 186 -1701 0
-185 -186 -1701 0
185 -186 1701 0
-185 186 1701 0
1701 188 -1702 0
-1701 -188 -1702 0
1701 -188 1702 0
-1701 188 1702 0
1702 189 -1703 0
-1702 -189 -1703 0
1702 -189 1703 0
-1702 189 1703 0
1703 351 -1704 0
-1703 -351 -1704 0
1703 -351 1704 0
-1703 351 1704 0
1704 363 -1705 0
-1704 -363 -1705 0
1704 -363 1705 0
-1704 363 1705 0
1705 369 -1706 0
-1705 -369 -1706 0
1705 -369 1706 0
-1705 369 1706 0
1706 381 -1707 0
-1706 -381 -1707 0
1706 -381 1707 0
-1706 381 1707 0
-1707 0
186 187 -1708 0
-186 -187 -1708 0
186 -187 1708 0
-186 187 1708 0
1708 189 -1709 0
-1708 -189 -1709 0
1708 -189 1709 0
-1708 189 1709 0
1709 190 -1710 0
-1709 -190 -1710 0
1709 -190 1710 0
-1709 190 1710 0
1710 352 -1711 0
-1710 -352 -1711 0
1710 -352 1711 0
-1710 352 1711 0
1711 364 -1712 0
-1711 -364 -1712 0
1711 -364 1712 0
-1711 364 1712 0
1712 370 -1713 0
-1712 -370 -1713 0
1712 -370 1713 0
-1712 370 1713 0
1713 382 -1714 0
-1713 -382 -1714 0
1713 -382 1714 0
-1713 382 1714 0
-1714 0
187 188 -1715 0
-187 -188 -1715 0
187 -188 1715 0
-187 188 1715 0
1715 190 -1716 0
-1715 -190 -1716 0
1715 -190 1716 0
-1715 190 1716 0
1716 191 -1717 0
-1716 -191 -1717 0
1716 -191 1717 0
-1716 191 1717 0
1717 353 -1718 0
-1717 -353 -1718 0
1717 -353 1718 0
-1717 353 1718 0
1718 365 -1719 0
-1718 -365 -1719 0
1718 -365 1719 0
-1718 365 1719 0
1719 371 -1720 0
-1719 -371 -1720 0
1719 -371 1720 0
-1719 371 1720 0
1720 383 -1721 0
-1720 -383 -1721 0
1720 -383 1721 0
-1720 383 1721 0
-1721 0
188 189 -1722 0
-188 -189 -1722 0
188 -189 1722 0
-188 189 1722 0
1722 191 -1723 0
-1722 -191 -1723 0
1722 -191 1723 0
-1722 191 1723 0
1723 192 -1724 0
-1723 -192 -1724 0
1723 -192 1724 0
-1723 192 1724 0
1724 354 -1725 0
-1724 -354 -1725 0
1724 -354 1725 0
-1724 354 1725 0
1725 366 -1726 0
-1725 -366 -1726 0
1725 -366 1726 0
-1725 366 1726 0
1726 372 -1727 0
-1726 -372 -1727 0
1726 -372 1727 0
-1726 372 1727 0
1727 384 -1728 0
-1727 -384 -1728 0
1727 -384 1728 0
-1727 384 1728 0
-1728 0
1 197 -1729 0
-1 -197 -1729 0
1 -197 1729 0
-1 197 1729 0
1729 198 -1730 0
-1729 -198 -1730 0
1729 -198 1730 0
-1729 198 1730 0
1730 199 -1731 0
-1730 -199 -1731 0
1730 -199 1731 0
-1730 199 1731 0
1731 203 -1732 0
-1731 -203 -1732 0
1731 -203 1732 0
-1731 203 1732 0
1732 204 -1733 0
-1732 -204 -1733 0
1732 -204 1733 0
-1732 204 1733 0
1733 205 -1734 0
-1733 -205 -1734 0
1733 -205 1734 0
-1733 205 1734 0
1734 209 -1735 0
-1734 -209 -1735 0
1734 -209 1735 0
-1734 209 1735 0
1735 210 -1736 0
-1735 -210 -1736 0
1735 -210 1736 0
-1735 210 1736 0
1736 211 -1737 0
-1736 -211 -1737 0
1736 -211 1737 0
-1736 211 1737 0
1737 215 -1738 0
-1737 -215 -1738 0
1737 -215 1738 0
-1737 215 1738 0
1738 216 -1739 0
-1738 -216 -1739 0
1738 -216 1739 0
-1738 216 1739 0
1739 217 -1740 0
-1739 -217 -1740 0
1739 -217 1740 0
-1739 217 1740 0
1740 221 -1741 0
-1740 -221 -1741 0
1740 -221 1741 0
-1740 221 1741 0
1741 222 -1742 0
-1741 -222 -1742 0
1741 -222 1742 0
-1741 222 1742 0
1742 223 -1743 0
-1742 -223 -1743 0
1742 -223 1743 0
-1742 223 1743 0
1743 227 -1744 0
-1743 -227 -1744 0
1743 -227 1744 0
-1743 227 1744 0
1744 228 -1745 0
-1744 -228 -1745 0
1744 -228 1745 0
-1744 228 1745 0
1745 229 -1746 0
-1745 -229 -1746 0
1745 -229 1746 0
-1745 229 1746 0
1746 233 -1747 0
-1746 -233 -1747 0
1746 -233 1747 0
-1746 233 1747 0
1747 234 -1748 0
-1747 -234 -1748 0
1747 -234 1748 0
-1747 234 1748 0
1748 235 -1749 0
-1748 -235 -1749 0
1748 -235 1749 0
-1748 235 1749 0
1749 239 -1750 0
-1749 -239 -1750 0
1749 -239 1750 0
-1749 239 1750 0
1750 240 -1751 0
-1750 -240 -1751 0
1750 -240 1751 0
-1750 240 1751 0
1751 241 -1752 0
-1751 -241 -1752 0
1751 -241 1752 0
-1751 241 1752 0
1752 245 -1753 0
-1752 -245 -1753 0
1752 -245 1753 0
-1752 245 1753 0
1753 246 -1754 0
-1753 -246 -1754 0
1753 -246 1754 0
-1753 246 1754 0
1754 247 -1755 0
-1754 -247 -1755 0
1754 -247 1755 0
-1754 247 1755 0
1755 251 -1756 0
-1755 -251 -1756 0
1755 -251 1756 0
-1755 251 1756 0
1756 252 -1757 0
-1756 -252 -1757 0
1756 -252 1757 0
-1756 252 1757 0
1757 253 -1758 0
-1757 -253 -1758 0
1757 -253 1758 0
-1757 253 1758 0
1758 257 -1759 0
-1758 -257 -1759 0
1758 -257 1759 0
-1758 257 1759 0
1759 258 -1760 0
-1759 -258 -1760 0
1759 -258 1760 0
-1759 258 1760 0
1760 259 -1761 0
-1760 -259 -1761 0
1760 -259 1761 0
-1760 259 1761 0
1761 263 -1762 0
-1761 -263 -1762 0
1761 -263 1762 0
-1761 263 1762 0
1762 264 -1763 0
-1762 -264 -1763 0
1762 -264 1763 0
-1762 264 1763 0
1763 265 -1764 0
-1763 -265 -1764 0
1763 -265 1764 0
-1763 265 1764 0
1764 269 -1765 0
-1764 -269 -1765 0
1764 -269 1765 0
-1764 269 1765 0
1765 270 -1766 0
-1765 -270 -1766 0
1765 -270 1766 0
-1765 270 1766 0
1766 271 -1767 0
-1766 -271 -1767 0
1766 -271 1767 0
-1766 271 1767 0
1767 275 -1768 0
-1767 -275 -1768 0
1767 -275 1768 0
-1767 275 1768 0
1768 276 -1769 0
-1768 -276 -1769 0
1768 -276 1769 0
-1768 276 1769 0
1769 277 -1770 0
-1769 -277 -1770 0
1769 -277 1770 0
-1769 277 1770 0
1770 281 -1771 0
-1770 -281 -1771 0
1770 -281 1771 0
-1770 281 1771 0
1771 282 -1772 0
-1771 -282 -1772 0
1771 -282 1772 0
-1771 282 1772 0
1772 283 -1773 0
-1772 -283 -1773 0
1772 -283 1773 0
-1772 283 1773 0
1773 287 -1774 0
-1773 -287 -1774 0
1773 -287 1774 0
-1773 287 1774 0
1774 288 -1775 0
-1774 -288 -1775 0
1774 -288 1775 0
-1774 288 1775 0
1775 289 -1776 0
-1775 -289 -1776 0
1775 -289 1776 0
-1775 289 1776 0
1776 293 -1777 0
-1776 -293 -1777 0
1776 -293 1777 0
-1776 293 1777 0
1777 294 -1778 0
-1777 -294 -1778 0
1777 -294 1778 0
-1777 294 1778 0
1778 295 -1779 0
-1778 -295 -1779 0
1778 -295 1779 0
-1778 295 1779 0
1779 299 -1780 0
-1779 -299 -1780 0
1779 -299 1780 0
-1779 299 1780 0
1780 300 -1781 0
-1780 -300 -1781 0
1780 -300 1781 0
-1780 300 1781 0
1781 301 -1782 0
-1781 -301 -1782 0
1781 -301 1782 0
-1781 301 1782 0
1782 305 -1783 0
-1782 -305 -1783 0
1782 -305 1783 0
-1782 305 1783 0
1783 306 -1784 0
-1783 -306 -1784 0
1783 -306 1784 0
-1783 306 1784 0
1784 307 -1785 0
-1784 -307 -1785 0
1784 -307 1785 0
-1784 307 1785 0
1785 311 -1786 0
-1785 -311 -1786 0
1785 -311 1786 0
-1785 311 1786 0
1786 312 -1787 0
-1786 -312 -1787 0
1786 -312 1787 0
-1786 312 1787 0
1787 313 -1788 0
-1787 -313 -1788 0
1787 -313 1788 0
-1787 313 1788 0
1788 317 -1789 0
-1788 -317 -1789 0
1788 -317 1789 0
-1788 317 1789 0
1789 318 -1790 0
-1789 -318 -1790 0
1789 -318 1790 0
-1789 318 1790 0
1790 319 -1791 0
-1790 -319 -1791 0
1790 -319 1791 0
-1790 319 1791 0
1791 323 -1792 0
-1791 -323 -1792 0
1791 -323 1792 0
-1791 323 1792 0
1792 324 -1793 0
-1792 -324 -1793 0
1792 -324 1793 0
-1792 324 1793 0
1793 325 -1794 0
-1793 -325 -1794 0
1793 -325 1794 0
-1793 325 1794 0
1794 329 -1795 0
-1794 -329 -1795 0
1794 -329 1795 0
-1794 329 1795 0
1795 330 -1796 0
-1795 -330 -1796 0
1795 -330 1796 0
-1795 330 1796 0
1796 331 -1797 0
-1796 -331 -1797 0
1796 -331 1797 0
-1796 331 1797 0
1797 335 -1798 0
-1797 -335 -1798 0
1797 -335 1798 0
-1797 335 1798 0
1798 336 -1799 0
-1798 -336 -1799 0
1798 -336 1799 0
-1798 336 1799 0
1799 337 -1800 0
-1799 -337 -1800 0
1799 -337 1800 0
-1799 337 1800 0
1800 341 -1801 0
-1800 -341 -1801 0
1800 -341 1801 0
-1800 341 1801 0
1801 342 -1802 0
-1801 -342 -1802 0
1801 -342 1802 0
-1801 342 1802 0
1802 343 -1803 0
-1802 -343 -1803 0
1802 -343 1803 0
-1802 343 1803 0
1803 347 -1804 0
-1803 -347 -1804 0
1803 -347 1804 0
-1803 347 1804 0
1804 348 -1805 0
-1804 -348 -1805 0
1804 -348 1805 0
-1804 348 1805 0
1805 349 -1806 0
-1805 -349 -1806 0
1805 -349 1806 0
-1805 349 1806 0
1806 353 -1807 0
-1806 -353 -1807 0
1806 -353 1807 0
-1806 353 1807 0
1807 354 -1808 0
-1807 -354 -1808 0
1807 -354 1808 0
-1807 354 1808 0
1808 355 -1809 0
-1808 -355 -1809 0
1808 -355 1809 0
-1808 355 1809 0
1809 371 -1810 0
-1809 -371 -1810 0
1809 -371 1810 0
-1809 371 1810 0
1810 372 -1811 0
-1810 -372 -1811 0
1810 -372 1811 0
-1810 372 1811 0
1811 373 -1812 0
-1811 -373 -1812 0
1811 -373 1812 0
-1811 373 1812 0
2 198 -1813 0
-2 -198 -1813 0
2 -198 1813 0
-2 198 1813 0
1813 199 -1814 0
-1813 -199 -1814 0
1813 -199 1814 0
-1813 199 1814 0
1814 200 -1815 0
-1814 -200 -1815 0
1814 -200 1815 0
-1814 200 1815 0
1815 204 -1816 0
-1815 -204 -1816 0
1815 -204 1816 0
-1815 204 1816 0
1816 205 -1817 0
-1816 -205 -1817 0
1816 -205 1817 0
-1816 205 1817 0
1817 206 -1818 0
-1817 -206 -1818 0
1817 -206 1818 0
-1817 206 1818 0
1818 210 -1819 0
-1818 -210 -1819 0
1818 -210 1819 0
-1818 210 1819 0
1819 211 -1820 0
-1819 -211 -1820 0
1819 -211 1820 0
-1819 211 1820 0
1820 212 -1821 0
-1820 -212 -1821 0
1820 -212 1821 0
-1820 212 1821 0
1821 216 -1822 0
-1821 -216 -1822 0
1821 -216 1822 0
-1821 216 1822 0
1822 217 -1823 0
-1822 -217 -1823 0
1822 -217 1823 0
-1822 217 1823 0
1823 218 -1824 0
-1823 -218 -1824 0
1823 -218 1824 0
-1823 218 1824 0
1824 222 -1825 0
-1824 -222 -1825 0
1824 -222 1825 0
-1824 222 1825 0
1825 223 -1826 0
-1825 -223 -1826 0
1825 -223 1826 0
-1825 223 1826 0
1826 224 -1827 0
-1826 -224 -1827 0
1826 -224 1827 0
-1826 224 1827 0
1827 228 -1828 0
-1827 -228 -1828 0
1827 -228 1828 0
-1827 228 1828 0
1828 229 -1829 0
-1828 -229 -1829 0
1828 -229 1829 0
-1828 229 1829 0
1829 230 -1830 0
-1829 -230 -1830 0
1829 -230 1830 0
-1829 230 1830 0
1830 234 -1831 0
-1830 -234 -1831 0
1830 -234 1831 0
-1830 234 1831 0
1831 235 -1832 0
-1831 -235 -1832 0
1831 -235 1832 0
-1831 235 1832 0
1832 236 -1833 0
-1832 -236 -1833 0
1832 -236 1833 0
-1832 236 1833 0
1833 240 -1834 0
-1833 -240 -1834 0
1833 -240 1834 0
-1833 240 1834 0
1834 241 -1835 0
-1834 -241 -1835 0
1834 -241 1835 0
-1834 241 1835 0
1835 242 -1836 0
-1835 -242 -1836 0
1835 -242 1836 0
-1835 242 1836 0
1836 246 -1837 0
-1836 -246 -1837 0
1836 -246 1837 0
-1836 246 1837 0
1837 247 -1838 0
-1837 -247 -1838 0
1837 -247 1838 0
-1837 247 1838 0
1838 248 -1839 0
-1838 -248 -1839 0
1838 -248 1839 0
-1838 248 1839 0
1839 252 -1840 0
-1839 -252 -1840 0
1839 -252 1840 0
-1839 252 1840 0
1840 253 -1841 0
-1840 -253 -1841 0
1840 -253 1841 0
-1840 253 1841 0
1841 254 -1842 0
-1841 -254 -1842 0
1841 -254 1842 0
-1841 254 1842 0
1842 258 -1843 0
-1842 -258 -1843 0
1842 -258 1843 0
-1842 258 1843 0
1843 259 -1844 0
-1843 -259 -1844 0
1843 -259 1844 0
-1843 259 1844 0
1844 260 -1845 0
-1844 -260 -1845 0
1844 -260 1845 0
-1844 260 1845 0
1845 264 -1846 0
-1845 -264 -1846 0
1845 -264 1846 0
-1845 264 1846 0
1846 265 -1847 0
-1846 -265 -1847 0
1846 -265 1847 0
-1846 265 1847 0
1847 266 -1848 0
-1847 -266 -1848 0
1847 -266 1848 0
-1847 266 1848 0
1848 270 -1849 0
-1848 -270 -1849 0
1848 -270 1849 0
-1848 270 1849 0
1849 271 -1850 0
-1849 -271 -1850 0
1849 -271 1850 0
-1849 271 1850 0
1850 272 -1851 0
-1850 -272 -1851 0
1850 -272 1851 0
-1850 272 1851 0
1851 276 -1852 0
-1851 -276 -1852 0
1851 -276 1852 0
-1851 276 1852 0
1852 277 -1853 0
-1852 -277 -1853 0
1852 -277 1853 0
-1852 277 1853 0
1853 278 -1854 0
-1853 -278 -1854 0
1853 -278 1854 0
-1853 278 1854 0
1854 282 -1855 0
-1854 -282 -1855 0
1854 -282 1855 0
-1854 282 1855 0
1855 283 -1856 0
-1855 -283 -1856 0
1855 -283 1856 0
-1855 283 1856 0
1856 284 -1857 0
-1856 -284 -1857 0
1856 -284 1857 0
-1856 284 1857 0
1857 288 -1858 0
-1857 -288 -1858 0
1857 -288 1858 0
-1857 288 1858 0
1858 289 -1859 0
-1858 -289 -1859 0
1858 -289 1859 0
-1858 289 1859 0
1859 290 -1860 0
-1859 -290 -1860 0
1859 -290 1860 0
-1859 290 1860 0
1860 294 -1861 0
-1860 -294 -1861 0
1860 -294 1861 0
-1860 294 1861 0
1861 295 -1862 0
-1861 -295 -1862 0
1861 -295 1862 0
-1861 295 1862 0
1862 296 -1863 0
-1862 -296 -1863 0
1862 -296 1863 0
-1862 296 1863 0
1863 300 -1864 0
-1863 -300 -1864 0
1863 -300 1864 0
-1863 300 1864 0
1864 301 -1865 0
-1864 -301 -1865 0
1864 -301 1865 0
-1864 301 1865 0
1865 302 -1866 0
-1865 -302 -1866 0
1865 -302 1866 0
-1865 302 1866 0
1866 306 -1867 0
-1866 -306 -1867 0
1866 -306 1867 0
-1866 306 1867 0
1867 307 -1868 0
-1867 -307 -1868 0
1867 -307 1868 0
-1867 307 1868 0
1868 308 -1869 0
-1868 -308 -1869 0
1868 -308 1869 0
-1868 308 1869 0
1869 312 -1870 0
-1869 -312 -1870 0
1869 -312 1870 0
-1869 312 1870 0
1870 313 -1871 0
-1870 -313 -1871 0
1870 -313 1871 0
-1870 313 1871 0
1871 314 -1872 0
-1871 -314 -1872 0
1871 -314 1872 0
-1871 314 1872 0
1872 318 -1873 0
-1872 -318 -1873 0
1872 -318 1873 0
-1872 318 1873 0
1873 319 -1874 0
-1873 -319 -1874 0
1873 -319 1874 0
-1873 319 1874 0
1874 320 -1875 0
-1874 -320 -1875 0
1874 -320 1875 0
-1874 320 1875 0
1875 324 -1876 0
-1875 -324 -1876 0
1875 -324 1876 0
-1875 324 1876 0
1876 325 -1877 0
-1876 -325 -1877 0
1876 -325 1877 0
-1876 325 1877 0
1877 326 -1878 0
-1877 -326 -1878 0
1877 -326 1878 0
-1877 326 1878 0
1878 330 -1879 0
-1878 -330 -1879 0
1878 -330 1879 0
-1878 330 1879 0
1879 331 -1880 0
-1879 -331 -1880 0
1879 -331 1880 0
-1879 331 1880 0
1880 332 -1881 0
-1880 -332 -1881 0
1880 -332 1881 0
-1880 332 1881 0
1881 336 -1882 0
-1881 -336 -1882 0
1881 -336 1882 0
-1881 336 1882 0
1882 337 -1883 0
-1882 -337 -1883 0
1882 -337 1883 0
-1882 337 1883 0
1883 338 -1884 0
-1883 -338 -1884 0
1883 -338 1884 0
-1883 338 1884 0
1884 342 -1885 0
-1884 -342 -1885 0
1884 -342 1885 0
-1884 342 1885 0
1885 343 -1886 0
-1885 -343 -1886 0
1885 -343 1886 0
-1885 343 1886 0
1886 344 -1887 0
-1886 -344 -1887 0
1886 -344 1887 0
-1886 344 1887 0
1887 348 -1888 0
-1887 -348 -1888 0
1887 -348 1888 0
-1887 348 1888 0
1888 349 -1889 0
-1888 -349 -1889 0
1888 -349 1889 0
-1888 349 1889 0
1889 350 -1890 0
-1889 -350 -1890 0
1889 -350 1890 0
-1889 350 1890 0
1890 354 -1891 0
-1890 -354 -1891 0
1890 -354 1891 0
-1890 354 1891 0
1891 355 -1892 0
-1891 -355 -1892 0
1891 -355 1892 0
-1891 355 1892 0
1892 356 -1893 0
-1892 -356 -1893 0
1892 -356 1893 0
-1892 356 1893 0
1893 372 -1894 0
-1893 -372 -1894 0
1893 -372 1894 0
-1893 372 1894 0
1894 373 -1895 0
-1894 -373 -1895 0
1894 -373 1895 0
-1894 373 1895 0
1895 374 -1896 0
-1895 -374 -1896 0
1895 -374 1896 0
-1895 374 1896 0
3 199 -1897 0
-3 -199 -1897 0
3 -199 1897 0
-3 199 1897 0
1897 200 -1898 0
-1897 -200 -1898 0
1897 -200 1898 0
-1897 200 1898 0
1898 201 -1899 0
-1898 -201 -1899 0
1898 -201 1899 0
-1898 201 1899 0
1899 205 -1900 0
-1899 -205 -1900 0
1899 -205 1900 0
-1899 205 1900 0
1900 206 -1901 0
-1900 -206 -1901 0
1900 -206 1901 0
-1900 206 1901 0
1901 207 -1902 0
-1901 -207 -1902 0
1901 -207 1902 0
-1901 207 1902 0
1902 211 -1903 0
-1902 -211 -1903 0
1902 -211 1903 0
-1902 211 1903 0
1903 212 -1904 0
-1903 -212 -1904 0
1903 -212 1904 0
-1903 212 1904 0
1904 213 -1905 0
-1904 -213 -1905 0
1904 -213 1905 0
-1904 213 1905 0
1905 217 -1906 0
-1905 -217 -1906 0
1905 -217 1906 0
-1905 217 1906 0
1906 218 -1907 0
-1906 -218 -1907 0
1906 -218 1907 0
-1906 218 1907 0
1907 219 -1908 0
-1907 -219 -1908 0
1907 -219 1908 0
-1907 219 1908 0
1908 223 -1909 0
-1908 -223 -1909 0
1908 -223 1909 0
-1908 223 1909 0
1909 224 -1910 0
-1909 -224 -1910 0
1909 -224 1910 0
-1909 224 1910 0
1910 225 -1911 0
-1910 -225 -1911 0
1910 -225 1911 0
-1910 225 1911 0
1911 229 -1912 0
-1911 -229 -1912 0
1911 -229 1912 0
-1911 229 1912 0
1912 230 -1913 0
-1912 -230 -1913 0
1912 -230 1913 0
-1912 230 1913 0
1913 231 -1914 0
-1913 -231 -1914 0
1913 -231 1914 0
-1913 231 1914 0
1914 235 -1915 0
-1914 -235 -1915 0
1914 -235 1915 0
-1914 235 1915 0
1915 236 -1916 0
-1915 -236 -1916 0
1915 -236 1916 0
-1915 236 1916 0
1916 237 -1917 0
-1916 -237 -1917 0
1916 -237 1917 0
-1916 237 1917 0
1917 241 -1918 0
-1917 -241 -1918 0
1917 -241 1918 0
-1917 241 1918 0
1918 242 -1919 0
-1918 -242 -1919 0
1918 -242 1919 0
-1918 242 1919 0
1919 243 -1920 0
-1919 -243 -1920 0
1919 -243 1920 0
-1919 243 1920 0
1920 247 -1921 0
-1920 -247 -1921 0
1920 -247 1921 0
-1920 247 1921 0
1921 248 -1922 0
-1921 -248 -1922 0
1921 -248 1922 0
-1921 248 1922 0
1922 249 -1923 0
-1922 -249 -1923 0
1922 -249 1923 0
-1922 249 1923 0
1923 253 -1924 0
-1923 -253 -1924 0
1923 -253 1924 0
-1923 253 1924 0
1924 254 -1925 0
-1924 -254 -1925 0
1924 -254 1925 0
-1924 254 1925 0
1925 255 -1926 0
-1925 -255 -1926 0
1925 -255 1926 0
-1925 255 1926 0
1926 259 -1927 0
-1926 -259 -1927 0
1926 -259 1927 0
-1926 259 1927 0
1927 260 -1928 0
-1927 -260 -1928 0
1927 -260 1928 0
-1927 260 1928 0
1928 261 -1929 0
-1928 -261 -1929 0
1928 -261 1929 0
-1928 261 1929 0
1929 265 -1930 0
-1929 -265 -1930 0
1929 -265 1930 0
-1929 265 1930 0
1930 266 -1931 0
-1930 -266 -1931 0
1930 -266 1931 0
-1930 266 1931 0
1931 267 -1932 0
-1931 -267 -1932 0
1931 -267 1932 0
-1931 267 1932 0
1932 271 -1933 0
-1932 -271 -1933 0
1932 -271 1933 0
-1932 271 1933 0
1933 272 -1934 0
-1933 -272 -1934 0
1933 -272 1934 0
-1933 272 1934 0
1934 273 -1935 0
-1934 -273 -1935 0
1934 -273 1935 0
-1934 273 1935 0
1935 277 -1936 0
-1935 -277 -1936 0
1935 -277 1936 0
-1935 277 1936 0
1936 278 -1937 0
-1936 -278 -1937 0
1936 -278 1937 0
-1936 278 1937 0
1937 279 -1938 0
-1937 -279 -1938 0
1937 -279 1938 0
-1937 279 1938 0
1938 283 -1939 0
-1938 -283 -1939 0
1938 -283 1939 0
-1938 283 1939 0
1939 284 -1940 0
-1939 -284 -1940 0
1939 -284 1940 0
-1939 284 1940 0
1940 285 -1941 0
-1940 -285 -1941 0
1940 -285 1941 0
-1940 285 1941 0
1941 289 -1942 0
-1941 -289 -1942 0
1941 -289 1942 0
-1941 289 1942 0
1942 290 -1943 0
-1942 -290 -1943 0
1942 -290 1943 0
-1942 290 1943 0
1943 291 -1944 0
-1943 -291 -1944 0
1943 -291 1944 0
-1943 291 1944 0
1944 295 -1945 0
-1944 -295 -1945 0
1944 -295 1945 0
-1944 295 1945 0
1945 296 -1946 0
-1945 -296 -1946 0
1945 -296 1946 0
-1945 296 1946 0
1946 297 -1947 0
-1946 -297 -1947 0
1946 -297 1947 0
-1946 297 1947 0
1947 301 -1948 0
-1947 -301 -1948 0
1947 -301 1948 0
-1947 301 1948 0
1948 302 -1949 0
-1948 -302 -1949 0
1948 -302 1949 0
-1948 302 1949 0
1949 303 -1950 0
-1949 -303 -1950 0
1949 -303 1950 0
-1949 303 1950 0
1950 307 -1951 0
-1950 -307 -1951 0
1950 -307 1951 0
-1950 307 1951 0
1951 308 -1952 0
-1951 -308 -1952 0
1951 -308 1952 0
-1951 308 1952 0
1952 309 -1953 0
-1952 -309 -1953 0
1952 -309 1953 0
-1952 309 1953 0
1953 313 -1954 0
-1953 -313 -1954 0
1953 -313 1954 0
-1953 313 1954 0
1954 314 -1955 0
-1954 -314 -1955 0
1954 -314 1955 0
-1954 314 1955 0
1955 315 -1956 0
-1955 -315 -1956 0
1955 -315 1956 0
-1955 315 1956 0
1956 319 -1957 0
-1956 -319 -1957 0
1956 -319 1957 0
-1956 319 1957 0
1957 320 -1958 0
-1957 -320 -1958 0
1957 -320 1958 0
-1957 320 1958 0
1958 321 -1959 0
-1958 -321 -1959 0
1958 -321 1959 0
-1958 321 1959 0
1959 325 -1960 0
-1959 -325 -1960 0
1959 -325 1960 0
-1959 325 1960 0
1960 326 -1961 0
-1960 -326 -1961 0
1960 -326 1961 0
-1960 326 1961 0
1961 327 -1962 0
-1961 -327 -1962 0
1961 -327 1962 0
-1961 327 1962 0
1962 331 -1963 0
-1962 -331 -1963 0
1962 -331 1963 0
-1962 331 1963 0
1963 332 -1964 0
-1963 -332 -1964 0
1963 -332 1964 0
-1963 332 1964 0
1964 333 -1965 0
-1964 -333 -1965 0
1964 -333 1965 0
-1964 333 1965 0
1965 337 -1966 0
-1965 -337 -1966 0
1965 -337 1966 0
-1965 337 1966 0
1966 338 -1967 0
-1966 -338 -1967 0
1966 -338 1967 0
-1966 338 1967 0
1967 339 -1968 0
-1967 -339 -1968 0
1967 -339 1968 0
-1967 339 1968 0
1968 343 -1969 0
-1968 -343 -1969 0
1968 -343 1969 0
-1968 343 1969 0
1969 344 -1970 0
-1969 -344 -1970 0
1969 -344 1970 0
-1969 344 1970 0
1970 345 -1971 0
-1970 -345 -1971 0
1970 -345 1971 0
-1970 345 1971 0
1971 349 -1972 0
-1971 -349 -1972 0
1971 -349 1972 0
-1971 349 1972 0
1972 350 -1973 0
-1972 -350 -1973 0
1972 -350 1973 0
-1972 350 1973 0
1973 351 -1974 0
-1973 -351 -1974 0
1973 -351 1974 0
-1973 351 1974 0
1974 355 -1975 0
-1974 -355 -1975 0
1974 -355 1975 0
-1974 355 1975 0
1975 356 -1976 0
-1975 -356 -1976 0
1975 -356 1976 0
-1975 356 1976 0
1976 357 -1977 0
-1976 -357 -1977 0
1976 -357 1977 0
-1976 357 1977 0
1977 373 -1978 0
-1977 -373 -1978 0
1977 -373 1978 0
-1977 373 1978 0
1978 374 -1979 0
-1978 -374 -1979 0
1978 -374 1979 0
-1978 374 1979 0
1979 375 -1980 0
-1979 -375 -1980 0
1979 -375 1980 0
-1979 375 1980 0
4 200 -1981 0
-4 -200 -1981 0
4 -200 1981 0
-4 200 1981 0
1981 201 -1982 0
-1981 -201 -1982 0
1981 -201 1982 0
-1981 201 1982 0
1982 202 -1983 0
-1982 -202 -1983 0
1982 -202 1983 0
-1982 202 1983 0
1983 206 -1984 0
-1983 -206 -1984 0
1983 -206 1984 0
-1983 206 1984 0
1984 207 -1985 0
-1984 -207 -1985 0
1984 -207 1985 0
-1984 207 1985 0
1985 208 -1986 0
-1985 -208 -1986 0
1985 -208 1986 0
-1985 208 1986 0
1986 212 -1987 0
-1986 -212 -1987 0
1986 -212 1987 0
-1986 212 1987 0
1987 213 -1988 0
-1987 -213 -1988 0
1987 -213 1988 0
-1987 213 1988 0
1988 214 -1989 0
-1988 -214 -1989 0
1988 -214 1989 0
-1988 214 1989 0
1989 218 -1990 0
-1989 -218 -1990 0
1989 -218 1990 0
-1989 218 1990 0
1990 219 -1991 0
-1990 -219 -1991 0
1990 -219 1991 0
-1990 219 1991 0
1991 220 -1992 0
-1991 -220 -1992 0
1991 -220 1992 0
-1991 220 1992 0
1992 224 -1993 0
-1992 -224 -1993 0
1992 -224 1993 0
-1992 224 1993 0
1993 225 -1994 0
-1993 -225 -1994 0
1993 -225 1994 0
-1993 225 1994 0
1994 226 -1995 0
-1994 -226 -1995 0
1994 -226 1995 0
-1994 226 1995 0
1995 230 -1996 0
-1995 -230 -1996 0
1995 -230 1996 0
-1995 230 1996 0
1996 231 -1997 0
-1996 -231 -1997 0
1996 -231 1997 0
-1996 231 1997 0
1997 232 -1998 0
-1997 -232 -1998 0
1997 -232 1998 0
-1997 232 1998 0
1998 236 -1999 0
-1998 -236 -1999 0
1998 -236 1999 0
-1998 236 1999 0
1999 237 -2000 0
-1999 -237 -2000 0
1999 -237 2000 0
-1999 237 2000 0
2000 238 -2001 0
-2000 -238 -2001 0
2000 -238 2001 0
-2000 238 2001 0
2001 242 -2002 0
-2001 -242 -2002 0
2001 -242 2002 0
-2001 242 2002 0
2002 243 -2003 0
-2002 -243 -2003 0
2002 -243 2003 0
-2002 243 2003 0
2003 244 -2004 0
-2003 -244 -2004 0
2003 -244 2004 0
-2003 244 2004 0
2004 248 -2005 0
-2004 -248 -2005 0
2004 -248 2005 0
-2004 248 2005 0
2005 249 -2006 0
-2005 -249 -2006 0
2005 -249 2006 0
-2005 249 2006 0
2006 250 -2007 0
-2006 -250 -2007 0
2006 -250 2007 0
-2006 250 2007 0
2007 254 -2008 0
-2007 -254 -2008 0
2007 -254 2008 0
-2007 254 2008 0
2008 255 -2009 0
-2008 -255 -2009 0
2008 -255 2009 0
-2008 255 2009 0
2009 256 -2010 0
-2009 -256 -2010 0
2009 -256 2010 0
-2009 256 2010 0
2010 260 -2011 0
-2010 -260 -2011 0
2010 -260 2011 0
-2010 260 2011 0
2011 261 -2012 0
-2011 -261 -2012 0
2011 -261 2012 0
-2011 261 2012 0
2012 262 -2013 0
-2012 -262 -2013 0
2012 -262 2013 0
-2012 262 2013 0
2013 266 -2014 0
-2013 -266 -2014 0
2013 -266 2014 0
-2013 266 2014 0
2014 267 -2015 0
-2014 -267 -2015 0
2014 -267 2015 0
-2014 267 2015 0
2015 268 -2016 0
-2015 -268 -2016 0
2015 -268 2016 0
-2015 268 2016 0
2016 272 -2017 0
-2016 -272 -2017 0
2016 -272 2017 0
-2016 272 2017 0
2017 273 -2018 0
-2017 -273 -2018 0
2017 -273 2018 0
-2017 273 2018 0
2018 274 -2019 0
-2018 -274 -2019 0
2018 -274 2019 0
-2018 274 2019 0
2019 278 -2020 0
-2019 -278 -2020 0
2019 -278 2020 0
-2019 278 2020 0
2020 279 -2021 0
-2020 -279 -2021 0
2020 -279 2021 0
-2020 279 2021 0
2021 280 -2022 0
-2021 -280 -2022 0
2021 -280 2022 0
-2021 280 2022 0
2022 284 -2023 0
-2022 -284 -2023 0
2022 -284 2023 0
-2022 284 2023 0
2023 285 -2024 0
-2023 -285 -2024 0
2023 -285 2024 0
-2023 285 2024 0
2024 286 -2025 0
-2024 -286 -2025 0
2024 -286 2025 0
-2024 286 2025 0
2025 290 -2026 0
-2025 -290 -2026 0
2025 -290 2026 0
-2025 290 2026 0
2026 291 -2027 0
-2026 -291 -2027 0
2026 -291 2027 0
-2026 291 2027 0
2027 292 -2028 0
-2027 -292 -2028 0
2027 -292 2028 0
-2027 292 2028 0
2028 296 -2029 0
-2028 -296 -2029 0
2028 -296 2029 0
-2028 296 2029 0
2029 297 -2030 0
-2029 -297 -2030 0
2029 -297 2030 0
-2029 297 2030 0
2030 298 -2031 0
-2030 -298 -2031 0
2030 -298 2031 0
-2030 298 2031 0
2031 302 -2032 0
-2031 -302 -2032 0
2031 -302 2032 0
-2031 302 2032 0
2032 303 -2033 0
-2032 -303 -2033 0
2032 -303 2033 0
-2032 303 2033 0
2033 304 -2034 0
-2033 -304 -2034 0
2033 -304 2034 0
-2033 304 2034 0
2034 308 -2035 0
-2034 -308 -2035 0
2034 -308 2035 0
-2034 308 2035 0
2035 309 -2036 0
-2035 -309 -2036 0
2035 -309 2036 0
-2035 309 2036 0
2036 310 -2037 0
-2036 -310 -2037 0
2036 -310 2037 0
-2036 310 2037 0
2037 314 -2038 0
-2037 -314 -2038 0
2037 -314 2038 0
-2037 314 2038 0
2038 315 -2039 0
-2038 -315 -2039 0
2038 -315 2039 0
-2038 315 2039 0
2039 316 -2040 0
-2039 -316 -2040 0
2039 -316 2040 0
-2039 316 2040 0
2040 320 -2041 0
-2040 -320 -2041 0
2040 -320 2041 0
-2040 320 2041 0
2041 321 -2042 0
-2041 -321 -2042 0
2041 -321 2042 0
-2041 321 2042 0
2042 322 -2043 0
-2042 -322 -2043 0
2042 -322 2043 0
-2042 322 2043 0
2043 326 -2044 0
-2043 -326 -2044 0
2043 -326 2044 0
-2043 326 2044 0
2044 327 -2045 0
-2044 -327 -2045 0
2044 -327 2045 0
-2044 327 2045 0
2045 328 -2046 0
-2045 -328 -2046 0
2045 -328 2046 0
-2045 328 2046 0
2046 332 -2047 0
-2046 -332 -2047 0
2046 -332 2047 0
-2046 332 2047 0
2047 333 -2048 0
-2047 -333 -2048 0
2047 -333 2048 0
-2047 333 2048 0
2048 334 -2049 0
-2048 -334 -2049 0
2048 -334 2049 0
-2048 334 2049 0
2049 338 -2050 0
-2049 -338 -2050 0
2049 -338 2050 0
-2049 338 2050 0
2050 339 -2051 0
-2050 -339 -2051 0
2050 -339 2051 0
-2050 339 2051 0
2051 340 -2052 0
-2051 -340 -2052 0
2051 -340 2052 0
-2051 340 2052 0
2052 344 -2053 0
-2052 -344 -2053 0
2052 -344 2053 0
-2052 344 2053 0
2053 345 -2054 0
-2053 -345 -2054 0
2053 -345 2054 0
-2053 345 2054 0
2054 346 -2055 0
-2054 -346 -2055 0
2054 -346 2055 0
-2054 346 2055 0
2055 350 -2056 0
-2055 -350 -2056 0
2055 -350 2056 0
-2055 350 2056 0
2056 351 -2057 0
-2056 -351 -2057 0
2056 -351 2057 0
-2056 351 2057 0
2057 352 -2058 0
-2057 -352 -2058 0
2057 -352 2058 0
-2057 352 2058 0
2058 356 -2059 0
-2058 -356 -2059 0
2058 -356 2059 0
-2058 356 2059 0
2059 357 -2060 0
-2059 -357 -2060 0
2059 -357 2060 0
-2059 357 2060 0
2060 358 -2061 0
-2060 -358 -2061 0
2060 -358 2061 0
-2060 358 2061 0
2061 374 -2062 0
-2061 -374 -2062 0
2061 -374 2062 0
-2061 374 2062 0
2062 375 -2063 0
-2062 -375 -2063 0
2062 -375 2063 0
-2062 375 2063 0
2063 376 -2064 0
-2063 -376 -2064 0
2063 -376 2064 0
-2063 376 2064 0
13 197 -2065 0
-13 -197 -2065 0
13 -197 2065 0
-13 197 2065 0
2065 198 -2066 0
-2065 -198 -2066 0
2065 -198 2066 0
-2065 198 2066 0
2066 199 -2067 0
-2066 -199 -2067 0
2066 -199 2067 0
-2066 199 2067 0
2067 203 -2068 0
-2067 -203 -2068 0
2067 -203 2068 0
-2067 203 2068 0
2068 204 -2069 0
-2068 -204 -2069 0
2068 -204 2069 0
-2068 204 2069 0
2069 205 -2070 0
-2069 -205 -2070 0
2069 -205 2070 0
-2069 205 2070 0
2070 371 -2071 0
-2070 -371 -2071 0
2070 -371 2071 0
-2070 371 2071 0
2071 372 -2072 0
-2071 -372 -2072 0
2071 -372 2072 0
-2071 372 2072 0
2072 373 -2073 0
-2072 -373 -2073 0
2072 -373 2073 0
-2072 373 2073 0
2073 377 -2074 0
-2073 -377 -2074 0
2073 -377 2074 0
-2073 377 2074 0
2074 378 -2075 0
-2074 -378 -2075 0
2074 -378 2075 0
-2074 378 2075 0
2075 379 -2076 0
-2075 -379 -2076 0
2075 -379 2076 0
-2075 379 2076 0
14 198 -2077 0
-14 -198 -2077 0
14 -198 2077 0
-14 198 2077 0
2077 199 -2078 0
-2077 -199 -2078 0
2077 -199 2078 0
-2077 199 2078 0
2078 200 -2079 0
-2078 -200 -2079 0
2078 -200 2079 0
-2078 200 2079 0
2079 204 -2080 0
-2079 -204 -2080 0
2079 -204 2080 0
-2079 204 2080 0
2080 205 -2081 0
-2080 -205 -2081 0
2080 -205 2081 0
-2080 205 2081 0
2081 206 -2082 0
-2081 -206 -2082 0
2081 -206 2082 0
-2081 206 2082 0
2082 372 -2083 0
-2082 -372 -2083 0
2082 -372 2083 0
-2082 372 2083 0
2083 373 -2084 0
-2083 -373 -2084 0
2083 -373 2084 0
-2083 373 2084 0
2084 374 -2085 0
-2084 -374 -2085 0
2084 -374 2085 0
-2084 374 2085 0
2085 378 -2086 0
-2085 -378 -2086 0
2085 -378 2086 0
-2085 378 2086 0
2086 379 -2087 0
-2086 -379 -2087 0
2086 -379 2087 0
-2086 379 2087 0
2087 380 -2088 0
-2087 -380 -2088 0
2087 -380 2088 0
-2087 380 2088 0
15 199 -2089 0
-15 -199 -2089 0
15 -199 2089 0
-15 199 2089 0
2089 200 -2090 0
-2089 -200 -2090 0
2089 -200 2090 0
-2089 200 2090 0
2090 201 -2091 0
-2090 -201 -2091 0
2090 -201 2091 0
-2090 201 2091 0
2091 205 -2092 0
-2091 -205 -2092 0
2091 -205 2092 0
-2091 205 2092 0
2092 206 -2093 0
-2092 -206 -2093 0
2092 -206 2093 0
-2092 206 2093 0
2093 207 -2094 0
-2093 -207 -2094 0
2093 -207 2094 0
-2093 207 2094 0
2094 373 -2095 0
-2094 -373 -2095 0
2094 -373 2095 0
-2094 373 2095 0
2095 374 -2096 0
-2095 -374 -2096 0
2095 -374 2096 0
-2095 374 2096 0
2096 375 -2097 0
-2096 -375 -2097 0
2096 -375 2097 0
-2096 375 2097 0
2097 379 -2098 0
-2097 -379 -2098 0
2097 -379 2098 0
-2097 379 2098 0
2098 380 -2099 0
-2098 -380 -2099 0
2098 -380 2099 0
-2098 380 2099 0
2099 381 -2100 0
-2099 -381 -2100 0
2099 -381 2100 0
-2099 381 2100 0
16 200 -2101 0
-16 -200 -2101 0
16 -200 2101 0
-16 200 2101 0
2101 201 -2102 0
-2101 -201 -2102 0
2101 -201 2102 0
-2101 201 2102 0
2102 202 -2103 0
-2102 -202 -2103 0
2102 -202 2103 0
-2102 202 2103 0
2103 206 -2104 0
-2103 -206 -2104 0
2103 -206 2104 0
-2103 206 2104 0
2104 207 -2105 0
-2104 -207 -2105 0
2104 -207 2105 0
-2104 207 2105 0
2105 208 -2106 0
-2105 -208 -2106 0
2105 -208 2106 0
-2105 208 2106 0
2106 374 -2107 0
-2106 -374 -2107 0
2106 -374 2107 0
-2106 374 2107 0
2107 375 -2108 0
-2107 -375 -2108 0
2107 -375 2108 0
-2107 375 2108 0
2108 376 -2109 0
-2108 -376 -2109 0
2108 -376 2109 0
-2108 376 2109 0
2109 380 -2110 0
-2109 -380 -2110 0
2109 -380 2110 0
-2109 380 2110 0
2110 381 -2111 0
-2110 -381 -2111 0
2110 -381 2111 0
-2110 381 2111 0
2111 382 -2112 0
-2111 -382 -2112 0
2111 -382 2112 0
-2111 382 2112 0
1812 1896 1980 2064 2076 2088 2100 2112 0
1 0
-2127 2117 2128 0
-2122 2117 2128 0
-2122 -2127 2128 0
-2128 2113 0
-2123 2113 0
-2128 -2123 2114 0
-2124 2114 0
-2128 -2124 2115 0
-2125 2115 0
-2128 -2125 2116 0
-2126 2116 0
-2128 -2126 0
-2118 2113 0
-2128 -2118 2114 0
-2119 2114 0
-2128 -2119 2115 0
-2120 2115 0
-2128 -2120 2116 0
-2121 2116 0
-2128 -2121 0
-2118 -2123 2114 0
-2128 -2118 -2123 2115 0
-2118 -2124 2115 0
-2128 -2118 -2124 2116 0
-2118 -2125 2116 0
-2128 -2118 -2125 0
-2118 -2126 0
-2128 -2118 -2126 0
-2119 -2123 2115 0
-2128 -2119 -2123 2116 0
-2119 -2124 2116 0
-2128 -2119 -2124 0
-2119 -2125 0
-2128 -2119 -2125 0
-2119 -2126 0
-2128 -2119 -2126 0
-2120 -2123 2116 0
-2128 -2120 -2123 0
-2120 -2124 0
-2128 -2120 -2124 0
-2120 -2125 0
-2128 -2120 -2125 0
-2120 -2126 0
-2128 -2120 -2126 0
-2121 -2123 0
-2128 -2121 -2123 0
-2121 -2124 0
-2128 -2121 -2124 0
-2121 -2125 0
-2128 -2121 -2125 0
-2121 -2126 0
-2128 -2121 -2126 0
-2138 2127 2139 0
-2133 2127 2139 0
-2133 -2138 2139 0
-2139 2123 0
-2134 2123 0
-2139 -2134 2124 0
-2135 2124 0
-2139 -2135 2125 0
-2136 2125 0
-2139 -2136 2126 0
-2137 2126 0
-2139 -2137 0
-2129 2123 0
-2139 -2129 2124 0
-2130 2124 0
-2139 -2130 2125 0
-2131 2125 0
-2139 -2131 2126 0
-2132 2126 0
-2139 -2132 0
-2129 -2134 2124 0
-2139 -2129 -2134 2125 0
-2129 -2135 2125 0
-2139 -2129 -2135 2126 0
-2129 -2136 2126 0
-2139 -2129 -2136 0
-2129 -2137 0
-2139 -2129 -2137 0
-2130 -2134 2125 0
-2139 -2130 -2134 2126 0
-2130 -2135 2126 0
-2139 -2130 -2135 0
-2130 -2136 0
-2139 -2130 -2136 0
-2130 -2137 0
-2139 -2130 -2137 0
-2131 -2134 2126 0
-2139 -2131 -2134 0
-2131 -2135 0
-2139 -2131 -2135 0
-2131 -2136 0
-2139 -2131 -2136 0
-2131 -2137 0
-2139 -2131 -2137 0
-2132 -2134 0
-2139 -2132 -2134 0
-2132 -2135 0
-2139 -2132 -2135 0
-2132 -2136 0
-2139 -2132 -2136 0
-2132 -2137 0
-2139 -2132 -2137 0
-2149 2138 2150 0
-2144 2138 2150 0
-2144 -2149 2150 0
-2150 2134 0
-2145 2134 0
-2150 -2145 2135 0
-2146 2135 0
-2150 -2146 2136 0
-2147 2136 0
-2150 -2147 2137 0
-2148 2137 0
-2150 -2148 0
-2140 2134 0
-2150 -2140 2135 0
-2141 2135 0
-2150 -2141 2136 0
-2142 2136 0
-2150 -2142 2137 0
-2143 2137 0
-2150 -2143 0
-2140 -2145 2135 0
-2150 -2140 -2145 2136 0
-2140 -2146 2136 0
-2150 -2140 -2146 2137 0
-2140 -2147 2137 0
-2150 -2140 -2147 0
-2140 -2148 0
-2150 -2140 -2148 0
-2141 -2145 2136 0
-2150 -2141 -2145 2137 0
-2141 -2146 2137 0
-2150 -2141 -2146 0
-2141 -2147 0
-2150 -2141 -2147 0
-2141 -2148 0
-2150 -2141 -2148 0
-2142 -2145 2137 0
-2150 -2142 -2145 0
-2142 -2146 0
-2150 -2142 -2146 0
-2142 -2147 0
-2150 -2142 -2147 0
-2142 -2148 0
-2150 -2142 -2148 0
-2143 -2145 0
-2150 -2143 -2145 0
-2143 -2146 0
-2150 -2143 -2146 0
-2143 -2147 0
-2150 -2143 -2147 0
-2143 -2148 0
-2150 -2143 -2148 0
-2160 2149 2161 0
-2155 2149 2161 0
-2155 -2160 2161 0
-2161 2145 0
-2156 2145 0
-2161 -2156 2146 0
-2157 2146 0
-2161 -2157 2147 0
-2158 2147 0
-2161 -2158 2148 0
-2159 2148 0
-2161 -2159 0
-2151 2145 0
-2161 -2151 2146 0
-2152 2146 0
-2161 -2152 2147 0
-2153 2147 0
-2161 -2153 2148 0
-2154 2148 0
-2161 -2154 0
-2151 -2156 2146 0
-2161 -2151 -2156 2147 0
-2151 -2157 2147 0
-2161 -2151 -2157 2148 0
-2151 -2158 2148 0
-2161 -2151 -2158 0
-2151 -2159 0
-2161 -2151 -2159 0
-2152 -2156 2147 0
-2161 -2152 -2156 2148 0
-2152 -2157 2148 0
-2161 -2152 -2157 0
-2152 -2158 0
-2161 -2152 -2158 0
-2152 -2159 0
-2161 -2152 -2159 0
-2153 -2156 2148 0
-2161 -2153 -2156 0
-2153 -2157 0
-2161 -2153 -2157 0
-2153 -2158 0
-2161 -2153 -2158 0
-2153 -2159 0
-2161 -2153 -2159 0
-2154 -2156 0
-2161 -2154 -2156 0
-2154 -2157 0
-2161 -2154 -2157 0
-2154 -2158 0
-2161 -2154 -2158 0
-2154 -2159 0
-2161 -2154 -2159 0
-2171 2160 2172 0
-2166 2160 2172 0
-2166 -2171 2172 0
-2172 2156 0
-2167 2156 0
-2172 -2167 2157 0
-2168 2157 0
-2172 -2168 2158 0
-2169 2158 0
-2172 -2169 2159 0
-2170 2159 0
-2172 -2170 0
-2162 2156 0
-2172 -2162 2157 0
-2163 2157 0
-2172 -2163 2158 0
-2164 2158 0
-2172 -2164 2159 0
-2165 2159 0
-2172 -2165 0
-2162 -2167 2157 0
-2172 -2162 -2167 2158 0
-2162 -2168 2158 0
-2172 -2162 -2168 2159 0
-2162 -2169 2159 0
-2172 -2162 -2169 0
-2162 -2170 0
-2172 -2162 -2170 0
-2163 -2167 2158 0
-2172 -2163 -2167 2159 0
-2163 -2168 2159 0
-2172 -2163 -2168 0
-2163 -2169 0
-2172 -2163 -2169 0
-2163 -2170 0
-2172 -2163 -2170 0
-2164 -2167 2159 0
-2172 -2164 -2167 0
-2164 -2168 0
-2172 -2164 -2168 0
-2164 -2169 0
-2172 -2164 -2169 0
-2164 -2170 0
-2172 -2164 -2170 0
-2165 -2167 0
-2172 -2165 -2167 0
-2165 -2168 0
-2172 -2165 -2168 0
-2165 -2169 0
-2172 -2165 -2169 0
-2165 -2170 0
-2172 -2165 -2170 0
-2180 2171 2181 0
-2176 2171 2181 0
-2176 -2180 2181 0
-2181 2167 0
-2177 2167 0
-2181 -2177 2168 0
-2178 2168 0
-2181 -2178 2169 0
-2179 2169 0
-2181 -2179 2170 0
-2173 2167 0
-2181 -2173 2168 0
-2174 2168 0
-2181 -2174 2169 0
-2175 2169 0
-2181 -2175 2170 0
-2173 -2177 2168 0
-2181 -2173 -2177 2169 0
-2173 -2178 2169 0
-2181 -2173 -2178 2170 0
-2173 -2179 2170 0
-2181 -2173 -2179 0
-2174 -2177 2169 0
-2181 -2174 -2177 2170 0
-2174 -2178 2170 0
-2181 -2174 -2178 0
-2174 -2179 0
-2181 -2174 -2179 0
-2175 -2177 2170 0
-2181 -2175 -2177 0
-2175 -2178 0
-2181 -2175 -2178 0
-2175 -2179 0
-2181 -2175 -2179 0
-2185 2180 2186 0
-2183 2180 2186 0
-2183 -2185 2186 0
-2186 2177 0
-2184 2177 0
-2186 -2184 2178 0
-2182 2177 0
-2186 -2182 2178 0
-2182 -2184 2178 0
-2186 -2182 -2184 2179 0
-384 2185 2189 0
-2188 2185 2189 0
-2188 -384 2189 0
-2189 2184 0
-2187 2184 0
-2189 -2187 0
-383 2188 2190 0
-382 2188 2190 0
-382 -383 2190 0
-2190 2187 0
-381 2183 2193 0
-2192 2183 2193 0
-2192 -381 2193 0
-2193 2182 0
-2191 2182 0
-2193 -2191 0
-380 2192 2194 0
-379 2192 2194 0
-379 -380 2194 0
-2194 2191 0
-2198 2176 2199 0
-2196 2176 2199 0
-2196 -2198 2199 0
-2199 2173 0
-2197 2173 0
-2199 -2197 2174 0
-2195 2173 0
-2199 -2195 2174 0
-2195 -2197 2174 0
-2199 -2195 -2197 2175 0
-378 2198 2202 0
-2201 2198 2202 0
-2201 -378 2202 0
-2202 2197 0
-2200 2197 0
-2202 -2200 0
-377 2201 2203 0
-376 2201 2203 0
-376 -377 2203 0
-2203 2200 0
-375 2196 2206 0
-2205 2196 2206 0
-2205 -375 2206 0
-2206 2195 0
-2204 2195 0
-2206 -2204 0
-374 2205 2207 0
-373 2205 2207 0
-373 -374 2207 0
-2207 2204 0
-2215 2166 2216 0
-2211 2166 2216 0
-2211 -2215 2216 0
-2216 2162 0
-2212 2162 0
-2216 -2212 2163 0
-2213 2163 0
-2216 -2213 2164 0
-2214 2164 0
-2216 -2214 2165 0
-2208 2162 0
-2216 -2208 2163 0
-2209 2163 0
-2216 -2209 2164 0
-2210 2164 0
-2216 -2210 2165 0
-2208 -2212 2163 0
-2216 -2208 -2212 2164 0
-2208 -2213 2164 0
-2216 -2208 -2213 2165 0
-2208 -2214 2165 0
-2216 -2208 -2214 0
-2209 -2212 2164 0
-2216 -2209 -2212 2165 0
-2209 -2213 2165 0
-2216 -2209 -2213 0
-2209 -2214 0
-2216 -2209 -2214 0
-2210 -2212 2165 0
-2216 -2210 -2212 0
-2210 -2213 0
-2216 -2210 -2213 0
-2210 -2214 0
-2216 -2210 -2214 0
-2220 2215 2221 0
-2218 2215 2221 0
-2218 -2220 2221 0
-2221 2212 0
-2219 2212 0
-2221 -2219 2213 0
-2217 2212 0
-2221 -2217 2213 0
-2217 -2219 2213 0
-2221 -2217 -2219 2214 0
-372 2220 2224 0
-2223 2220 2224 0
-2223 -372 2224 0
-2224 2219 0
-2222 2219 0
-2224 -2222 0
-371 2223 2225 0
-370 2223 2225 0
-370 -371 2225 0
-2225 2222 0
-369 2218 2228 0
-2227 2218 2228 0
-2227 -369 2228 0
-2228 2217 0
-2226 2217 0
-2228 -2226 0
-368 2227 2229 0
-367 2227 2229 0
-367 -368 2229 0
-2229 2226 0
-2233 2211 2234 0
-2231 2211 2234 0
-2231 -2233 2234 0
-2234 2208 0
-2232 2208 0
-2234 -2232 2209 0
-2230 2208 0
-2234 -2230 2209 0
-2230 -2232 2209 0
-2234 -2230 -2232 2210 0
-366 2233 2237 0
-2236 2233 2237 0
-2236 -366 2237 0
-2237 2232 0
-2235 2232 0
-2237 -2235 0
-365 2236 2238 0
-364 2236 2238 0
-364 -365 2238 0
-2238 2235 0
-363 2231 2241 0
-2240 2231 2241 0
-2240 -363 2241 0
-2241 2230 0
-2239 2230 0
-2241 -2239 0
-362 2240 2242 0
-361 2240 2242 0
-361 -362 2242 0
-2242 2239 0
-2252 2155 2253 0
-2247 2155 2253 0
-2247 -2252 2253 0
-2253 2151 0
-2248 2151 0
-2253 -2248 2152 0
-2249 2152 0
-2253 -2249 2153 0
-2250 2153 0
-2253 -2250 2154 0
-2251 2154 0
-2253 -2251 0
-2243 2151 0
-2253 -2243 2152 0
-2244 2152 0
-2253 -2244 2153 0
-2245 2153 0
-2253 -2245 2154 0
-2246 2154 0
-2253 -2246 0
-2243 -2248 2152 0
-2253 -2243 -2248 2153 0
-2243 -2249 2153 0
-2253 -2243 -2249 2154 0
-2243 -2250 2154 0
-2253 -2243 -2250 0
-2243 -2251 0
-2253 -2243 -2251 0
-2244 -2248 2153 0
-2253 -2244 -2248 2154 0
-2244 -2249 2154 0
-2253 -2244 -2249 0
-2244 -2250 0
-2253 -2244 -2250 0
-2244 -2251 0
-2253 -2244 -2251 0
-2245 -2248 2154 0
-2253 -2245 -2248 0
-2245 -2249 0
-2253 -2245 -2249 0
-2245 -2250 0
-2253 -2245 -2250 0
-2245 -2251 0
-2253 -2245 -2251 0
-2246 -2248 0
-2253 -2246 -2248 0
-2246 -2249 0
-2253 -2246 -2249 0
-2246 -2250 0
-2253 -2246 -2250 0
-2246 -2251 0
-2253 -2246 -2251 0
-2261 2252 2262 0
-2257 2252 2262 0
-2257 -2261 2262 0
-2262 2248 0
-2258 2248 0
-2262 -2258 2249 0
-2259 2249 0
-2262 -2259 2250 0
-2260 2250 0
-2262 -2260 2251 0
-2254 2248 0
-2262 -2254 2249 0
-2255 2249 0
-2262 -2255 2250 0
-2256 2250 0
-2262 -2256 2251 0
-2254 -2258 2249 0
-2262 -2254 -2258 2250 0
-2254 -2259 2250 0
-2262 -2254 -2259 2251 0
-2254 -2260 2251 0
-2262 -2254 -2260 0
-2255 -2258 2250 0
-2262 -2255 -2258 2251 0
-2255 -2259 2251 0
-2262 -2255 -2259 0
-2255 -2260 0
-2262 -2255 -2260 0
-2256 -2258 2251 0
-2262 -2256 -2258 0
-2256 -2259 0
-2262 -2256 -2259 0
-2256 -2260 0
-2262 -2256 -2260 0
-2266 2261 2267 0
-2264 2261 2267 0
-2264 -2266 2267 0
-2267 2258 0
-2265 2258 0
-2267 -2265 2259 0
-2263 2258 0
-2267 -2263 2259 0
-2263 -2265 2259 0
-2267 -2263 -2265 2260 0
-360 2266 2270 0
-2269 2266 2270 0
-2269 -360 2270 0
-2270 2265 0
-2268 2265 0
-2270 -2268 0
-359 2269 2271 0
-358 2269 2271 0
-358 -359 2271 0
-2271 2268 0
-357 2264 2274 0
-2273 2264 2274 0
-2273 -357 2274 0
-2274 2263 0
-2272 2263 0
-2274 -2272 0
-356 2273 2275 0
-355 2273 2275 0
-355 -356 2275 0
-2275 2272 0
-2279 2257 2280 0
-2277 2257 2280 0
-2277 -2279 2280 0
-2280 2254 0
-2278 2254 0
-2280 -2278 2255 0
-2276 2254 0
-2280 -2276 2255 0
-2276 -2278 2255 0
-2280 -2276 -2278 2256 0
-354 2279 2283 0
-2282 2279 2283 0
-2282 -354 2283 0
-2283 2278 0
-2281 2278 0
-2283 -2281 0
-353 2282 2284 0
-352 2282 2284 0
-352 -353 2284 0
-2284 2281 0
-351 2277 2287 0
-2286 2277 2287 0
-2286 -351 2287 0
-2287 2276 0
-2285 2276 0
-2287 -2285 0
-350 2286 2288 0
-349 2286 2288 0
-349 -350 2288 0
-2288 2285 0
-2296 2247 2297 0
-2292 2247 2297 0
-2292 -2296 2297 0
-2297 2243 0
-2293 2243 0
-2297 -2293 2244 0
-2294 2244 0
-2297 -2294 2245 0
-2295 2245 0
-2297 -2295 2246 0
-2289 2243 0
-2297 -2289 2244 0
-2290 2244 0
-2297 -2290 2245 0
-2291 2245 0
-2297 -2291 2246 0
-2289 -2293 2244 0
-2297 -2289 -2293 2245 0
-2289 -2294 2245 0
-2297 -2289 -2294 2246 0
-2289 -2295 2246 0
-2297 -2289 -2295 0
-2290 -2293 2245 0
-2297 -2290 -2293 2246 0
-2290 -2294 2246 0
-2297 -2290 -2294 0
-2290 -2295 0
-2297 -2290 -2295 0
-2291 -2293 2246 0
-2297 -2291 -2293 0
-2291 -2294 0
-2297 -2291 -2294 0
-2291 -2295 0
-2297 -2291 -2295 0
-2301 2296 2302 0
-2299 2296 2302 0
-2299 -2301 2302 0
-2302 2293 0
-2300 2293 0
-2302 -2300 2294 0
-2298 2293 0
-2302 -2298 2294 0
-2298 -2300 2294 0
-2302 -2298 -2300 2295 0
-348 2301 2305 0
-2304 2301 2305 0
-2304 -348 2305 0
-2305 2300 0
-2303 2300 0
-2305 -2303 0
-347 2304 2306 0
-346 2304 2306 0
-346 -347 2306 0
-2306 2303 0
-345 2299 2309 0
-2308 2299 2309 0
-2308 -345 2309 0
-2309 2298 0
-2307 2298 0
-2309 -2307 0
-344 2308 2310 0
-343 2308 2310 0
-343 -344 2310 0
-2310 2307 0
-2314 2292 2315 0
-2312 2292 2315 0
-2312 -2314 2315 0
-2315 2289 0
-2313 2289 0
-2315 -2313 2290 0
-2311 2289 0
-2315 -2311 2290 0
-2311 -2313 2290 0
-2315 -2311 -2313 2291 0
-342 2314 2318 0
-2317 2314 2318 0
-2317 -342 2318 0
-2318 2313 0
-2316 2313 0
-2318 -2316 0
-341 2317 2319 0
-340 2317 2319 0
-340 -341 2319 0
-2319 2316 0
-339 2312 2322 0
-2321 2312 2322 0
-2321 -339 2322 0
-2322 2311 0
-2320 2311 0
-2322 -2320 0
-338 2321 2323 0
-337 2321 2323 0
-337 -338 2323 0
-2323 2320 0
-2333 2144 2334 0
-2328 2144 2334 0
-2328 -2333 2334 0
-2334 2140 0
-2329 2140 0
-2334 -2329 2141 0
-2330 2141 0
-2334 -2330 2142 0
-2331 2142 0
-2334 -2331 2143 0
-2332 2143 0
-2334 -2332 0
-2324 2140 0
-2334 -2324 2141 0
-2325 2141 0
-2334 -2325 2142 0
-2326 2142 0
-2334 -2326 2143 0
-2327 2143 0
-2334 -2327 0
-2324 -2329 2141 0
-2334 -2324 -2329 2142 0
-2324 -2330 2142 0
-2334 -2324 -2330 2143 0
-2324 -2331 2143 0
-2334 -2324 -2331 0
-2324 -2332 0
-2334 -2324 -2332 0
-2325 -2329 2142 0
-2334 -2325 -2329 2143 0
-2325 -2330 2143 0
-2334 -2325 -2330 0
-2325 -2331 0
-2334 -2325 -2331 0
-2325 -2332 0
-2334 -2325 -2332 0
-2326 -2329 2143 0
-2334 -2326 -2329 0
-2326 -2330 0
-2334 -2326 -2330 0
-2326 -2331 0
-2334 -2326 -2331 0
-2326 -2332 0
-2334 -2326 -2332 0
-2327 -2329 0
-2334 -2327 -2329 0
-2327 -2330 0
-2334 -2327 -2330 0
-2327 -2331 0
-2334 -2327 -2331 0
-2327 -2332 0
-2334 -2327 -2332 0
-2344 2333 2345 0
-2339 2333 2345 0
-2339 -2344 2345 0
-2345 2329 0
-2340 2329 0
-2345 -2340 2330 0
-2341 2330 0
-2345 -2341 2331 0
-2342 2331 0
-2345 -2342 2332 0
-2343 2332 0
-2345 -2343 0
-2335 2329 0
-2345 -2335 2330 0
-2336 2330 0
-2345 -2336 2331 0
-2337 2331 0
-2345 -2337 2332 0
-2338 2332 0
-2345 -2338 0
-2335 -2340 2330 0
-2345 -2335 -2340 2331 0
-2335 -2341 2331 0
-2345 -2335 -2341 2332 0
-2335 -2342 2332 0
-2345 -2335 -2342 0
-2335 -2343 0
-2345 -2335 -2343 0
-2336 -2340 2331 0
-2345 -2336 -2340 2332 0
-2336 -2341 2332 0
-2345 -2336 -2341 0
-2336 -2342 0
-2345 -2336 -2342 0
-2336 -2343 0
-2345 -2336 -2343 0
-2337 -2340 2332 0
-2345 -2337 -2340 0
-2337 -2341 0
-2345 -2337 -2341 0
-2337 -2342 0
-2345 -2337 -2342 0
-2337 -2343 0
-2345 -2337 -2343 0
-2338 -2340 0
-2345 -2338 -2340 0
-2338 -2341 0
-2345 -2338 -2341 0
-2338 -2342 0
-2345 -2338 -2342 0
-2338 -2343 0
-2345 -2338 -2343 0
-2353 2344 2354 0
-2349 2344 2354 0
-2349 -2353 2354 0
-2354 2340 0
-2350 2340 0
-2354 -2350 2341 0
-2351 2341 0
-2354 -2351 2342 0
-2352 2342 0
-2354 -2352 2343 0
-2346 2340 0
-2354 -2346 2341 0
-2347 2341 0
-2354 -2347 2342 0
-2348 2342 0
-2354 -2348 2343 0
-2346 -2350 2341 0
-2354 -2346 -2350 2342 0
-2346 -2351 2342 0
-2354 -2346 -2351 2343 0
-2346 -2352 2343 0
-2354 -2346 -2352 0
-2347 -2350 2342 0
-2354 -2347 -2350 2343 0
-2347 -2351 2343 0
-2354 -2347 -2351 0
-2347 -2352 0
-2354 -2347 -2352 0
-2348 -2350 2343 0
-2354 -2348 -2350 0
-2348 -2351 0
-2354 -2348 -2351 0
-2348 -2352 0
-2354 -2348 -2352 0
-2358 2353 2359 0
-2356 2353 2359 0
-2356 -2358 2359 0
-2359 2350 0
-2357 2350 0
-2359 -2357 2351 0
-2355 2350 0
-2359 -2355 2351 0
-2355 -2357 2351 0
-2359 -2355 -2357 2352 0
-336 2358 2362 0
-2361 2358 2362 0
-2361 -336 2362 0
-2362 2357 0
-2360 2357 0
-2362 -2360 0
-335 2361 2363 0
-334 2361 2363 0
-334 -335 2363 0
-2363 2360 0
-333 2356 2366 0
-2365 2356 2366 0
-2365 -333 2366 0
-2366 2355 0
-2364 2355 0
-2366 -2364 0
-332 2365 2367 0
-331 2365 2367 0
-331 -332 2367 0
-2367 2364 0
-2371 2349 2372 0
-2369 2349 2372 0
-2369 -2371 2372 0
-2372 2346 0
-2370 2346 0
-2372 -2370 2347 0
-2368 2346 0
-2372 -2368 2347 0
-2368 -2370 2347 0
-2372 -2368 -2370 2348 0
-330 2371 2375 0
-2374 2371 2375 0
-2374 -330 2375 0
-2375 2370 0
-2373 2370 0
-2375 -2373 0
-329 2374 2376 0
-328 2374 2376 0
-328 -329 2376 0
-2376 2373 0
-327 2369 2379 0
-2378 2369 2379 0
-2378 -327 2379 0
-2379 2368 0
-2377 2368 0
-2379 -2377 0
-326 2378 2380 0
-325 2378 2380 0
-325 -326 2380 0
-2380 2377 0
-2388 2339 2389 0
-2384 2339 2389 0
-2384 -2388 2389 0
-2389 2335 0
-2385 2335 0
-2389 -2385 2336 0
-2386 2336 0
-2389 -2386 2337 0
-2387 2337 0
-2389 -2387 2338 0
-2381 2335 0
-2389 -2381 2336 0
-2382 2336 0
-2389 -2382 2337 0
-2383 2337 0
-2389 -2383 2338 0
-2381 -2385 2336 0
-2389 -2381 -2385 2337 0
-2381 -2386 2337 0
-2389 -2381 -2386 2338 0
-2381 -2387 2338 0
-2389 -2381 -2387 0
-2382 -2385 2337 0
-2389 -2382 -2385 2338 0
-2382 -2386 2338 0
-2389 -2382 -2386 0
-2382 -2387 0
-2389 -2382 -2387 0
-2383 -2385 2338 0
-2389 -2383 -2385 0
-2383 -2386 0
-2389 -2383 -2386 0
-2383 -2387 0
-2389 -2383 -2387 0
-2393 2388 2394 0
-2391 2388 2394 0
-2391 -2393 2394 0
-2394 2385 0
-2392 2385 0
-2394 -2392 2386 0
-2390 2385 0
-2394 -2390 2386 0
-2390 -2392 2386 0
-2394 -2390 -2392 2387 0
-324 2393 2397 0
-2396 2393 2397 0
-2396 -324 2397 0
-2397 2392 0
-2395 2392 0
-2397 -2395 0
-323 2396 2398 0
-322 2396 2398 0
-322 -323 2398 0
-2398 2395 0
-321 2391 2401 0
-2400 2391 2401 0
-2400 -321 2401 0
-2401 2390 0
-2399 2390 0
-2401 -2399 0
-320 2400 2402 0
-319 2400 2402 0
-319 -320 2402 0
-2402 2399 0
-2406 2384 2407 0
-2404 2384 2407 0
-2404 -2406 2407 0
-2407 2381 0
-2405 2381 0
-2407 -2405 2382 0
-2403 2381 0
-2407 -2403 2382 0
-2403 -2405 2382 0
-2407 -2403 -2405 2383 0
-318 2406 2410 0
-2409 2406 2410 0
-2409 -318 2410 0
-2410 2405 0
-2408 2405 0
-2410 -2408 0
-317 2409 2411 0
-316 2409 2411 0
-316 -317 2411 0
-2411 2408 0
-315 2404 2414 0
-2413 2404 2414 0
-2413 -315 2414 0
-2414 2403 0
-2412 2403 0
-2414 -2412 0
-314 2413 2415 0
-313 2413 2415 0
-313 -314 2415 0
-2415 2412 0
-2425 2328 2426 0
-2420 2328 2426 0
-2420 -2425 2426 0
-2426 2324 0
-2421 2324 0
-2426 -2421 2325 0
-2422 2325 0
-2426 -2422 2326 0
-2423 2326 0
-2426 -2423 2327 0
-2424 2327 0
-2426 -2424 0
-2416 2324 0
-2426 -2416 2325 0
-2417 2325 0
-2426 -2417 2326 0
-2418 2326 0
-2426 -2418 2327 0
-2419 2327 0
-2426 -2419 0
-2416 -2421 2325 0
-2426 -2416 -2421 2326 0
-2416 -2422 2326 0
-2426 -2416 -2422 2327 0
-2416 -2423 2327 0
-2426 -2416 -2423 0
-2416 -2424 0
-2426 -2416 -2424 0
-2417 -2421 2326 0
-2426 -2417 -2421 2327 0
-2417 -2422 2327 0
-2426 -2417 -2422 0
-2417 -2423 0
-2426 -2417 -2423 0
-2417 -2424 0
-2426 -2417 -2424 0
-2418 -2421 2327 0
-2426 -2418 -2421 0
-2418 -2422 0
-2426 -2418 -2422 0
-2418 -2423 0
-2426 -2418 -2423 0
-2418 -2424 0
-2426 -2418 -2424 0
-2419 -2421 0
-2426 -2419 -2421 0
-2419 -2422 0
-2426 -2419 -2422 0
-2419 -2423 0
-2426 -2419 -2423 0
-2419 -2424 0
-2426 -2419 -2424 0
-2434 2425 2435 0
-2430 2425 2435 0
-2430 -2434 2435 0
-2435 2421 0
-2431 2421 0
-2435 -2431 2422 0
-2432 2422 0
-2435 -2432 2423 0
-2433 2423 0
-2435 -2433 2424 0
-2427 2421 0
-2435 -2427 2422 0
-2428 2422 0
-2435 -2428 2423 0
-2429 2423 0
-2435 -2429 2424 0
-2427 -2431 2422 0
-2435 -2427 -2431 2423 0
-2427 -2432 2423 0
-2435 -2427 -2432 2424 0
-2427 -2433 2424 0
-2435 -2427 -2433 0
-2428 -2431 2423 0
-2435 -2428 -2431 2424 0
-2428 -2432 2424 0
-2435 -2428 -2432 0
-2428 -2433 0
-2435 -2428 -2433 0
-2429 -2431 2424 0
-2435 -2429 -2431 0
-2429 -2432 0
-2435 -2429 -2432 0
-2429 -2433 0
-2435 -2429 -2433 0
-2439 2434 2440 0
-2437 2434 2440 0
-2437 -2439 2440 0
-2440 2431 0
-2438 2431 0
-2440 -2438 2432 0
-2436 2431 0
-2440 -2436 2432 0
-2436 -2438 2432 0
-2440 -2436 -2438 2433 0
-312 2439 2443 0
-2442 2439 2443 0
-2442 -312 2443 0
-2443 2438 0
-2441 2438 0
-2443 -2441 0
-311 2442 2444 0
-310 2442 2444 0
-310 -311 2444 0
-2444 2441 0
-309 2437 2447 0
-2446 2437 2447 0
-2446 -309 2447 0
-2447 2436 0
-2445 2436 0
-2447 -2445 0
-308 2446 2448 0
-307 2446 2448 0
-307 -308 2448 0
-2448 2445 0
-2452 2430 2453 0
-2450 2430 2453 0
-2450 -2452 2453 0
-2453 2427 0
-2451 2427 0
-2453 -2451 2428 0
-2449 2427 0
-2453 -2449 2428 0
-2449 -2451 2428 0
-2453 -2449 -2451 2429 0
-306 2452 2456 0
-2455 2452 2456 0
-2455 -306 2456 0
-2456 2451 0
-2454 2451 0
-2456 -2454 0
-305 2455 2457 0
-304 2455 2457 0
-304 -305 2457 0
-2457 2454 0
-303 2450 2460 0
-2459 2450 2460 0
-2459 -303 2460 0
-2460 2449 0
-2458 2449 0
-2460 -2458 0
-302 2459 2461 0
-301 2459 2461 0
-301 -302 2461 0
-2461 2458 0
-2469 2420 2470 0
-2465 2420 2470 0
-2465 -2469 2470 0
-2470 2416 0
-2466 2416 0
-2470 -2466 2417 0
-2467 2417 0
-2470 -2467 2418 0
-2468 2418 0
-2470 -2468 2419 0
-2462 2416 0
-2470 -2462 2417 0
-2463 2417 0
-2470 -2463 2418 0
-2464 2418 0
-2470 -2464 2419 0
-2462 -2466 2417 0
-2470 -2462 -2466 2418 0
-2462 -2467 2418 0
-2470 -2462 -2467 2419 0
-2462 -2468 2419 0
-2470 -2462 -2468 0
-2463 -2466 2418 0
-2470 -2463 -2466 2419 0
-2463 -2467 2419 0
-2470 -2463 -2467 0
-2463 -2468 0
-2470 -2463 -2468 0
-2464 -2466 2419 0
-2470 -2464 -2466 0
-2464 -2467 0
-2470 -2464 -2467 0
-2464 -2468 0
-2470 -2464 -2468 0
-2474 2469 2475 0
-2472 2469 2475 0
-2472 -2474 2475 0
-2475 2466 0
-2473 2466 0
-2475 -2473 2467 0
-2471 2466 0
-2475 -2471 2467 0
-2471 -2473 2467 0
-2475 -2471 -2473 2468 0
-300 2474 2478 0
-2477 2474 2478 0
-2477 -300 2478 0
-2478 2473 0
-2476 2473 0
-2478 -2476 0
-299 2477 2479 0
-298 2477 2479 0
-298 -299 2479 0
-2479 2476 0
-297 2472 2482 0
-2481 2472 2482 0
-2481 -297 2482 0
-2482 2471 0
-2480 2471 0
-2482 -2480 0
-296 2481 2483 0
-295 2481 2483 0
-295 -296 2483 0
-2483 2480 0
-2487 2465 2488 0
-2485 2465 2488 0
-2485 -2487 2488 0
-2488 2462 0
-2486 2462 0
-2488 -2486 2463 0
-2484 2462 0
-2488 -2484 2463 0
-2484 -2486 2463 0
-2488 -2484 -2486 2464 0
-294 2487 2491 0
-2490 2487 2491 0
-2490 -294 2491 0
-2491 2486 0
-2489 2486 0
-2491 -2489 0
-293 2490 2492 0
-292 2490 2492 0
-292 -293 2492 0
-2492 2489 0
-291 2485 2495 0
-2494 2485 2495 0
-2494 -291 2495 0
-2495 2484 0
-2493 2484 0
-2495 -2493 0
-290 2494 2496 0
-289 2494 2496 0
-289 -290 2496 0
-2496 2493 0
-2506 2133 2507 0
-2501 2133 2507 0
-2501 -2506 2507 0
-2507 2129 0
-2502 2129 0
-2507 -2502 2130 0
-2503 2130 0
-2507 -2503 2131 0
-2504 2131 0
-2507 -2504 2132 0
-2505 2132 0
-2507 -2505 0
-2497 2129 0
-2507 -2497 2130 0
-2498 2130 0
-2507 -2498 2131 0
-2499 2131 0
-2507 -2499 2132 0
-2500 2132 0
-2507 -2500 0
-2497 -2502 2130 0
-2507 -2497 -2502 2131 0
-2497 -2503 2131 0
-2507 -2497 -2503 2132 0
-2497 -2504 2132 0
-2507 -2497 -2504 0
-2497 -2505 0
-2507 -2497 -2505 0
-2498 -2502 2131 0
-2507 -2498 -2502 2132 0
-2498 -2503 2132 0
-2507 -2498 -2503 0
-2498 -2504 0
-2507 -2498 -2504 0
-2498 -2505 0
-2507 -2498 -2505 0
-2499 -2502 2132 0
-2507 -2499 -2502 0
-2499 -2503 0
-2507 -2499 -2503 0
-2499 -2504 0
-2507 -2499 -2504 0
-2499 -2505 0
-2507 -2499 -2505 0
-2500 -2502 0
-2507 -2500 -2502 0
-2500 -2503 0
-2507 -2500 -2503 0
-2500 -2504 0
-2507 -2500 -2504 0
-2500 -2505 0
-2507 -2500 -2505 0
-2517 2506 2518 0
-2512 2506 2518 0
-2512 -2517 2518 0
-2518 2502 0
-2513 2502 0
-2518 -2513 2503 0
-2514 2503 0
-2518 -2514 2504 0
-2515 2504 0
-2518 -2515 2505 0
-2516 2505 0
-2518 -2516 0
-2508 2502 0
-2518 -2508 2503 0
-2509 2503 0
-2518 -2509 2504 0
-2510 2504 0
-2518 -2510 2505 0
-2511 2505 0
-2518 -2511 0
-2508 -2513 2503 0
-2518 -2508 -2513 2504 0
-2508 -2514 2504 0
-2518 -2508 -2514 2505 0
-2508 -2515 2505 0
-2518 -2508 -2515 0
-2508 -2516 0
-2518 -2508 -2516 0
-2509 -2513 2504 0
-2518 -2509 -2513 2505 0
-2509 -2514 2505 0
-2518 -2509 -2514 0
-2509 -2515 0
-2518 -2509 -2515 0
-2509 -2516 0
-2518 -2509 -2516 0
-2510 -2513 2505 0
-2518 -2510 -2513 0
-2510 -2514 0
-2518 -2510 -2514 0
-2510 -2515 0
-2518 -2510 -2515 0
-2510 -2516 0
-2518 -2510 -2516 0
-2511 -2513 0
-2518 -2511 -2513 0
-2511 -2514 0
-2518 -2511 -2514 0
-2511 -2515 0
-2518 -2511 -2515 0
-2511 -2516 0
-2518 -2511 -2516 0
-2528 2517 2529 0
-2523 2517 2529 0
-2523 -2528 2529 0
-2529 2513 0
-2524 2513 0
-2529 -2524 2514 0
-2525 2514 0
-2529 -2525 2515 0
-2526 2515 0
-2529 -2526 2516 0
-2527 2516 0
-2529 -2527 0
-2519 2513 0
-2529 -2519 2514 0
-2520 2514 0
-2529 -2520 2515 0
-2521 2515 0
-2529 -2521 2516 0
-2522 2516 0
-2529 -2522 0
-2519 -2524 2514 0
-2529 -2519 -2524 2515 0
-2519 -2525 2515 0
-2529 -2519 -2525 2516 0
-2519 -2526 2516 0
-2529 -2519 -2526 0
-2519 -2527 0
-2529 -2519 -2527 0
-2520 -2524 2515 0
-2529 -2520 -2524 2516 0
-2520 -2525 2516 0
-2529 -2520 -2525 0
-2520 -2526 0
-2529 -2520 -2526 0
-2520 -2527 0
-2529 -2520 -2527 0
-2521 -2524 2516 0
-2529 -2521 -2524 0
-2521 -2525 0
-2529 -2521 -2525 0
-2521 -2526 0
-2529 -2521 -2526 0
-2521 -2527 0
-2529 -2521 -2527 0
-2522 -2524 0
-2529 -2522 -2524 0
-2522 -2525 0
-2529 -2522 -2525 0
-2522 -2526 0
-2529 -2522 -2526 0
-2522 -2527 0
-2529 -2522 -2527 0
-2537 2528 2538 0
-2533 2528 2538 0
-2533 -2537 2538 0
-2538 2524 0
-2534 2524 0
-2538 -2534 2525 0
-2535 2525 0
-2538 -2535 2526 0
-2536 2526 0
-2538 -2536 2527 0
-2530 2524 0
-2538 -2530 2525 0
-2531 2525 0
-2538 -2531 2526 0
-2532 2526 0
-2538 -2532 2527 0
-2530 -2534 2525 0
-2538 -2530 -2534 2526 0
-2530 -2535 2526 0
-2538 -2530 -2535 2527 0
-2530 -2536 2527 0
-2538 -2530 -2536 0
-2531 -2534 2526 0
-2538 -2531 -2534 2527 0
-2531 -2535 2527 0
-2538 -2531 -2535 0
-2531 -2536 0
-2538 -2531 -2536 0
-2532 -2534 2527 0
-2538 -2532 -2534 0
-2532 -2535 0
-2538 -2532 -2535 0
-2532 -2536 0
-2538 -2532 -2536 0
-2542 2537 2543 0
-2540 2537 2543 0
-2540 -2542 2543 0
-2543 2534 0
-2541 2534 0
-2543 -2541 2535 0
-2539 2534 0
-2543 -2539 2535 0
-2539 -2541 2535 0
-2543 -2539 -2541 2536 0
-288 2542 2546 0
-2545 2542 2546 0
-2545 -288 2546 0
-2546 2541 0
-2544 2541 0
-2546 -2544 0
-287 2545 2547 0
-286 2545 2547 0
-286 -287 2547 0
-2547 2544 0
-285 2540 2550 0
-2549 2540 2550 0
-2549 -285 2550 0
-2550 2539 0
-2548 2539 0
-2550 -2548 0
-284 2549 2551 0
-283 2549 2551 0
-283 -284 2551 0
-2551 2548 0
-2555 2533 2556 0
-2553 2533 2556 0
-2553 -2555 2556 0
-2556 2530 0
-2554 2530 0
-2556 -2554 2531 0
-2552 2530 0
-2556 -2552 2531 0
-2552 -2554 2531 0
-2556 -2552 -2554 2532 0
-282 2555 2559 0
-2558 2555 2559 0
-2558 -282 2559 0
-2559 2554 0
-2557 2554 0
-2559 -2557 0
-281 2558 2560 0
-280 2558 2560 0
-280 -281 2560 0
-2560 2557 0
-279 2553 2563 0
-2562 2553 2563 0
-2562 -279 2563 0
-2563 2552 0
-2561 2552 0
-2563 -2561 0
-278 2562 2564 0
-277 2562 2564 0
-277 -278 2564 0
-2564 2561 0
-2572 2523 2573 0
-2568 2523 2573 0
-2568 -2572 2573 0
-2573 2519 0
-2569 2519 0
-2573 -2569 2520 0
-2570 2520 0
-2573 -2570 2521 0
-2571 2521 0
-2573 -2571 2522 0
-2565 2519 0
-2573 -2565 2520 0
-2566 2520 0
-2573 -2566 2521 0
-2567 2521 0
-2573 -2567 2522 0
-2565 -2569 2520 0
-2573 -2565 -2569 2521 0
-2565 -2570 2521 0
-2573 -2565 -2570 2522 0
-2565 -2571 2522 0
-2573 -2565 -2571 0
-2566 -2569 2521 0
-2573 -2566 -2569 2522 0
-2566 -2570 2522 0
-2573 -2566 -2570 0
-2566 -2571 0
-2573 -2566 -2571 0
-2567 -2569 2522 0
-2573 -2567 -2569 0
-2567 -2570 0
-2573 -2567 -2570 0
-2567 -2571 0
-2573 -2567 -2571 0
-2577 2572 2578 0
-2575 2572 2578 0
-2575 -2577 2578 0
-2578 2569 0
-2576 2569 0
-2578 -2576 2570 0
-2574 2569 0
-2578 -2574 2570 0
-2574 -2576 2570 0
-2578 -2574 -2576 2571 0
-276 2577 2581 0
-2580 2577 2581 0
-2580 -276 2581 0
-2581 2576 0
-2579 2576 0
-2581 -2579 0
-275 2580 2582 0
-274 2580 2582 0
-274 -275 2582 0
-2582 2579 0
-273 2575 2585 0
-2584 2575 2585 0
-2584 -273 2585 0
-2585 2574 0
-2583 2574 0
-2585 -2583 0
-272 2584 2586 0
-271 2584 2586 0
-271 -272 2586 0
-2586 2583 0
-2590 2568 2591 0
-2588 2568 2591 0
-2588 -2590 2591 0
-2591 2565 0
-2589 2565 0
-2591 -2589 2566 0
-2587 2565 0
-2591 -2587 2566 0
-2587 -2589 2566 0
-2591 -2587 -2589 2567 0
-270 2590 2594 0
-2593 2590 2594 0
-2593 -270 2594 0
-2594 2589 0
-2592 2589 0
-2594 -2592 0
-269 2593 2595 0
-268 2593 2595 0
-268 -269 2595 0
-2595 2592 0
-267 2588 2598 0
-2597 2588 2598 0
-2597 -267 2598 0
-2598 2587 0
-2596 2587 0
-2598 -2596 0
-266 2597 2599 0
-265 2597 2599 0
-265 -266 2599 0
-2599 2596 0
-2609 2512 2610 0
-2604 2512 2610 0
-2604 -2609 2610 0
-2610 2508 0
-2605 2508 0
-2610 -2605 2509 0
-2606 2509 0
-2610 -2606 2510 0
-2607 2510 0
-2610 -2607 2511 0
-2608 2511 0
-2610 -2608 0
-2600 2508 0
-2610 -2600 2509 0
-2601 2509 0
-2610 -2601 2510 0
-2602 2510 0
-2610 -2602 2511 0
-2603 2511 0
-2610 -2603 0
-2600 -2605 2509 0
-2610 -2600 -2605 2510 0
-2600 -2606 2510 0
-2610 -2600 -2606 2511 0
-2600 -2607 2511 0
-2610 -2600 -2607 0
-2600 -2608 0
-2610 -2600 -2608 0
-2601 -2605 2510 0
-2610 -2601 -2605 2511 0
-2601 -2606 2511 0
-2610 -2601 -2606 0
-2601 -2607 0
-2610 -2601 -2607 0
-2601 -2608 0
-2610 -2601 -2608 0
-2602 -2605 2511 0
-2610 -2602 -2605 0
-2602 -2606 0
-2610 -2602 -2606 0
-2602 -2607 0
-2610 -2602 -2607 0
-2602 -2608 0
-2610 -2602 -2608 0
-2603 -2605 0
-2610 -2603 -2605 0
-2603 -2606 0
-2610 -2603 -2606 0
-2603 -2607 0
-2610 -2603 -2607 0
-2603 -2608 0
-2610 -2603 -2608 0
-2618 2609 2619 0
-2614 2609 2619 0
-2614 -2618 2619 0
-2619 2605 0
-2615 2605 0
-2619 -2615 2606 0
-2616 2606 0
-2619 -2616 2607 0
-2617 2607 0
-2619 -2617 2608 0
-2611 2605 0
-2619 -2611 2606 0
-2612 2606 0
-2619 -2612 2607 0
-2613 2607 0
-2619 -2613 2608 0
-2611 -2615 2606 0
-2619 -2611 -2615 2607 0
-2611 -2616 2607 0
-2619 -2611 -2616 2608 0
-2611 -2617 2608 0
-2619 -2611 -2617 0
-2612 -2615 2607 0
-2619 -2612 -2615 2608 0
-2612 -2616 2608 0
-2619 -2612 -2616 0
-2612 -2617 0
-2619 -2612 -2617 0
-2613 -2615 2608 0
-2619 -2613 -2615 0
-2613 -2616 0
-2619 -2613 -2616 0
-2613 -2617 0
-2619 -2613 -2617 0
-2623 2618 2624 0
-2621 2618 2624 0
-2621 -2623 2624 0
-2624 2615 0
-2622 2615 0
-2624 -2622 2616 0
-2620 2615 0
-2624 -2620 2616 0
-2620 -2622 2616 0
-2624 -2620 -2622 2617 0
-264 2623 2627 0
-2626 2623 2627 0
-2626 -264 2627 0
-2627 2622 0
-2625 2622 0
-2627 -2625 0
-263 2626 2628 0
-262 2626 2628 0
-262 -263 2628 0
-2628 2625 0
-261 2621 2631 0
-2630 2621 2631 0
-2630 -261 2631 0
-2631 2620 0
-2629 2620 0
-2631 -2629 0
-260 2630 2632 0
-259 2630 2632 0
-259 -260 2632 0
-2632 2629 0
-2636 2614 2637 0
-2634 2614 2637 0
-2634 -2636 2637 0
-2637 2611 0
-2635 2611 0
-2637 -2635 2612 0
-2633 2611 0
-2637 -2633 2612 0
-2633 -2635 2612 0
-2637 -2633 -2635 2613 0
-258 2636 2640 0
-2639 2636 2640 0
-2639 -258 2640 0
-2640 2635 0
-2638 2635 0
-2640 -2638 0
-257 2639 2641 0
-256 2639 2641 0
-256 -257 2641 0
-2641 2638 0
-255 2634 2644 0
-2643 2634 2644 0
-2643 -255 2644 0
-2644 2633 0
-2642 2633 0
-2644 -2642 0
-254 2643 2645 0
-253 2643 2645 0
-253 -254 2645 0
-2645 2642 0
-2653 2604 2654 0
-2649 2604 2654 0
-2649 -2653 2654 0
-2654 2600 0
-2650 2600 0
-2654 -2650 2601 0
-2651 2601 0
-2654 -2651 2602 0
-2652 2602 0
-2654 -2652 2603 0
-2646 2600 0
-2654 -2646 2601 0
-2647 2601 0
-2654 -2647 2602 0
-2648 2602 0
-2654 -2648 2603 0
-2646 -2650 2601 0
-2654 -2646 -2650 2602 0
-2646 -2651 2602 0
-2654 -2646 -2651 2603 0
-2646 -2652 2603 0
-2654 -2646 -2652 0
-2647 -2650 2602 0
-2654 -2647 -2650 2603 0
-2647 -2651 2603 0
-2654 -2647 -2651 0
-2647 -2652 0
-2654 -2647 -2652 0
-2648 -2650 2603 0
-2654 -2648 -2650 0
-2648 -2651 0
-2654 -2648 -2651 0
-2648 -2652 0
-2654 -2648 -2652 0
-2658 2653 2659 0
-2656 2653 2659 0
-2656 -2658 2659 0
-2659 2650 0
-2657 2650 0
-2659 -2657 2651 0
-2655 2650 0
-2659 -2655 2651 0
-2655 -2657 2651 0
-2659 -2655 -2657 2652 0
-252 2658 2662 0
-2661 2658 2662 0
-2661 -252 2662 0
-2662 2657 0
-2660 2657 0
-2662 -2660 0
-251 2661 2663 0
-250 2661 2663 0
-250 -251 2663 0
-2663 2660 0
-249 2656 2666 0
-2665 2656 2666 0
-2665 -249 2666 0
-2666 2655 0
-2664 2655 0
-2666 -2664 0
-248 2665 2667 0
-247 2665 2667 0
-247 -248 2667 0
-2667 2664 0
-2671 2649 2672 0
-2669 2649 2672 0
-2669 -2671 2672 0
-2672 2646 0
-2670 2646 0
-2672 -2670 2647 0
-2668 2646 0
-2672 -2668 2647 0
-2668 -2670 2647 0
-2672 -2668 -2670 2648 0
-246 2671 2675 0
-2674 2671 2675 0
-2674 -246 2675 0
-2675 2670 0
-2673 2670 0
-2675 -2673 0
-245 2674 2676 0
-244 2674 2676 0
-244 -245 2676 0
-2676 2673 0
-243 2669 2679 0
-2678 2669 2679 0
-2678 -243 2679 0
-2679 2668 0
-2677 2668 0
-2679 -2677 0
-242 2678 2680 0
-241 2678 2680 0
-241 -242 2680 0
-2680 2677 0
-2690 2501 2691 0
-2685 2501 2691 0
-2685 -2690 2691 0
-2691 2497 0
-2686 2497 0
-2691 -2686 2498 0
-2687 2498 0
-2691 -2687 2499 0
-2688 2499 0
-2691 -2688 2500 0
-2689 2500 0
-2691 -2689 0
-2681 2497 0
-2691 -2681 2498 0
-2682 2498 0
-2691 -2682 2499 0
-2683 2499 0
-2691 -2683 2500 0
-2684 2500 0
-2691 -2684 0
-2681 -2686 2498 0
-2691 -2681 -2686 2499 0
-2681 -2687 2499 0
-2691 -2681 -2687 2500 0
-2681 -2688 2500 0
-2691 -2681 -2688 0
-2681 -2689 0
-2691 -2681 -2689 0
-2682 -2686 2499 0
-2691 -2682 -2686 2500 0
-2682 -2687 2500 0
-2691 -2682 -2687 0
-2682 -2688 0
-2691 -2682 -2688 0
-2682 -2689 0
-2691 -2682 -2689 0
-2683 -2686 2500 0
-2691 -2683 -2686 0
-2683 -2687 0
-2691 -2683 -2687 0
-2683 -2688 0
-2691 -2683 -2688 0
-2683 -2689 0
-2691 -2683 -2689 0
-2684 -2686 0
-2691 -2684 -2686 0
-2684 -2687 0
-2691 -2684 -2687 0
-2684 -2688 0
-2691 -2684 -2688 0
-2684 -2689 0
-2691 -2684 -2689 0
-2701 2690 2702 0
-2696 2690 2702 0
-2696 -2701 2702 0
-2702 2686 0
-2697 2686 0
-2702 -2697 2687 0
-2698 2687 0
-2702 -2698 2688 0
-2699 2688 0
-2702 -2699 2689 0
-2700 2689 0
-2702 -2700 0
-2692 2686 0
-2702 -2692 2687 0
-2693 2687 0
-2702 -2693 2688 0
-2694 2688 0
-2702 -2694 2689 0
-2695 2689 0
-2702 -2695 0
-2692 -2697 2687 0
-2702 -2692 -2697 2688 0
-2692 -2698 2688 0
-2702 -2692 -2698 2689 0
-2692 -2699 2689 0
-2702 -2692 -2699 0
-2692 -2700 0
-2702 -2692 -2700 0
-2693 -2697 2688 0
-2702 -2693 -2697 2689 0
-2693 -2698 2689 0
-2702 -2693 -2698 0
-2693 -2699 0
-2702 -2693 -2699 0
-2693 -2700 0
-2702 -2693 -2700 0
-2694 -2697 2689 0
-2702 -2694 -2697 0
-2694 -2698 0
-2702 -2694 -2698 0
-2694 -2699 0
-2702 -2694 -2699 0
-2694 -2700 0
-2702 -2694 -2700 0
-2695 -2697 0
-2702 -2695 -2697 0
-2695 -2698 0
-2702 -2695 -2698 0
-2695 -2699 0
-2702 -2695 -2699 0
-2695 -2700 0
-2702 -2695 -2700 0
-2710 2701 2711 0
-2706 2701 2711 0
-2706 -2710 2711 0
-2711 2697 0
-2707 2697 0
-2711 -2707 2698 0
-2708 2698 0
-2711 -2708 2699 0
-2709 2699 0
-2711 -2709 2700 0
-2703 2697 0
-2711 -2703 2698 0
-2704 2698 0
-2711 -2704 2699 0
-2705 2699 0
-2711 -2705 2700 0
-2703 -2707 2698 0
-2711 -2703 -2707 2699 0
-2703 -2708 2699 0
-2711 -2703 -2708 2700 0
-2703 -2709 2700 0
-2711 -2703 -2709 0
-2704 -2707 2699 0
-2711 -2704 -2707 2700 0
-2704 -2708 2700 0
-2711 -2704 -2708 0
-2704 -2709 0
-2711 -2704 -2709 0
-2705 -2707 2700 0
-2711 -2705 -2707 0
-2705 -2708 0
-2711 -2705 -2708 0
-2705 -2709 0
-2711 -2705 -2709 0
-2715 2710 2716 0
-2713 2710 2716 0
-2713 -2715 2716 0
-2716 2707 0
-2714 2707 0
-2716 -2714 2708 0
-2712 2707 0
-2716 -2712 2708 0
-2712 -2714 2708 0
-2716 -2712 -2714 2709 0
-240 2715 2719 0
-2718 2715 2719 0
-2718 -240 2719 0
-2719 2714 0
-2717 2714 0
-2719 -2717 0
-239 2718 2720 0
-238 2718 2720 0
-238 -239 2720 0
-2720 2717 0
-237 2713 2723 0
-2722 2713 2723 0
-2722 -237 2723 0
-2723 2712 0
-2721 2712 0
-2723 -2721 0
-236 2722 2724 0
-235 2722 2724 0
-235 -236 2724 0
-2724 2721 0
-2728 2706 2729 0
-2726 2706 2729 0
-2726 -2728 2729 0
-2729 2703 0
-2727 2703 0
-2729 -2727 2704 0
-2725 2703 0
-2729 -2725 2704 0
-2725 -2727 2704 0
-2729 -2725 -2727 2705 0
-234 2728 2732 0
-2731 2728 2732 0
-2731 -234 2732 0
-2732 2727 0
-2730 2727 0
-2732 -2730 0
-233 2731 2733 0
-232 2731 2733 0
-232 -233 2733 0
-2733 2730 0
-231 2726 2736 0
-2735 2726 2736 0
-2735 -231 2736 0
-2736 2725 0
-2734 2725 0
-2736 -2734 0
-230 2735 2737 0
-229 2735 2737 0
-229 -230 2737 0
-2737 2734 0
-2745 2696 2746 0
-2741 2696 2746 0
-2741 -2745 2746 0
-2746 2692 0
-2742 2692 0
-2746 -2742 2693 0
-2743 2693 0
-2746 -2743 2694 0
-2744 2694 0
-2746 -2744 2695 0
-2738 2692 0
-2746 -2738 2693 0
-2739 2693 0
-2746 -2739 2694 0
-2740 2694 0
-2746 -2740 2695 0
-2738 -2742 2693 0
-2746 -2738 -2742 2694 0
-2738 -2743 2694 0
-2746 -2738 -2743 2695 0
-2738 -2744 2695 0
-2746 -2738 -2744 0
-2739 -2742 2694 0
-2746 -2739 -2742 2695 0
-2739 -2743 2695 0
-2746 -2739 -2743 0
-2739 -2744 0
-2746 -2739 -2744 0
-2740 -2742 2695 0
-2746 -2740 -2742 0
-2740 -2743 0
-2746 -2740 -2743 0
-2740 -2744 0
-2746 -2740 -2744 0
-2750 2745 2751 0
-2748 2745 2751 0
-2748 -2750 2751 0
-2751 2742 0
-2749 2742 0
-2751 -2749 2743 0
-2747 2742 0
-2751 -2747 2743 0
-2747 -2749 2743 0
-2751 -2747 -2749 2744 0
-228 2750 2754 0
-2753 2750 2754 0
-2753 -228 2754 0
-2754 2749 0
-2752 2749 0
-2754 -2752 0
-227 2753 2755 0
-226 2753 2755 0
-226 -227 2755 0
-2755 2752 0
-225 2748 2758 0
-2757 2748 2758 0
-2757 -225 2758 0
-2758 2747 0
-2756 2747 0
-2758 -2756 0
-224 2757 2759 0
-223 2757 2759 0
-223 -224 2759 0
-2759 2756 0
-2763 2741 2764 0
-2761 2741 2764 0
-2761 -2763 2764 0
-2764 2738 0
-2762 2738 0
-2764 -2762 2739 0
-2760 2738 0
-2764 -2760 2739 0
-2760 -2762 2739 0
-2764 -2760 -2762 2740 0
-222 2763 2767 0
-2766 2763 2767 0
-2766 -222 2767 0
-2767 2762 0
-2765 2762 0
-2767 -2765 0
-221 2766 2768 0
-220 2766 2768 0
-220 -221 2768 0
-2768 2765 0
-219 2761 2771 0
-2770 2761 2771 0
-2770 -219 2771 0
-2771 2760 0
-2769 2760 0
-2771 -2769 0
-218 2770 2772 0
-217 2770 2772 0
-217 -218 2772 0
-2772 2769 0
-2782 2685 2783 0
-2777 2685 2783 0
-2777 -2782 2783 0
-2783 2681 0
-2778 2681 0
-2783 -2778 2682 0
-2779 2682 0
-2783 -2779 2683 0
-2780 2683 0
-2783 -2780 2684 0
-2781 2684 0
-2783 -2781 0
-2773 2681 0
-2783 -2773 2682 0
-2774 2682 0
-2783 -2774 2683 0
-2775 2683 0
-2783 -2775 2684 0
-2776 2684 0
-2783 -2776 0
-2773 -2778 2682 0
-2783 -2773 -2778 2683 0
-2773 -2779 2683 0
-2783 -2773 -2779 2684 0
-2773 -2780 2684 0
-2783 -2773 -2780 0
-2773 -2781 0
-2783 -2773 -2781 0
-2774 -2778 2683 0
-2783 -2774 -2778 2684 0
-2774 -2779 2684 0
-2783 -2774 -2779 0
-2774 -2780 0
-2783 -2774 -2780 0
-2774 -2781 0
-2783 -2774 -2781 0
-2775 -2778 2684 0
-2783 -2775 -2778 0
-2775 -2779 0
-2783 -2775 -2779 0
-2775 -2780 0
-2783 -2775 -2780 0
-2775 -2781 0
-2783 -2775 -2781 0
-2776 -2778 0
-2783 -2776 -2778 0
-2776 -2779 0
-2783 -2776 -2779 0
-2776 -2780 0
-2783 -2776 -2780 0
-2776 -2781 0
-2783 -2776 -2781 0
-2791 2782 2792 0
-2787 2782 2792 0
-2787 -2791 2792 0
-2792 2778 0
-2788 2778 0
-2792 -2788 2779 0
-2789 2779 0
-2792 -2789 2780 0
-2790 2780 0
-2792 -2790 2781 0
-2784 2778 0
-2792 -2784 2779 0
-2785 2779 0
-2792 -2785 2780 0
-2786 2780 0
-2792 -2786 2781 0
-2784 -2788 2779 0
-2792 -2784 -2788 2780 0
-2784 -2789 2780 0
-2792 -2784 -2789 2781 0
-2784 -2790 2781 0
-2792 -2784 -2790 0
-2785 -2788 2780 0
-2792 -2785 -2788 2781 0
-2785 -2789 2781 0
-2792 -2785 -2789 0
-2785 -2790 0
-2792 -2785 -2790 0
-2786 -2788 2781 0
-2792 -2786 -2788 0
-2786 -2789 0
-2792 -2786 -2789 0
-2786 -2790 0
-2792 -2786 -2790 0
-2796 2791 2797 0
-2794 2791 2797 0
-2794 -2796 2797 0
-2797 2788 0
-2795 2788 0
-2797 -2795 2789 0
-2793 2788 0
-2797 -2793 2789 0
-2793 -2795 2789 0
-2797 -2793 -2795 2790 0
-216 2796 2800 0
-2799 2796 2800 0
-2799 -216 2800 0
-2800 2795 0
-2798 2795 0
-2800 -2798 0
-215 2799 2801 0
-214 2799 2801 0
-214 -215 2801 0
-2801 2798 0
-213 2794 2804 0
-2803 2794 2804 0
-2803 -213 2804 0
-2804 2793 0
-2802 2793 0
-2804 -2802 0
-212 2803 2805 0
-211 2803 2805 0
-211 -212 2805 0
-2805 2802 0
-2809 2787 2810 0
-2807 2787 2810 0
-2807 -2809 2810 0
-2810 2784 0
-2808 2784 0
-2810 -2808 2785 0
-2806 2784 0
-2810 -2806 2785 0
-2806 -2808 2785 0
-2810 -2806 -2808 2786 0
-210 2809 2813 0
-2812 2809 2813 0
-2812 -210 2813 0
-2813 2808 0
-2811 2808 0
-2813 -2811 0
-209 2812 2814 0
-208 2812 2814 0
-208 -209 2814 0
-2814 2811 0
-207 2807 2817 0
-2816 2807 2817 0
-2816 -207 2817 0
-2817 2806 0
-2815 2806 0
-2817 -2815 0
-206 2816 2818 0
-205 2816 2818 0
-205 -206 2818 0
-2818 2815 0
-2826 2777 2827 0
-2822 2777 2827 0
-2822 -2826 2827 0
-2827 2773 0
-2823 2773 0
-2827 -2823 2774 0
-2824 2774 0
-2827 -2824 2775 0
-2825 2775 0
-2827 -2825 2776 0
-2819 2773 0
-2827 -2819 2774 0
-2820 2774 0
-2827 -2820 2775 0
-2821 2775 0
-2827 -2821 2776 0
-2819 -2823 2774 0
-2827 -2819 -2823 2775 0
-2819 -2824 2775 0
-2827 -2819 -2824 2776 0
-2819 -2825 2776 0
-2827 -2819 -2825 0
-2820 -2823 2775 0
-2827 -2820 -2823 2776 0
-2820 -2824 2776 0
-2827 -2820 -2824 0
-2820 -2825 0
-2827 -2820 -2825 0
-2821 -2823 2776 0
-2827 -2821 -2823 0
-2821 -2824 0
-2827 -2821 -2824 0
-2821 -2825 0
-2827 -2821 -2825 0
-2831 2826 2832 0
-2829 2826 2832 0
-2829 -2831 2832 0
-2832 2823 0
-2830 2823 0
-2832 -2830 2824 0
-2828 2823 0
-2832 -2828 2824 0
-2828 -2830 2824 0
-2832 -2828 -2830 2825 0
-204 2831 2835 0
-2834 2831 2835 0
-2834 -204 2835 0
-2835 2830 0
-2833 2830 0
-2835 -2833 0
-203 2834 2836 0
-202 2834 2836 0
-202 -203 2836 0
-2836 2833 0
-201 2829 2839 0
-2838 2829 2839 0
-2838 -201 2839 0
-2839 2828 0
-2837 2828 0
-2839 -2837 0
-200 2838 2840 0
-199 2838 2840 0
-199 -200 2840 0
-2840 2837 0
-2844 2822 2845 0
-2842 2822 2845 0
-2842 -2844 2845 0
-2845 2819 0
-2843 2819 0
-2845 -2843 2820 0
-2841 2819 0
-2845 -2841 2820 0
-2841 -2843 2820 0
-2845 -2841 -2843 2821 0
-198 2844 2848 0
-2847 2844 2848 0
-2847 -198 2848 0
-2848 2843 0
-2846 2843 0
-2848 -2846 0
-197 2847 2849 0
-196 2847 2849 0
-196 -197 2849 0
-2849 2846 0
-195 2842 2852 0
-2851 2842 2852 0
-2851 -195 2852 0
-2852 2841 0
-2850 2841 0
-2852 -2850 0
-194 2851 2853 0
-193 2851 2853 0
-193 -194 2853 0
-2853 2850 0
-2863 2122 2864 0
-2858 2122 2864 0
-2858 -2863 2864 0
-2864 2118 0
-2859 2118 0
-2864 -2859 2119 0
-2860 2119 0
-2864 -2860 2120 0
-2861 2120 0
-2864 -2861 2121 0
-2862 2121 0
-2864 -2862 0
-2854 2118 0
-2864 -2854 2119 0
-2855 2119 0
-2864 -2855 2120 0
-2856 2120 0
-2864 -2856 2121 0
-2857 2121 0
-2864 -2857 0
-2854 -2859 2119 0
-2864 -2854 -2859 2120 0
-2854 -2860 2120 0
-2864 -2854 -2860 2121 0
-2854 -2861 2121 0
-2864 -2854 -2861 0
-2854 -2862 0
-2864 -2854 -2862 0
-2855 -2859 2120 0
-2864 -2855 -2859 2121 0
-2855 -2860 2121 0
-2864 -2855 -2860 0
-2855 -2861 0
-2864 -2855 -2861 0
-2855 -2862 0
-2864 -2855 -2862 0
-2856 -2859 2121 0
-2864 -2856 -2859 0
-2856 -2860 0
-2864 -2856 -2860 0
-2856 -2861 0
-2864 -2856 -2861 0
-2856 -2862 0
-2864 -2856 -2862 0
-2857 -2859 0
-2864 -2857 -2859 0
-2857 -2860 0
-2864 -2857 -2860 0
-2857 -2861 0
-2864 -2857 -2861 0
-2857 -2862 0
-2864 -2857 -2862 0
-2874 2863 2875 0
-2869 2863 2875 0
-2869 -2874 2875 0
-2875 2859 0
-2870 2859 0
-2875 -2870 2860 0
-2871 2860 0
-2875 -2871 2861 0
-2872 2861 0
-2875 -2872 2862 0
-2873 2862 0
-2875 -2873 0
-2865 2859 0
-2875 -2865 2860 0
-2866 2860 0
-2875 -2866 2861 0
-2867 2861 0
-2875 -2867 2862 0
-2868 2862 0
-2875 -2868 0
-2865 -2870 2860 0
-2875 -2865 -2870 2861 0
-2865 -2871 2861 0
-2875 -2865 -2871 2862 0
-2865 -2872 2862 0
-2875 -2865 -2872 0
-2865 -2873 0
-2875 -2865 -2873 0
-2866 -2870 2861 0
-2875 -2866 -2870 2862 0
-2866 -2871 2862 0
-2875 -2866 -2871 0
-2866 -2872 0
-2875 -2866 -2872 0
-2866 -2873 0
-2875 -2866 -2873 0
-2867 -2870 2862 0
-2875 -2867 -2870 0
-2867 -2871 0
-2875 -2867 -2871 0
-2867 -2872 0
-2875 -2867 -2872 0
-2867 -2873 0
-2875 -2867 -2873 0
-2868 -2870 0
-2875 -2868 -2870 0
-2868 -2871 0
-2875 -2868 -2871 0
-2868 -2872 0
-2875 -2868 -2872 0
-2868 -2873 0
-2875 -2868 -2873 0
-2885 2874 2886 0
-2880 2874 2886 0
-2880 -2885 2886 0
-2886 2870 0
-2881 2870 0
-2886 -2881 2871 0
-2882 2871 0
-2886 -2882 2872 0
-2883 2872 0
-2886 -2883 2873 0
-2884 2873 0
-2886 -2884 0
-2876 2870 0
-2886 -2876 2871 0
-2877 2871 0
-2886 -2877 2872 0
-2878 2872 0
-2886 -2878 2873 0
-2879 2873 0
-2886 -2879 0
-2876 -2881 2871 0
-2886 -2876 -2881 2872 0
-2876 -2882 2872 0
-2886 -2876 -2882 2873 0
-2876 -2883 2873 0
-2886 -2876 -2883 0
-2876 -2884 0
-2886 -2876 -2884 0
-2877 -2881 2872 0
-2886 -2877 -2881 2873 0
-2877 -2882 2873 0
-2886 -2877 -2882 0
-2877 -2883 0
-2886 -2877 -2883 0
-2877 -2884 0
-2886 -2877 -2884 0
-2878 -2881 2873 0
-2886 -2878 -2881 0
-2878 -2882 0
-2886 -2878 -2882 0
-2878 -2883 0
-2886 -2878 -2883 0
-2878 -2884 0
-2886 -2878 -2884 0
-2879 -2881 0
-2886 -2879 -2881 0
-2879 -2882 0
-2886 -2879 -2882 0
-2879 -2883 0
-2886 -2879 -2883 0
-2879 -2884 0
-2886 -2879 -2884 0
-2896 2885 2897 0
-2891 2885 2897 0
-2891 -2896 2897 0
-2897 2881 0
-2892 2881 0
-2897 -2892 2882 0
-2893 2882 0
-2897 -2893 2883 0
-2894 2883 0
-2897 -2894 2884 0
-2895 2884 0
-2897 -2895 0
-2887 2881 0
-2897 -2887 2882 0
-2888 2882 0
-2897 -2888 2883 0
-2889 2883 0
-2897 -2889 2884 0
-2890 2884 0
-2897 -2890 0
-2887 -2892 2882 0
-2897 -2887 -2892 2883 0
-2887 -2893 2883 0
-2897 -2887 -2893 2884 0
-2887 -2894 2884 0
-2897 -2887 -2894 0
-2887 -2895 0
-2897 -2887 -2895 0
-2888 -2892 2883 0
-2897 -2888 -2892 2884 0
-2888 -2893 2884 0
-2897 -2888 -2893 0
-2888 -2894 0
-2897 -2888 -2894 0
-2888 -2895 0
-2897 -2888 -2895 0
-2889 -2892 2884 0
-2897 -2889 -2892 0
-2889 -2893 0
-2897 -2889 -2893 0
-2889 -2894 0
-2897 -2889 -2894 0
-2889 -2895 0
-2897 -2889 -2895 0
-2890 -2892 0
-2897 -2890 -2892 0
-2890 -2893 0
-2897 -2890 -2893 0
-2890 -2894 0
-2897 -2890 -2894 0
-2890 -2895 0
-2897 -2890 -2895 0
-2905 2896 2906 0
-2901 2896 2906 0
-2901 -2905 2906 0
-2906 2892 0
-2902 2892 0
-2906 -2902 2893 0
-2903 2893 0
-2906 -2903 2894 0
-2904 2894 0
-2906 -2904 2895 0
-2898 2892 0
-2906 -2898 2893 0
-2899 2893 0
-2906 -2899 2894 0
-2900 2894 0
-2906 -2900 2895 0
-2898 -2902 2893 0
-2906 -2898 -2902 2894 0
-2898 -2903 2894 0
-2906 -2898 -2903 2895 0
-2898 -2904 2895 0
-2906 -2898 -2904 0
-2899 -2902 2894 0
-2906 -2899 -2902 2895 0
-2899 -2903 2895 0
-2906 -2899 -2903 0
-2899 -2904 0
-2906 -2899 -2904 0
-2900 -2902 2895 0
-2906 -2900 -2902 0
-2900 -2903 0
-2906 -2900 -2903 0
-2900 -2904 0
-2906 -2900 -2904 0
-2910 2905 2911 0
-2908 2905 2911 0
-2908 -2910 2911 0
-2911 2902 0
-2909 2902 0
-2911 -2909 2903 0
-2907 2902 0
-2911 -2907 2903 0
-2907 -2909 2903 0
-2911 -2907 -2909 2904 0
-192 2910 2914 0
-2913 2910 2914 0
-2913 -192 2914 0
-2914 2909 0
-2912 2909 0
-2914 -2912 0
-191 2913 2915 0
-190 2913 2915 0
-190 -191 2915 0
-2915 2912 0
-189 2908 2918 0
-2917 2908 2918 0
-2917 -189 2918 0
-2918 2907 0
-2916 2907 0
-2918 -2916 0
-188 2917 2919 0
-187 2917 2919 0
-187 -188 2919 0
-2919 2916 0
-2923 2901 2924 0
-2921 2901 2924 0
-2921 -2923 2924 0
-2924 2898 0
-2922 2898 0
-2924 -2922 2899 0
-2920 2898 0
-2924 -2920 2899 0
-2920 -2922 2899 0
-2924 -2920 -2922 2900 0
-186 2923 2927 0
-2926 2923 2927 0
-2926 -186 2927 0
-2927 2922 0
-2925 2922 0
-2927 -2925 0
-185 2926 2928 0
-184 2926 2928 0
-184 -185 2928 0
-2928 2925 0
-183 2921 2931 0
-2930 2921 2931 0
-2930 -183 2931 0
-2931 2920 0
-2929 2920 0
-2931 -2929 0
-182 2930 2932 0
-181 2930 2932 0
-181 -182 2932 0
-2932 2929 0
-2940 2891 2941 0
-2936 2891 2941 0
-2936 -2940 2941 0
-2941 2887 0
-2937 2887 0
-2941 -2937 2888 0
-2938 2888 0
-2941 -2938 2889 0
-2939 2889 0
-2941 -2939 2890 0
-2933 2887 0
-2941 -2933 2888 0
-2934 2888 0
-2941 -2934 2889 0
-2935 2889 0
-2941 -2935 2890 0
-2933 -2937 2888 0
-2941 -2933 -2937 2889 0
-2933 -2938 2889 0
-2941 -2933 -2938 2890 0
-2933 -2939 2890 0
-2941 -2933 -2939 0
-2934 -2937 2889 0
-2941 -2934 -2937 2890 0
-2934 -2938 2890 0
-2941 -2934 -2938 0
-2934 -2939 0
-2941 -2934 -2939 0
-2935 -2937 2890 0
-2941 -2935 -2937 0
-2935 -2938 0
-2941 -2935 -2938 0
-2935 -2939 0
-2941 -2935 -2939 0
-2945 2940 2946 0
-2943 2940 2946 0
-2943 -2945 2946 0
-2946 2937 0
-2944 2937 0
-2946 -2944 2938 0
-2942 2937 0
-2946 -2942 2938 0
-2942 -2944 2938 0
-2946 -2942 -2944 2939 0
-180 2945 2949 0
-2948 2945 2949 0
-2948 -180 2949 0
-2949 2944 0
-2947 2944 0
-2949 -2947 0
-179 2948 2950 0
-178 2948 2950 0
-178 -179 2950 0
-2950 2947 0
-177 2943 2953 0
-2952 2943 2953 0
-2952 -177 2953 0
-2953 2942 0
-2951 2942 0
-2953 -2951 0
-176 2952 2954 0
-175 2952 2954 0
-175 -176 2954 0
-2954 2951 0
-2958 2936 2959 0
-2956 2936 2959 0
-2956 -2958 2959 0
-2959 2933 0
-2957 2933 0
-2959 -2957 2934 0
-2955 2933 0
-2959 -2955 2934 0
-2955 -2957 2934 0
-2959 -2955 -2957 2935 0
-174 2958 2962 0
-2961 2958 2962 0
-2961 -174 2962 0
-2962 2957 0
-2960 2957 0
-2962 -2960 0
-173 2961 2963 0
-172 2961 2963 0
-172 -173 2963 0
-2963 2960 0
-171 2956 2966 0
-2965 2956 2966 0
-2965 -171 2966 0
-2966 2955 0
-2964 2955 0
-2966 -2964 0
-170 2965 2967 0
-169 2965 2967 0
-169 -170 2967 0
-2967 2964 0
-2977 2880 2978 0
-2972 2880 2978 0
-2972 -2977 2978 0
-2978 2876 0
-2973 2876 0
-2978 -2973 2877 0
-2974 2877 0
-2978 -2974 2878 0
-2975 2878 0
-2978 -2975 2879 0
-2976 2879 0
-2978 -2976 0
-2968 2876 0
-2978 -2968 2877 0
-2969 2877 0
-2978 -2969 2878 0
-2970 2878 0
-2978 -2970 2879 0
-2971 2879 0
-2978 -2971 0
-2968 -2973 2877 0
-2978 -2968 -2973 2878 0
-2968 -2974 2878 0
-2978 -2968 -2974 2879 0
-2968 -2975 2879 0
-2978 -2968 -2975 0
-2968 -2976 0
-2978 -2968 -2976 0
-2969 -2973 2878 0
-2978 -2969 -2973 2879 0
-2969 -2974 2879 0
-2978 -2969 -2974 0
-2969 -2975 0
-2978 -2969 -2975 0
-2969 -2976 0
-2978 -2969 -2976 0
-2970 -2973 2879 0
-2978 -2970 -2973 0
-2970 -2974 0
-2978 -2970 -2974 0
-2970 -2975 0
-2978 -2970 -2975 0
-2970 -2976 0
-2978 -2970 -2976 0
-2971 -2973 0
-2978 -2971 -2973 0
-2971 -2974 0
-2978 -2971 -2974 0
-2971 -2975 0
-2978 -2971 -2975 0
-2971 -2976 0
-2978 -2971 -2976 0
-2986 2977 2987 0
-2982 2977 2987 0
-2982 -2986 2987 0
-2987 2973 0
-2983 2973 0
-2987 -2983 2974 0
-2984 2974 0
-2987 -2984 2975 0
-2985 2975 0
-2987 -2985 2976 0
-2979 2973 0
-2987 -2979 2974 0
-2980 2974 0
-2987 -2980 2975 0
-2981 2975 0
-2987 -2981 2976 0
-2979 -2983 2974 0
-2987 -2979 -2983 2975 0
-2979 -2984 2975 0
-2987 -2979 -2984 2976 0
-2979 -2985 2976 0
-2987 -2979 -2985 0
-2980 -2983 2975 0
-2987 -2980 -2983 2976 0
-2980 -2984 2976 0
-2987 -2980 -2984 0
-2980 -2985 0
-2987 -2980 -2985 0
-2981 -2983 2976 0
-2987 -2981 -2983 0
-2981 -2984 0
-2987 -2981 -2984 0
-2981 -2985 0
-2987 -2981 -2985 0
-2991 2986 2992 0
-2989 2986 2992 0
-2989 -2991 2992 0
-2992 2983 0
-2990 2983 0
-2992 -2990 2984 0
-2988 2983 0
-2992 -2988 2984 0
-2988 -2990 2984 0
-2992 -2988 -2990 2985 0
-168 2991 2995 0
-2994 2991 2995 0
-2994 -168 2995 0
-2995 2990 0
-2993 2990 0
-2995 -2993 0
-167 2994 2996 0
-166 2994 2996 0
-166 -167 2996 0
-2996 2993 0
-165 2989 2999 0
-2998 2989 2999 0
-2998 -165 2999 0
-2999 2988 0
-2997 2988 0
-2999 -2997 0
-164 2998 3000 0
-163 2998 3000 0
-163 -164 3000 0
-3000 2997 0
-3004 2982 3005 0
-3002 2982 3005 0
-3002 -3004 3005 0
-3005 2979 0
-3003 2979 0
-3005 -3003 2980 0
-3001 2979 0
-3005 -3001 2980 0
-3001 -3003 2980 0
-3005 -3001 -3003 2981 0
-162 3004 3008 0
-3007 3004 3008 0
-3007 -162 3008 0
-3008 3003 0
-3006 3003 0
-3008 -3006 0
-161 3007 3009 0
-160 3007 3009 0
-160 -161 3009 0
-3009 3006 0
-159 3002 3012 0
-3011 3002 3012 0
-3011 -159 3012 0
-3012 3001 0
-3010 3001 0
-3012 -3010 0
-158 3011 3013 0
-157 3011 3013 0
-157 -158 3013 0
-3013 3010 0
-3021 2972 3022 0
-3017 2972 3022 0
-3017 -3021 3022 0
-3022 2968 0
-3018 2968 0
-3022 -3018 2969 0
-3019 2969 0
-3022 -3019 2970 0
-3020 2970 0
-3022 -3020 2971 0
-3014 2968 0
-3022 -3014 2969 0
-3015 2969 0
-3022 -3015 2970 0
-3016 2970 0
-3022 -3016 2971 0
-3014 -3018 2969 0
-3022 -3014 -3018 2970 0
-3014 -3019 2970 0
-3022 -3014 -3019 2971 0
-3014 -3020 2971 0
-3022 -3014 -3020 0
-3015 -3018 2970 0
-3022 -3015 -3018 2971 0
-3015 -3019 2971 0
-3022 -3015 -3019 0
-3015 -3020 0
-3022 -3015 -3020 0
-3016 -3018 2971 0
-3022 -3016 -3018 0
-3016 -3019 0
-3022 -3016 -3019 0
-3016 -3020 0
-3022 -3016 -3020 0
-3026 3021 3027 0
-3024 3021 3027 0
-3024 -3026 3027 0
-3027 3018 0
-3025 3018 0
-3027 -3025 3019 0
-3023 3018 0
-3027 -3023 3019 0
-3023 -3025 3019 0
-3027 -3023 -3025 3020 0
-156 3026 3030 0
-3029 3026 3030 0
-3029 -156 3030 0
-3030 3025 0
-3028 3025 0
-3030 -3028 0
-155 3029 3031 0
-154 3029 3031 0
-154 -155 3031 0
-3031 3028 0
-153 3024 3034 0
-3033 3024 3034 0
-3033 -153 3034 0
-3034 3023 0
-3032 3023 0
-3034 -3032 0
-152 3033 3035 0
-151 3033 3035 0
-151 -152 3035 0
-3035 3032 0
-3039 3017 3040 0
-3037 3017 3040 0
-3037 -3039 3040 0
-3040 3014 0
-3038 3014 0
-3040 -3038 3015 0
-3036 3014 0
-3040 -3036 3015 0
-3036 -3038 3015 0
-3040 -3036 -3038 3016 0
-150 3039 3043 0
-3042 3039 3043 0
-3042 -150 3043 0
-3043 3038 0
-3041 3038 0
-3043 -3041 0
-149 3042 3044 0
-148 3042 3044 0
-148 -149 3044 0
-3044 3041 0
-147 3037 3047 0
-3046 3037 3047 0
-3046 -147 3047 0
-3047 3036 0
-3045 3036 0
-3047 -3045 0
-146 3046 3048 0
-145 3046 3048 0
-145 -146 3048 0
-3048 3045 0
-3058 2869 3059 0
-3053 2869 3059 0
-3053 -3058 3059 0
-3059 2865 0
-3054 2865 0
-3059 -3054 2866 0
-3055 2866 0
-3059 -3055 2867 0
-3056 2867 0
-3059 -3056 2868 0
-3057 2868 0
-3059 -3057 0
-3049 2865 0
-3059 -3049 2866 0
-3050 2866 0
-3059 -3050 2867 0
-3051 2867 0
-3059 -3051 2868 0
-3052 2868 0
-3059 -3052 0
-3049 -3054 2866 0
-3059 -3049 -3054 2867 0
-3049 -3055 2867 0
-3059 -3049 -3055 2868 0
-3049 -3056 2868 0
-3059 -3049 -3056 0
-3049 -3057 0
-3059 -3049 -3057 0
-3050 -3054 2867 0
-3059 -3050 -3054 2868 0
-3050 -3055 2868 0
-3059 -3050 -3055 0
-3050 -3056 0
-3059 -3050 -3056 0
-3050 -3057 0
-3059 -3050 -3057 0
-3051 -3054 2868 0
-3059 -3051 -3054 0
-3051 -3055 0
-3059 -3051 -3055 0
-3051 -3056 0
-3059 -3051 -3056 0
-3051 -3057 0
-3059 -3051 -3057 0
-3052 -3054 0
-3059 -3052 -3054 0
-3052 -3055 0
-3059 -3052 -3055 0
-3052 -3056 0
-3059 -3052 -3056 0
-3052 -3057 0
-3059 -3052 -3057 0
-3069 3058 3070 0
-3064 3058 3070 0
-3064 -3069 3070 0
-3070 3054 0
-3065 3054 0
-3070 -3065 3055 0
-3066 3055 0
-3070 -3066 3056 0
-3067 3056 0
-3070 -3067 3057 0
-3068 3057 0
-3070 -3068 0
-3060 3054 0
-3070 -3060 3055 0
-3061 3055 0
-3070 -3061 3056 0
-3062 3056 0
-3070 -3062 3057 0
-3063 3057 0
-3070 -3063 0
-3060 -3065 3055 0
-3070 -3060 -3065 3056 0
-3060 -3066 3056 0
-3070 -3060 -3066 3057 0
-3060 -3067 3057 0
-3070 -3060 -3067 0
-3060 -3068 0
-3070 -3060 -3068 0
-3061 -3065 3056 0
-3070 -3061 -3065 3057 0
-3061 -3066 3057 0
-3070 -3061 -3066 0
-3061 -3067 0
-3070 -3061 -3067 0
-3061 -3068 0
-3070 -3061 -3068 0
-3062 -3065 3057 0
-3070 -3062 -3065 0
-3062 -3066 0
-3070 -3062 -3066 0
-3062 -3067 0
-3070 -3062 -3067 0
-3062 -3068 0
-3070 -3062 -3068 0
-3063 -3065 0
-3070 -3063 -3065 0
-3063 -3066 0
-3070 -3063 -3066 0
-3063 -3067 0
-3070 -3063 -3067 0
-3063 -3068 0
-3070 -3063 -3068 0
-3078 3069 3079 0
-3074 3069 3079 0
-3074 -3078 3079 0
-3079 3065 0
-3075 3065 0
-3079 -3075 3066 0
-3076 3066 0
-3079 -3076 3067 0
-3077 3067 0
-3079 -3077 3068 0
-3071 3065 0
-3079 -3071 3066 0
-3072 3066 0
-3079 -3072 3067 0
-3073 3067 0
-3079 -3073 3068 0
-3071 -3075 3066 0
-3079 -3071 -3075 3067 0
-3071 -3076 3067 0
-3079 -3071 -3076 3068 0
-3071 -3077 3068 0
-3079 -3071 -3077 0
-3072 -3075 3067 0
-3079 -3072 -3075 3068 0
-3072 -3076 3068 0
-3079 -3072 -3076 0
-3072 -3077 0
-3079 -3072 -3077 0
-3073 -3075 3068 0
-3079 -3073 -3075 0
-3073 -3076 0
-3079 -3073 -3076 0
-3073 -3077 0
-3079 -3073 -3077 0
-3083 3078 3084 0
-3081 3078 3084 0
-3081 -3083 3084 0
-3084 3075 0
-3082 3075 0
-3084 -3082 3076 0
-3080 3075 0
-3084 -3080 3076 0
-3080 -3082 3076 0
-3084 -3080 -3082 3077 0
-144 3083 3087 0
-3086 3083 3087 0
-3086 -144 3087 0
-3087 3082 0
-3085 3082 0
-3087 -3085 0
-143 3086 3088 0
-142 3086 3088 0
-142 -143 3088 0
-3088 3085 0
-141 3081 3091 0
-3090 3081 3091 0
-3090 -141 3091 0
-3091 3080 0
-3089 3080 0
-3091 -3089 0
-140 3090 3092 0
-139 3090 3092 0
-139 -140 3092 0
-3092 3089 0
-3096 3074 3097 0
-3094 3074 3097 0
-3094 -3096 3097 0
-3097 3071 0
-3095 3071 0
-3097 -3095 3072 0
-3093 3071 0
-3097 -3093 3072 0
-3093 -3095 3072 0
-3097 -3093 -3095 3073 0
-138 3096 3100 0
-3099 3096 3100 0
-3099 -138 3100 0
-3100 3095 0
-3098 3095 0
-3100 -3098 0
-137 3099 3101 0
-136 3099 3101 0
-136 -137 3101 0
-3101 3098 0
-135 3094 3104 0
-3103 3094 3104 0
-3103 -135 3104 0
-3104 3093 0
-3102 3093 0
-3104 -3102 0
-134 3103 3105 0
-133 3103 3105 0
-133 -134 3105 0
-3105 3102 0
-3113 3064 3114 0
-3109 3064 3114 0
-3109 -3113 3114 0
-3114 3060 0
-3110 3060 0
-3114 -3110 3061 0
-3111 3061 0
-3114 -3111 3062 0
-3112 3062 0
-3114 -3112 3063 0
-3106 3060 0
-3114 -3106 3061 0
-3107 3061 0
-3114 -3107 3062 0
-3108 3062 0
-3114 -3108 3063 0
-3106 -3110 3061 0
-3114 -3106 -3110 3062 0
-3106 -3111 3062 0
-3114 -3106 -3111 3063 0
-3106 -3112 3063 0
-3114 -3106 -3112 0
-3107 -3110 3062 0
-3114 -3107 -3110 3063 0
-3107 -3111 3063 0
-3114 -3107 -3111 0
-3107 -3112 0
-3114 -3107 -3112 0
-3108 -3110 3063 0
-3114 -3108 -3110 0
-3108 -3111 0
-3114 -3108 -3111 0
-3108 -3112 0
-3114 -3108 -3112 0
-3118 3113 3119 0
-3116 3113 3119 0
-3116 -3118 3119 0
-3119 3110 0
-3117 3110 0
-3119 -3117 3111 0
-3115 3110 0
-3119 -3115 3111 0
-3115 -3117 3111 0
-3119 -3115 -3117 3112 0
-132 3118 3122 0
-3121 3118 3122 0
-3121 -132 3122 0
-3122 3117 0
-3120 3117 0
-3122 -3120 0
-131 3121 3123 0
-130 3121 3123 0
-130 -131 3123 0
-3123 3120 0
-129 3116 3126 0
-3125 3116 3126 0
-3125 -129 3126 0
-3126 3115 0
-3124 3115 0
-3126 -3124 0
-128 3125 3127 0
-127 3125 3127 0
-127 -128 3127 0
-3127 3124 0
-3131 3109 3132 0
-3129 3109 3132 0
-3129 -3131 3132 0
-3132 3106 0
-3130 3106 0
-3132 -3130 3107 0
-3128 3106 0
-3132 -3128 3107 0
-3128 -3130 3107 0
-3132 -3128 -3130 3108 0
-126 3131 3135 0
-3134 3131 3135 0
-3134 -126 3135 0
-3135 3130 0
-3133 3130 0
-3135 -3133 0
-125 3134 3136 0
-124 3134 3136 0
-124 -125 3136 0
-3136 3133 0
-123 3129 3139 0
-3138 3129 3139 0
-3138 -123 3139 0
-3139 3128 0
-3137 3128 0
-3139 -3137 0
-122 3138 3140 0
-121 3138 3140 0
-121 -122 3140 0
-3140 3137 0
-3150 3053 3151 0
-3145 3053 3151 0
-3145 -3150 3151 0
-3151 3049 0
-3146 3049 0
-3151 -3146 3050 0
-3147 3050 0
-3151 -3147 3051 0
-3148 3051 0
-3151 -3148 3052 0
-3149 3052 0
-3151 -3149 0
-3141 3049 0
-3151 -3141 3050 0
-3142 3050 0
-3151 -3142 3051 0
-3143 3051 0
-3151 -3143 3052 0
-3144 3052 0
-3151 -3144 0
-3141 -3146 3050 0
-3151 -3141 -3146 3051 0
-3141 -3147 3051 0
-3151 -3141 -3147 3052 0
-3141 -3148 3052 0
-3151 -3141 -3148 0
-3141 -3149 0
-3151 -3141 -3149 0
-3142 -3146 3051 0
-3151 -3142 -3146 3052 0
-3142 -3147 3052 0
-3151 -3142 -3147 0
-3142 -3148 0
-3151 -3142 -3148 0
-3142 -3149 0
-3151 -3142 -3149 0
-3143 -3146 3052 0
-3151 -3143 -3146 0
-3143 -3147 0
-3151 -3143 -3147 0
-3143 -3148 0
-3151 -3143 -3148 0
-3143 -3149 0
-3151 -3143 -3149 0
-3144 -3146 0
-3151 -3144 -3146 0
-3144 -3147 0
-3151 -3144 -3147 0
-3144 -3148 0
-3151 -3144 -3148 0
-3144 -3149 0
-3151 -3144 -3149 0
-3159 3150 3160 0
-3155 3150 3160 0
-3155 -3159 3160 0
-3160 3146 0
-3156 3146 0
-3160 -3156 3147 0
-3157 3147 0
-3160 -3157 3148 0
-3158 3148 0
-3160 -3158 3149 0
-3152 3146 0
-3160 -3152 3147 0
-3153 3147 0
-3160 -3153 3148 0
-3154 3148 0
-3160 -3154 3149 0
-3152 -3156 3147 0
-3160 -3152 -3156 3148 0
-3152 -3157 3148 0
-3160 -3152 -3157 3149 0
-3152 -3158 3149 0
-3160 -3152 -3158 0
-3153 -3156 3148 0
-3160 -3153 -3156 3149 0
-3153 -3157 3149 0
-3160 -3153 -3157 0
-3153 -3158 0
-3160 -3153 -3158 0
-3154 -3156 3149 0
-3160 -3154 -3156 0
-3154 -3157 0
-3160 -3154 -3157 0
-3154 -3158 0
-3160 -3154 -3158 0
-3164 3159 3165 0
-3162 3159 3165 0
-3162 -3164 3165 0
-3165 3156 0
-3163 3156 0
-3165 -3163 3157 0
-3161 3156 0
-3165 -3161 3157 0
-3161 -3163 3157 0
-3165 -3161 -3163 3158 0
-120 3164 3168 0
-3167 3164 3168 0
-3167 -120 3168 0
-3168 3163 0
-3166 3163 0
-3168 -3166 0
-119 3167 3169 0
-118 3167 3169 0
-118 -119 3169 0
-3169 3166 0
-117 3162 3172 0
-3171 3162 3172 0
-3171 -117 3172 0
-3172 3161 0
-3170 3161 0
-3172 -3170 0
-116 3171 3173 0
-115 3171 3173 0
-115 -116 3173 0
-3173 3170 0
-3177 3155 3178 0
-3175 3155 3178 0
-3175 -3177 3178 0
-3178 3152 0
-3176 3152 0
-3178 -3176 3153 0
-3174 3152 0
-3178 -3174 3153 0
-3174 -3176 3153 0
-3178 -3174 -3176 3154 0
-114 3177 3181 0
-3180 3177 3181 0
-3180 -114 3181 0
-3181 3176 0
-3179 3176 0
-3181 -3179 0
-113 3180 3182 0
-112 3180 3182 0
-112 -113 3182 0
-3182 3179 0
-111 3175 3185 0
-3184 3175 3185 0
-3184 -111 3185 0
-3185 3174 0
-3183 3174 0
-3185 -3183 0
-110 3184 3186 0
-109 3184 3186 0
-109 -110 3186 0
-3186 3183 0
-3194 3145 3195 0
-3190 3145 3195 0
-3190 -3194 3195 0
-3195 3141 0
-3191 3141 0
-3195 -3191 3142 0
-3192 3142 0
-3195 -3192 3143 0
-3193 3143 0
-3195 -3193 3144 0
-3187 3141 0
-3195 -3187 3142 0
-3188 3142 0
-3195 -3188 3143 0
-3189 3143 0
-3195 -3189 3144 0
-3187 -3191 3142 0
-3195 -3187 -3191 3143 0
-3187 -3192 3143 0
-3195 -3187 -3192 3144 0
-3187 -3193 3144 0
-3195 -3187 -3193 0
-3188 -3191 3143 0
-3195 -3188 -3191 3144 0
-3188 -3192 3144 0
-3195 -3188 -3192 0
-3188 -3193 0
-3195 -3188 -3193 0
-3189 -3191 3144 0
-3195 -3189 -3191 0
-3189 -3192 0
-3195 -3189 -3192 0
-3189 -3193 0
-3195 -3189 -3193 0
-3199 3194 3200 0
-3197 3194 3200 0
-3197 -3199 3200 0
-3200 3191 0
-3198 3191 0
-3200 -3198 3192 0
-3196 3191 0
-3200 -3196 3192 0
-3196 -3198 3192 0
-3200 -3196 -3198 3193 0
-108 3199 3203 0
-3202 3199 3203 0
-3202 -108 3203 0
-3203 3198 0
-3201 3198 0
-3203 -3201 0
-107 3202 3204 0
-106 3202 3204 0
-106 -107 3204 0
-3204 3201 0
-105 3197 3207 0
-3206 3197 3207 0
-3206 -105 3207 0
-3207 3196 0
-3205 3196 0
-3207 -3205 0
-104 3206 3208 0
-103 3206 3208 0
-103 -104 3208 0
-3208 3205 0
-3212 3190 3213 0
-3210 3190 3213 0
-3210 -3212 3213 0
-3213 3187 0
-3211 3187 0
-3213 -3211 3188 0
-3209 3187 0
-3213 -3209 3188 0
-3209 -3211 3188 0
-3213 -3209 -3211 3189 0
-102 3212 3216 0
-3215 3212 3216 0
-3215 -102 3216 0
-3216 3211 0
-3214 3211 0
-3216 -3214 0
-101 3215 3217 0
-100 3215 3217 0
-100 -101 3217 0
-3217 3214 0
-99 3210 3220 0
-3219 3210 3220 0
-3219 -99 3220 0
-3220 3209 0
-3218 3209 0
-3220 -3218 0
-98 3219 3221 0
-97 3219 3221 0
-97 -98 3221 0
-3221 3218 0
-3231 2858 3232 0
-3226 2858 3232 0
-3226 -3231 3232 0
-3232 2854 0
-3227 2854 0
-3232 -3227 2855 0
-3228 2855 0
-3232 -3228 2856 0
-3229 2856 0
-3232 -3229 2857 0
-3230 2857 0
-3232 -3230 0
-3222 2854 0
-3232 -3222 2855 0
-3223 2855 0
-3232 -3223 2856 0
-3224 2856 0
-3232 -3224 2857 0
-3225 2857 0
-3232 -3225 0
-3222 -3227 2855 0
-3232 -3222 -3227 2856 0
-3222 -3228 2856 0
-3232 -3222 -3228 2857 0
-3222 -3229 2857 0
-3232 -3222 -3229 0
-3222 -3230 0
-3232 -3222 -3230 0
-3223 -3227 2856 0
-3232 -3223 -3227 2857 0
-3223 -3228 2857 0
-3232 -3223 -3228 0
-3223 -3229 0
-3232 -3223 -3229 0
-3223 -3230 0
-3232 -3223 -3230 0
-3224 -3227 2857 0
-3232 -3224 -3227 0
-3224 -3228 0
-3232 -3224 -3228 0
-3224 -3229 0
-3232 -3224 -3229 0
-3224 -3230 0
-3232 -3224 -3230 0
-3225 -3227 0
-3232 -3225 -3227 0
-3225 -3228 0
-3232 -3225 -3228 0
-3225 -3229 0
-3232 -3225 -3229 0
-3225 -3230 0
-3232 -3225 -3230 0
-3242 3231 3243 0
-3237 3231 3243 0
-3237 -3242 3243 0
-3243 3227 0
-3238 3227 0
-3243 -3238 3228 0
-3239 3228 0
-3243 -3239 3229 0
-3240 3229 0
-3243 -3240 3230 0
-3241 3230 0
-3243 -3241 0
-3233 3227 0
-3243 -3233 3228 0
-3234 3228 0
-3243 -3234 3229 0
-3235 3229 0
-3243 -3235 3230 0
-3236 3230 0
-3243 -3236 0
-3233 -3238 3228 0
-3243 -3233 -3238 3229 0
-3233 -3239 3229 0
-3243 -3233 -3239 3230 0
-3233 -3240 3230 0
-3243 -3233 -3240 0
-3233 -3241 0
-3243 -3233 -3241 0
-3234 -3238 3229 0
-3243 -3234 -3238 3230 0
-3234 -3239 3230 0
-3243 -3234 -3239 0
-3234 -3240 0
-3243 -3234 -3240 0
-3234 -3241 0
-3243 -3234 -3241 0
-3235 -3238 3230 0
-3243 -3235 -3238 0
-3235 -3239 0
-3243 -3235 -3239 0
-3235 -3240 0
-3243 -3235 -3240 0
-3235 -3241 0
-3243 -3235 -3241 0
-3236 -3238 0
-3243 -3236 -3238 0
-3236 -3239 0
-3243 -3236 -3239 0
-3236 -3240 0
-3243 -3236 -3240 0
-3236 -3241 0
-3243 -3236 -3241 0
-3253 3242 3254 0
-3248 3242 3254 0
-3248 -3253 3254 0
-3254 3238 0
-3249 3238 0
-3254 -3249 3239 0
-3250 3239 0
-3254 -3250 3240 0
-3251 3240 0
-3254 -3251 3241 0
-3252 3241 0
-3254 -3252 0
-3244 3238 0
-3254 -3244 3239 0
-3245 3239 0
-3254 -3245 3240 0
-3246 3240 0
-3254 -3246 3241 0
-3247 3241 0
-3254 -3247 0
-3244 -3249 3239 0
-3254 -3244 -3249 3240 0
-3244 -3250 3240 0
-3254 -3244 -3250 3241 0
-3244 -3251 3241 0
-3254 -3244 -3251 0
-3244 -3252 0
-3254 -3244 -3252 0
-3245 -3249 3240 0
-3254 -3245 -3249 3241 0
-3245 -3250 3241 0
-3254 -3245 -3250 0
-3245 -3251 0
-3254 -3245 -3251 0
-3245 -3252 0
-3254 -3245 -3252 0
-3246 -3249 3241 0
-3254 -3246 -3249 0
-3246 -3250 0
-3254 -3246 -3250 0
-3246 -3251 0
-3254 -3246 -3251 0
-3246 -3252 0
-3254 -3246 -3252 0
-3247 -3249 0
-3254 -3247 -3249 0
-3247 -3250 0
-3254 -3247 -3250 0
-3247 -3251 0
-3254 -3247 -3251 0
-3247 -3252 0
-3254 -3247 -3252 0
-3262 3253 3263 0
-3258 3253 3263 0
-3258 -3262 3263 0
-3263 3249 0
-3259 3249 0
-3263 -3259 3250 0
-3260 3250 0
-3263 -3260 3251 0
-3261 3251 0
-3263 -3261 3252 0
-3255 3249 0
-3263 -3255 3250 0
-3256 3250 0
-3263 -3256 3251 0
-3257 3251 0
-3263 -3257 3252 0
-3255 -3259 3250 0
-3263 -3255 -3259 3251 0
-3255 -3260 3251 0
-3263 -3255 -3260 3252 0
-3255 -3261 3252 0
-3263 -3255 -3261 0
-3256 -3259 3251 0
-3263 -3256 -3259 3252 0
-3256 -3260 3252 0
-3263 -3256 -3260 0
-3256 -3261 0
-3263 -3256 -3261 0
-3257 -3259 3252 0
-3263 -3257 -3259 0
-3257 -3260 0
-3263 -3257 -3260 0
-3257 -3261 0
-3263 -3257 -3261 0
-3267 3262 3268 0
-3265 3262 3268 0
-3265 -3267 3268 0
-3268 3259 0
-3266 3259 0
-3268 -3266 3260 0
-3264 3259 0
-3268 -3264 3260 0
-3264 -3266 3260 0
-3268 -3264 -3266 3261 0
-96 3267 3271 0
-3270 3267 3271 0
-3270 -96 3271 0
-3271 3266 0
-3269 3266 0
-3271 -3269 0
-95 3270 3272 0
-94 3270 3272 0
-94 -95 3272 0
-3272 3269 0
-93 3265 3275 0
-3274 3265 3275 0
-3274 -93 3275 0
-3275 3264 0
-3273 3264 0
-3275 -3273 0
-92 3274 3276 0
-91 3274 3276 0
-91 -92 3276 0
-3276 3273 0
-3280 3258 3281 0
-3278 3258 3281 0
-3278 -3280 3281 0
-3281 3255 0
-3279 3255 0
-3281 -3279 3256 0
-3277 3255 0
-3281 -3277 3256 0
-3277 -3279 3256 0
-3281 -3277 -3279 3257 0
-90 3280 3284 0
-3283 3280 3284 0
-3283 -90 3284 0
-3284 3279 0
-3282 3279 0
-3284 -3282 0
-89 3283 3285 0
-88 3283 3285 0
-88 -89 3285 0
-3285 3282 0
-87 3278 3288 0
-3287 3278 3288 0
-3287 -87 3288 0
-3288 3277 0
-3286 3277 0
-3288 -3286 0
-86 3287 3289 0
-85 3287 3289 0
-85 -86 3289 0
-3289 3286 0
-3297 3248 3298 0
-3293 3248 3298 0
-3293 -3297 3298 0
-3298 3244 0
-3294 3244 0
-3298 -3294 3245 0
-3295 3245 0
-3298 -3295 3246 0
-3296 3246 0
-3298 -3296 3247 0
-3290 3244 0
-3298 -3290 3245 0
-3291 3245 0
-3298 -3291 3246 0
-3292 3246 0
-3298 -3292 3247 0
-3290 -3294 3245 0
-3298 -3290 -3294 3246 0
-3290 -3295 3246 0
-3298 -3290 -3295 3247 0
-3290 -3296 3247 0
-3298 -3290 -3296 0
-3291 -3294 3246 0
-3298 -3291 -3294 3247 0
-3291 -3295 3247 0
-3298 -3291 -3295 0
-3291 -3296 0
-3298 -3291 -3296 0
-3292 -3294 3247 0
-3298 -3292 -3294 0
-3292 -3295 0
-3298 -3292 -3295 0
-3292 -3296 0
-3298 -3292 -3296 0
-3302 3297 3303 0
-3300 3297 3303 0
-3300 -3302 3303 0
-3303 3294 0
-3301 3294 0
-3303 -3301 3295 0
-3299 3294 0
-3303 -3299 3295 0
-3299 -3301 3295 0
-3303 -3299 -3301 3296 0
-84 3302 3306 0
-3305 3302 3306 0
-3305 -84 3306 0
-3306 3301 0
-3304 3301 0
-3306 -3304 0
-83 3305 3307 0
-82 3305 3307 0
-82 -83 3307 0
-3307 3304 0
-81 3300 3310 0
-3309 3300 3310 0
-3309 -81 3310 0
-3310 3299 0
-3308 3299 0
-3310 -3308 0
-80 3309 3311 0
-79 3309 3311 0
-79 -80 3311 0
-3311 3308 0
-3315 3293 3316 0
-3313 3293 3316 0
-3313 -3315 3316 0
-3316 3290 0
-3314 3290 0
-3316 -3314 3291 0
-3312 3290 0
-3316 -3312 3291 0
-3312 -3314 3291 0
-3316 -3312 -3314 3292 0
-78 3315 3319 0
-3318 3315 3319 0
-3318 -78 3319 0
-3319 3314 0
-3317 3314 0
-3319 -3317 0
-77 3318 3320 0
-76 3318 3320 0
-76 -77 3320 0
-3320 3317 0
-75 3313 3323 0
-3322 3313 3323 0
-3322 -75 3323 0
-3323 3312 0
-3321 3312 0
-3323 -3321 0
-74 3322 3324 0
-73 3322 3324 0
-73 -74 3324 0
-3324 3321 0
-3334 3237 3335 0
-3329 3237 3335 0
-3329 -3334 3335 0
-3335 3233 0
-3330 3233 0
-3335 -3330 3234 0
-3331 3234 0
-3335 -3331 3235 0
-3332 3235 0
-3335 -3332 3236 0
-3333 3236 0
-3335 -3333 0
-3325 3233 0
-3335 -3325 3234 0
-3326 3234 0
-3335 -3326 3235 0
-3327 3235 0
-3335 -3327 3236 0
-3328 3236 0
-3335 -3328 0
-3325 -3330 3234 0
-3335 -3325 -3330 3235 0
-3325 -3331 3235 0
-3335 -3325 -3331 3236 0
-3325 -3332 3236 0
-3335 -3325 -3332 0
-3325 -3333 0
-3335 -3325 -3333 0
-3326 -3330 3235 0
-3335 -3326 -3330 3236 0
-3326 -3331 3236 0
-3335 -3326 -3331 0
-3326 -3332 0
-3335 -3326 -3332 0
-3326 -3333 0
-3335 -3326 -3333 0
-3327 -3330 3236 0
-3335 -3327 -3330 0
-3327 -3331 0
-3335 -3327 -3331 0
-3327 -3332 0
-3335 -3327 -3332 0
-3327 -3333 0
-3335 -3327 -3333 0
-3328 -3330 0
-3335 -3328 -3330 0
-3328 -3331 0
-3335 -3328 -3331 0
-3328 -3332 0
-3335 -3328 -3332 0
-3328 -3333 0
-3335 -3328 -3333 0
-3343 3334 3344 0
-3339 3334 3344 0
-3339 -3343 3344 0
-3344 3330 0
-3340 3330 0
-3344 -3340 3331 0
-3341 3331 0
-3344 -3341 3332 0
-3342 3332 0
-3344 -3342 3333 0
-3336 3330 0
-3344 -3336 3331 0
-3337 3331 0
-3344 -3337 3332 0
-3338 3332 0
-3344 -3338 3333 0
-3336 -3340 3331 0
-3344 -3336 -3340 3332 0
-3336 -3341 3332 0
-3344 -3336 -3341 3333 0
-3336 -3342 3333 0
-3344 -3336 -3342 0
-3337 -3340 3332 0
-3344 -3337 -3340 3333 0
-3337 -3341 3333 0
-3344 -3337 -3341 0
-3337 -3342 0
-3344 -3337 -3342 0
-3338 -3340 3333 0
-3344 -3338 -3340 0
-3338 -3341 0
-3344 -3338 -3341 0
-3338 -3342 0
-3344 -3338 -3342 0
-3348 3343 3349 0
-3346 3343 3349 0
-3346 -3348 3349 0
-3349 3340 0
-3347 3340 0
-3349 -3347 3341 0
-3345 3340 0
-3349 -3345 3341 0
-3345 -3347 3341 0
-3349 -3345 -3347 3342 0
-72 3348 3352 0
-3351 3348 3352 0
-3351 -72 3352 0
-3352 3347 0
-3350 3347 0
-3352 -3350 0
-71 3351 3353 0
-70 3351 3353 0
-70 -71 3353 0
-3353 3350 0
-69 3346 3356 0
-3355 3346 3356 0
-3355 -69 3356 0
-3356 3345 0
-3354 3345 0
-3356 -3354 0
-68 3355 3357 0
-67 3355 3357 0
-67 -68 3357 0
-3357 3354 0
-3361 3339 3362 0
-3359 3339 3362 0
-3359 -3361 3362 0
-3362 3336 0
-3360 3336 0
-3362 -3360 3337 0
-3358 3336 0
-3362 -3358 3337 0
-3358 -3360 3337 0
-3362 -3358 -3360 3338 0
-66 3361 3365 0
-3364 3361 3365 0
-3364 -66 3365 0
-3365 3360 0
-3363 3360 0
-3365 -3363 0
-65 3364 3366 0
-64 3364 3366 0
-64 -65 3366 0
-3366 3363 0
-63 3359 3369 0
-3368 3359 3369 0
-3368 -63 3369 0
-3369 3358 0
-3367 3358 0
-3369 -3367 0
-62 3368 3370 0
-61 3368 3370 0
-61 -62 3370 0
-3370 3367 0
-3378 3329 3379 0
-3374 3329 3379 0
-3374 -3378 3379 0
-3379 3325 0
-3375 3325 0
-3379 -3375 3326 0
-3376 3326 0
-3379 -3376 3327 0
-3377 3327 0
-3379 -3377 3328 0
-3371 3325 0
-3379 -3371 3326 0
-3372 3326 0
-3379 -3372 3327 0
-3373 3327 0
-3379 -3373 3328 0
-3371 -3375 3326 0
-3379 -3371 -3375 3327 0
-3371 -3376 3327 0
-3379 -3371 -3376 3328 0
-3371 -3377 3328 0
-3379 -3371 -3377 0
-3372 -3375 3327 0
-3379 -3372 -3375 3328 0
-3372 -3376 3328 0
-3379 -3372 -3376 0
-3372 -3377 0
-3379 -3372 -3377 0
-3373 -3375 3328 0
-3379 -3373 -3375 0
-3373 -3376 0
-3379 -3373 -3376 0
-3373 -3377 0
-3379 -3373 -3377 0
-3383 3378 3384 0
-3381 3378 3384 0
-3381 -3383 3384 0
-3384 3375 0
-3382 3375 0
-3384 -3382 3376 0
-3380 3375 0
-3384 -3380 3376 0
-3380 -3382 3376 0
-3384 -3380 -3382 3377 0
-60 3383 3387 0
-3386 3383 3387 0
-3386 -60 3387 0
-3387 3382 0
-3385 3382 0
-3387 -3385 0
-59 3386 3388 0
-58 3386 3388 0
-58 -59 3388 0
-3388 3385 0
-57 3381 3391 0
-3390 3381 3391 0
-3390 -57 3391 0
-3391 3380 0
-3389 3380 0
-3391 -3389 0
-56 3390 3392 0
-55 3390 3392 0
-55 -56 3392 0
-3392 3389 0
-3396 3374 3397 0
-3394 3374 3397 0
-3394 -3396 3397 0
-3397 3371 0
-3395 3371 0
-3397 -3395 3372 0
-3393 3371 0
-3397 -3393 3372 0
-3393 -3395 3372 0
-3397 -3393 -3395 3373 0
-54 3396 3400 0
-3399 3396 3400 0
-3399 -54 3400 0
-3400 3395 0
-3398 3395 0
-3400 -3398 0
-53 3399 3401 0
-52 3399 3401 0
-52 -53 3401 0
-3401 3398 0
-51 3394 3404 0
-3403 3394 3404 0
-3403 -51 3404 0
-3404 3393 0
-3402 3393 0
-3404 -3402 0
-50 3403 3405 0
-49 3403 3405 0
-49 -50 3405 0
-3405 3402 0
-3415 3226 3416 0
-3410 3226 3416 0
-3410 -3415 3416 0
-3416 3222 0
-3411 3222 0
-3416 -3411 3223 0
-3412 3223 0
-3416 -3412 3224 0
-3413 3224 0
-3416 -3413 3225 0
-3414 3225 0
-3416 -3414 0
-3406 3222 0
-3416 -3406 3223 0
-3407 3223 0
-3416 -3407 3224 0
-3408 3224 0
-3416 -3408 3225 0
-3409 3225 0
-3416 -3409 0
-3406 -3411 3223 0
-3416 -3406 -3411 3224 0
-3406 -3412 3224 0
-3416 -3406 -3412 3225 0
-3406 -3413 3225 0
-3416 -3406 -3413 0
-3406 -3414 0
-3416 -3406 -3414 0
-3407 -3411 3224 0
-3416 -3407 -3411 3225 0
-3407 -3412 3225 0
-3416 -3407 -3412 0
-3407 -3413 0
-3416 -3407 -3413 0
-3407 -3414 0
-3416 -3407 -3414 0
-3408 -3411 3225 0
-3416 -3408 -3411 0
-3408 -3412 0
-3416 -3408 -3412 0
-3408 -3413 0
-3416 -3408 -3413 0
-3408 -3414 0
-3416 -3408 -3414 0
-3409 -3411 0
-3416 -3409 -3411 0
-3409 -3412 0
-3416 -3409 -3412 0
-3409 -3413 0
-3416 -3409 -3413 0
-3409 -3414 0
-3416 -3409 -3414 0
-3426 3415 3427 0
-3421 3415 3427 0
-3421 -3426 3427 0
-3427 3411 0
-3422 3411 0
-3427 -3422 3412 0
-3423 3412 0
-3427 -3423 3413 0
-3424 3413 0
-3427 -3424 3414 0
-3425 3414 0
-3427 -3425 0
-3417 3411 0
-3427 -3417 3412 0
-3418 3412 0
-3427 -3418 3413 0
-3419 3413 0
-3427 -3419 3414 0
-3420 3414 0
-3427 -3420 0
-3417 -3422 3412 0
-3427 -3417 -3422 3413 0
-3417 -3423 3413 0
-3427 -3417 -3423 3414 0
-3417 -3424 3414 0
-3427 -3417 -3424 0
-3417 -3425 0
-3427 -3417 -3425 0
-3418 -3422 3413 0
-3427 -3418 -3422 3414 0
-3418 -3423 3414 0
-3427 -3418 -3423 0
-3418 -3424 0
-3427 -3418 -3424 0
-3418 -3425 0
-3427 -3418 -3425 0
-3419 -3422 3414 0
-3427 -3419 -3422 0
-3419 -3423 0
-3427 -3419 -3423 0
-3419 -3424 0
-3427 -3419 -3424 0
-3419 -3425 0
-3427 -3419 -3425 0
-3420 -3422 0
-3427 -3420 -3422 0
-3420 -3423 0
-3427 -3420 -3423 0
-3420 -3424 0
-3427 -3420 -3424 0
-3420 -3425 0
-3427 -3420 -3425 0
-3435 3426 3436 0
-3431 3426 3436 0
-3431 -3435 3436 0
-3436 3422 0
-3432 3422 0
-3436 -3432 3423 0
-3433 3423 0
-3436 -3433 3424 0
-3434 3424 0
-3436 -3434 3425 0
-3428 3422 0
-3436 -3428 3423 0
-3429 3423 0
-3436 -3429 3424 0
-3430 3424 0
-3436 -3430 3425 0
-3428 -3432 3423 0
-3436 -3428 -3432 3424 0
-3428 -3433 3424 0
-3436 -3428 -3433 3425 0
-3428 -3434 3425 0
-3436 -3428 -3434 0
-3429 -3432 3424 0
-3436 -3429 -3432 3425 0
-3429 -3433 3425 0
-3436 -3429 -3433 0
-3429 -3434 0
-3436 -3429 -3434 0
-3430 -3432 3425 0
-3436 -3430 -3432 0
-3430 -3433 0
-3436 -3430 -3433 0
-3430 -3434 0
-3436 -3430 -3434 0
-3440 3435 3441 0
-3438 3435 3441 0
-3438 -3440 3441 0
-3441 3432 0
-3439 3432 0
-3441 -3439 3433 0
-3437 3432 0
-3441 -3437 3433 0
-3437 -3439 3433 0
-3441 -3437 -3439 3434 0
-48 3440 3444 0
-3443 3440 3444 0
-3443 -48 3444 0
-3444 3439 0
-3442 3439 0
-3444 -3442 0
-47 3443 3445 0
-46 3443 3445 0
-46 -47 3445 0
-3445 3442 0
-45 3438 3448 0
-3447 3438 3448 0
-3447 -45 3448 0
-3448 3437 0
-3446 3437 0
-3448 -3446 0
-44 3447 3449 0
-43 3447 3449 0
-43 -44 3449 0
-3449 3446 0
-3453 3431 3454 0
-3451 3431 3454 0
-3451 -3453 3454 0
-3454 3428 0
-3452 3428 0
-3454 -3452 3429 0
-3450 3428 0
-3454 -3450 3429 0
-3450 -3452 3429 0
-3454 -3450 -3452 3430 0
-42 3453 3457 0
-3456 3453 3457 0
-3456 -42 3457 0
-3457 3452 0
-3455 3452 0
-3457 -3455 0
-41 3456 3458 0
-40 3456 3458 0
-40 -41 3458 0
-3458 3455 0
-39 3451 3461 0
-3460 3451 3461 0
-3460 -39 3461 0
-3461 3450 0
-3459 3450 0
-3461 -3459 0
-38 3460 3462 0
-37 3460 3462 0
-37 -38 3462 0
-3462 3459 0
-3470 3421 3471 0
-3466 3421 3471 0
-3466 -3470 3471 0
-3471 3417 0
-3467 3417 0
-3471 -3467 3418 0
-3468 3418 0
-3471 -3468 3419 0
-3469 3419 0
-3471 -3469 3420 0
-3463 3417 0
-3471 -3463 3418 0
-3464 3418 0
-3471 -3464 3419 0
-3465 3419 0
-3471 -3465 3420 0
-3463 -3467 3418 0
-3471 -3463 -3467 3419 0
-3463 -3468 3419 0
-3471 -3463 -3468 3420 0
-3463 -3469 3420 0
-3471 -3463 -3469 0
-3464 -3467 3419 0
-3471 -3464 -3467 3420 0
-3464 -3468 3420 0
-3471 -3464 -3468 0
-3464 -3469 0
-3471 -3464 -3469 0
-3465 -3467 3420 0
-3471 -3465 -3467 0
-3465 -3468 0
-3471 -3465 -3468 0
-3465 -3469 0
-3471 -3465 -3469 0
-3475 3470 3476 0
-3473 3470 3476 0
-3473 -3475 3476 0
-3476 3467 0
-3474 3467 0
-3476 -3474 3468 0
-3472 3467 0
-3476 -3472 3468 0
-3472 -3474 3468 0
-3476 -3472 -3474 3469 0
-36 3475 3479 0
-3478 3475 3479 0
-3478 -36 3479 0
-3479 3474 0
-3477 3474 0
-3479 -3477 0
-35 3478 3480 0
-34 3478 3480 0
-34 -35 3480 0
-3480 3477 0
-33 3473 3483 0
-3482 3473 3483 0
-3482 -33 3483 0
-3483 3472 0
-3481 3472 0
-3483 -3481 0
-32 3482 3484 0
-31 3482 3484 0
-31 -32 3484 0
-3484 3481 0
-3488 3466 3489 0
-3486 3466 3489 0
-3486 -3488 3489 0
-3489 3463 0
-3487 3463 0
-3489 -3487 3464 0
-3485 3463 0
-3489 -3485 3464 0
-3485 -3487 3464 0
-3489 -3485 -3487 3465 0
-30 3488 3492 0
-3491 3488 3492 0
-3491 -30 3492 0
-3492 3487 0
-3490 3487 0
-3492 -3490 0
-29 3491 3493 0
-28 3491 3493 0
-28 -29 3493 0
-3493 3490 0
-27 3486 3496 0
-3495 3486 3496 0
-3495 -27 3496 0
-3496 3485 0
-3494 3485 0
-3496 -3494 0
-26 3495 3497 0
-25 3495 3497 0
-25 -26 3497 0
-3497 3494 0
-3507 3410 3508 0
-3502 3410 3508 0
-3502 -3507 3508 0
-3508 3406 0
-3503 3406 0
-3508 -3503 3407 0
-3504 3407 0
-3508 -3504 3408 0
-3505 3408 0
-3508 -3505 3409 0
-3506 3409 0
-3508 -3506 0
-3498 3406 0
-3508 -3498 3407 0
-3499 3407 0
-3508 -3499 3408 0
-3500 3408 0
-3508 -3500 3409 0
-3501 3409 0
-3508 -3501 0
-3498 -3503 3407 0
-3508 -3498 -3503 3408 0
-3498 -3504 3408 0
-3508 -3498 -3504 3409 0
-3498 -3505 3409 0
-3508 -3498 -3505 0
-3498 -3506 0
-3508 -3498 -3506 0
-3499 -3503 3408 0
-3508 -3499 -3503 3409 0
-3499 -3504 3409 0
-3508 -3499 -3504 0
-3499 -3505 0
-3508 -3499 -3505 0
-3499 -3506 0
-3508 -3499 -3506 0
-3500 -3503 3409 0
-3508 -3500 -3503 0
-3500 -3504 0
-3508 -3500 -3504 0
-3500 -3505 0
-3508 -3500 -3505 0
-3500 -3506 0
-3508 -3500 -3506 0
-3501 -3503 0
-3508 -3501 -3503 0
-3501 -3504 0
-3508 -3501 -3504 0
-3501 -3505 0
-3508 -3501 -3505 0
-3501 -3506 0
-3508 -3501 -3506 0
-3516 3507 3517 0
-3512 3507 3517 0
-3512 -3516 3517 0
-3517 3503 0
-3513 3503 0
-3517 -3513 3504 0
-3514 3504 0
-3517 -3514 3505 0
-3515 3505 0
-3517 -3515 3506 0
-3509 3503 0
-3517 -3509 3504 0
-3510 3504 0
-3517 -3510 3505 0
-3511 3505 0
-3517 -3511 3506 0
-3509 -3513 3504 0
-3517 -3509 -3513 3505 0
-3509 -3514 3505 0
-3517 -3509 -3514 3506 0
-3509 -3515 3506 0
-3517 -3509 -3515 0
-3510 -3513 3505 0
-3517 -3510 -3513 3506 0
-3510 -3514 3506 0
-3517 -3510 -3514 0
-3510 -3515 0
-3517 -3510 -3515 0
-3511 -3513 3506 0
-3517 -3511 -3513 0
-3511 -3514 0
-3517 -3511 -3514 0
-3511 -3515 0
-3517 -3511 -3515 0
-3521 3516 3522 0
-3519 3516 3522 0
-3519 -3521 3522 0
-3522 3513 0
-3520 3513 0
-3522 -3520 3514 0
-3518 3513 0
-3522 -3518 3514 0
-3518 -3520 3514 0
-3522 -3518 -3520 3515 0
-24 3521 3525 0
-3524 3521 3525 0
-3524 -24 3525 0
-3525 3520 0
-3523 3520 0
-3525 -3523 0
-23 3524 3526 0
-22 3524 3526 0
-22 -23 3526 0
-3526 3523 0
-21 3519 3529 0
-3528 3519 3529 0
-3528 -21 3529 0
-3529 3518 0
-3527 3518 0
-3529 -3527 0
-20 3528 3530 0
-19 3528 3530 0
-19 -20 3530 0
-3530 3527 0
-3534 3512 3535 0
-3532 3512 3535 0
-3532 -3534 3535 0
-3535 3509 0
-3533 3509 0
-3535 -3533 3510 0
-3531 3509 0
-3535 -3531 3510 0
-3531 -3533 3510 0
-3535 -3531 -3533 3511 0
-18 3534 3538 0
-3537 3534 3538 0
-3537 -18 3538 0
-3538 3533 0
-3536 3533 0
-3538 -3536 0
-17 3537 3539 0
-16 3537 3539 0
-16 -17 3539 0
-3539 3536 0
-15 3532 3542 0
-3541 3532 3542 0
-3541 -15 3542 0
-3542 3531 0
-3540 3531 0
-3542 -3540 0
-14 3541 3543 0
-13 3541 3543 0
-13 -14 3543 0
-3543 3540 0
-3551 3502 3552 0
-3547 3502 3552 0
-3547 -3551 3552 0
-3552 3498 0
-3548 3498 0
-3552 -3548 3499 0
-3549 3499 0
-3552 -3549 3500 0
-3550 3500 0
-3552 -3550 3501 0
-3544 3498 0
-3552 -3544 3499 0
-3545 3499 0
-3552 -3545 3500 0
-3546 3500 0
-3552 -3546 3501 0
-3544 -3548 3499 0
-3552 -3544 -3548 3500 0
-3544 -3549 3500 0
-3552 -3544 -3549 3501 0
-3544 -3550 3501 0
-3552 -3544 -3550 0
-3545 -3548 3500 0
-3552 -3545 -3548 3501 0
-3545 -3549 3501 0
-3552 -3545 -3549 0
-3545 -3550 0
-3552 -3545 -3550 0
-3546 -3548 3501 0
-3552 -3546 -3548 0
-3546 -3549 0
-3552 -3546 -3549 0
-3546 -3550 0
-3552 -3546 -3550 0
-3556 3551 3557 0
-3554 3551 3557 0
-3554 -3556 3557 0
-3557 3548 0
-3555 3548 0
-3557 -3555 3549 0
-3553 3548 0
-3557 -3553 3549 0
-3553 -3555 3549 0
-3557 -3553 -3555 3550 0
-12 3556 3560 0
-3559 3556 3560 0
-3559 -12 3560 0
-3560 3555 0
-3558 3555 0
-3560 -3558 0
-11 3559 3561 0
-10 3559 3561 0
-10 -11 3561 0
-3561 3558 0
-9 3554 3564 0
-3563 3554 3564 0
-3563 -9 3564 0
-3564 3553 0
-3562 3553 0
-3564 -3562 0
-8 3563 3565 0
-7 3563 3565 0
-7 -8 3565 0
-3565 3562 0
-3569 3547 3570 0
-3567 3547 3570 0
-3567 -3569 3570 0
-3570 3544 0
-3568 3544 0
-3570 -3568 3545 0
-3566 3544 0
-3570 -3566 3545 0
-3566 -3568 3545 0
-3570 -3566 -3568 3546 0
-6 3569 3573 0
-3572 3569 3573 0
-3572 -6 3573 0
-3573 3568 0
-3571 3568 0
-3573 -3571 0
-5 3572 3574 0
-4 3572 3574 0
-4 -5 3574 0
-3574 3571 0
-3 3567 3577 0
-3576 3567 3577 0
-3576 -3 3577 0
-3577 3566 0
-3575 3566 0
-3577 -3575 0
-2 3576 3578 0
-1 3576 3578 0
-1 -2 3578 0
-3578 3575 0
-2116 -2117 0
