p cnf 333 969
1 19 -43 0
-1 -19 -43 0
1 -19 43 0
-1 19 43 0
43 20 -44 0
-43 -20 -44 0
43 -20 44 0
-43 20 44 0
44 21 -45 0
-44 -21 -45 0
44 -21 45 0
-44 21 45 0
45 22 -46 0
-45 -22 -46 0
45 -22 46 0
-45 22 46 0
46 38 -47 0
-46 -38 -47 0
46 -38 47 0
-46 38 47 0
47 40 -48 0
-47 -40 -48 0
47 -40 48 0
-47 40 48 0
48 41 -49 0
-48 -41 -49 0
48 -41 49 0
-48 41 49 0
-49 0
1 2 -50 0
-1 -2 -50 0
1 -2 50 0
-1 2 50 0
50 20 -51 0
-50 -20 -51 0
50 -20 51 0
-50 20 51 0
51 21 -52 0
-51 -21 -52 0
51 -21 52 0
-51 21 52 0
52 23 -53 0
-52 -23 -53 0
52 -23 53 0
-52 23 53 0
53 39 -54 0
-53 -39 -54 0
53 -39 54 0
-53 39 54 0
54 41 -55 0
-54 -41 -55 0
54 -41 55 0
-54 41 55 0
55 42 -56 0
-55 -42 -56 0
55 -42 56 0
-55 42 56 0
-56 0
1 2 -57 0
-1 -2 -57 0
1 -2 57 0
-1 2 57 0
57 3 -58 0
-57 -3 -58 0
57 -3 58 0
-57 3 58 0
58 21 -59 0
-58 -21 -59 0
58 -21 59 0
-58 21 59 0
59 22 -60 0
-59 -22 -60 0
59 -22 60 0
-59 22 60 0
60 24 -61 0
-60 -24 -61 0
60 -24 61 0
-60 24 61 0
61 40 -62 0
-61 -40 -62 0
61 -40 62 0
-61 40 62 0
62 42 -63 0
-62 -42 -63 0
62 -42 63 0
-62 42 63 0
-63 0
1 2 -64 0
-1 -2 -64 0
1 -2 64 0
-1 2 64 0
64 3 -65 0
-64 -3 -65 0
64 -3 65 0
-64 3 65 0
65 4 -66 0
-65 -4 -66 0
65 -4 66 0
-65 4 66 0
66 22 -67 0
-66 -22 -67 0
66 -22 67 0
-66 22 67 0
67 23 -68 0
-67 -23 -68 0
67 -23 68 0
-67 23 68 0
68 25 -69 0
-68 -25 -69 0
68 -25 69 0
-68 25 69 0
69 41 -70 0
-69 -41 -70 0
69 -41 70 0
-69 41 70 0
-70 0
2 3 -71 0
-2 -3 -71 0
2 -3 71 0
-2 3 71 0
71 4 -72 0
-71 -4 -72 0
71 -4 72 0
-71 4 72 0
72 5 -73 0
-72 -5 -73 0
72 -5 73 0
-72 5 73 0
73 23 -74 0
-73 -23 -74 0
73 -23 74 0
-73 23 74 0
74 24 -75 0
-74 -24 -75 0
74 -24 75 0
-74 24 75 0
75 26 -76 0
-75 -26 -76 0
75 -26 76 0
-75 26 76 0
76 42 -77 0
-76 -42 -77 0
76 -42 77 0
-76 42 77 0
-77 0
3 4 -78 0
-3 -4 -78 0
3 -4 78 0
-3 4 78 0
78 5 -79 0
-78 -5 -79 0
78 -5 79 0
-78 5 79 0
79 6 -80 0
-79 -6 -80 0
79 -6 80 0
-79 6 80 0
80 22 -81 0
-80 -22 -81 0
80 -22 81 0
-80 22 81 0
81 24 -82 0
-81 -24 -82 0
81 -24 82 0
-81 24 82 0
82 25 -83 0
-82 -25 -83 0
82 -25 83 0
-82 25 83 0
83 27 -84 0
-83 -27 -84 0
83 -27 84 0
-83 27 84 0
-84 0
4 5 -85 0
-4 -5 -85 0
4 -5 85 0
-4 5 85 0
85 6 -86 0
-85 -6 -86 0
85 -6 86 0
-85 6 86 0
86 7 -87 0
-86 -7 -87 0
86 -7 87 0
-86 7 87 0
87 23 -88 0
-87 -23 -88 0
87 -23 88 0
-87 23 88 0
88 25 -89 0
-88 -25 -89 0
88 -25 89 0
-88 25 89 0
89 26 -90 0
-89 -26 -90 0
89 -26 90 0
-89 26 90 0
90 28 -91 0
-90 -28 -91 0
90 -28 91 0
-90 28 91 0
-91 0
5 6 -92 0
-5 -6 -92 0
5 -6 92 0
-5 6 92 0
92 7 -93 0
-92 -7 -93 0
92 -7 93 0
-92 7 93 0
93 8 -94 0
-93 -8 -94 0
93 -8 94 0
-93 8 94 0
94 24 -95 0
-94 -24 -95 0
94 -24 95 0
-94 24 95 0
95 26 -96 0
-95 -26 -96 0
95 -26 96 0
-95 26 96 0
96 27 -97 0
-96 -27 -97 0
96 -27 97 0
-96 27 97 0
97 29 -98 0
-97 -29 -98 0
97 -29 98 0
-97 29 98 0
-98 0
6 7 -99 0
-6 -7 -99 0
6 -7 99 0
-6 7 99 0
99 8 -100 0
-99 -8 -100 0
99 -8 100 0
-99 8 100 0
100 9 -101 0
-100 -9 -101 0
100 -9 101 0
-100 9 101 0
101 25 -102 0
-101 -25 -102 0
101 -25 102 0
-101 25 102 0
102 27 -103 0
-102 -27 -103 0
102 -27 103 0
-102 27 103 0
103 28 -104 0
-103 -28 -104 0
103 -28 104 0
-103 28 104 0
104 30 -105 0
-104 -30 -105 0
104 -30 105 0
-104 30 105 0
-105 0
7 8 -106 0
-7 -8 -106 0
7 -8 106 0
-7 8 106 0
106 9 -107 0
-106 -9 -107 0
106 -9 107 0
-106 9 107 0
107 10 -108 0
-107 -10 -108 0
107 -10 108 0
-107 10 108 0
108 26 -109 0
-108 -26 -109 0
108 -26 109 0
-108 26 109 0
109 28 -110 0
-109 -28 -110 0
109 -28 110 0
-109 28 110 0
110 29 -111 0
-110 -29 -111 0
110 -29 111 0
-110 29 111 0
111 31 -112 0
-111 -31 -112 0
111 -31 112 0
-111 31 112 0
-112 0
8 9 -113 0
-8 -9 -113 0
8 -9 113 0
-8 9 113 0
113 10 -114 0
-113 -10 -114 0
113 -10 114 0
-113 10 114 0
114 11 -115 0
-114 -11 -115 0
114 -11 115 0
-114 11 115 0
115 27 -116 0
-115 -27 -116 0
115 -27 116 0
-115 27 116 0
116 29 -117 0
-116 -29 -117 0
116 -29 117 0
-116 29 117 0
117 30 -118 0
-117 -30 -118 0
117 -30 118 0
-117 30 118 0
118 32 -119 0
-118 -32 -119 0
118 -32 119 0
-118 32 119 0
-119 0
9 10 -120 0
-9 -10 -120 0
9 -10 120 0
-9 10 120 0
120 11 -121 0
-120 -11 -121 0
120 -11 121 0
-120 11 121 0
121 12 -122 0
-121 -12 -122 0
121 -12 122 0
-121 12 122 0
122 28 -123 0
-122 -28 -123 0
122 -28 123 0
-122 28 123 0
123 30 -124 0
-123 -30 -124 0
123 -30 124 0
-123 30 124 0
124 31 -125 0
-124 -31 -125 0
124 -31 125 0
-124 31 125 0
125 33 -126 0
-125 -33 -126 0
125 -33 126 0
-125 33 126 0
-126 0
10 11 -127 0
-10 -11 -127 0
10 -11 127 0
-10 11 127 0
127 12 -128 0
-127 -12 -128 0
127 -12 128 0
-127 12 128 0
128 13 -129 0
-128 -13 -129 0
128 -13 129 0
-128 13 129 0
129 29 -130 0
-129 -29 -130 0
129 -29 130 0
-129 29 130 0
130 31 -131 0
-130 -31 -131 0
130 -31 131 0
-130 31 131 0
131 32 -132 0
-131 -32 -132 0
131 -32 132 0
-131 32 132 0
132 34 -133 0
-132 -34 -133 0
132 -34 133 0
-132 34 133 0
-133 0
11 12 -134 0
-11 -12 -134 0
11 -12 134 0
-11 12 134 0
134 13 -135 0
-134 -13 -135 0
134 -13 135 0
-134 13 135 0
135 14 -136 0
-135 -14 -136 0
135 -14 136 0
-135 14 136 0
136 30 -137 0
-136 -30 -137 0
136 -30 137 0
-136 30 137 0
137 32 -138 0
-137 -32 -138 0
137 -32 138 0
-137 32 138 0
138 33 -139 0
-138 -33 -139 0
138 -33 139 0
-138 33 139 0
139 35 -140 0
-139 -35 -140 0
139 -35 140 0
-139 35 140 0
-140 0
12 13 -141 0
-12 -13 -141 0
12 -13 141 0
-12 13 141 0
141 14 -142 0
-141 -14 -142 0
141 -14 142 0
-141 14 142 0
142 15 -143 0
-142 -15 -143 0
142 -15 143 0
-142 15 143 0
143 31 -144 0
-143 -31 -144 0
143 -31 144 0
-143 31 144 0
144 33 -145 0
-144 -33 -145 0
144 -33 145 0
-144 33 145 0
145 34 -146 0
-145 -34 -146 0
145 -34 146 0
-145 34 146 0
146 36 -147 0
-146 -36 -147 0
146 -36 147 0
-146 36 147 0
-147 0
13 14 -148 0
-13 -14 -148 0
13 -14 148 0
-13 14 148 0
148 15 -149 0
-148 -15 -149 0
148 -15 149 0
-148 15 149 0
149 16 -150 0
-149 -16 -150 0
149 -16 150 0
-149 16 150 0
150 32 -151 0
-150 -32 -151 0
150 -32 151 0
-150 32 151 0
151 34 -152 0
-151 -34 -152 0
151 -34 152 0
-151 34 152 0
152 35 -153 0
-152 -35 -153 0
152 -35 153 0
-152 35 153 0
153 37 -154 0
-153 -37 -154 0
153 -37 154 0
-153 37 154 0
-154 0
14 15 -155 0
-14 -15 -155 0
14 -15 155 0
-14 15 155 0
155 16 -156 0
-155 -16 -156 0
155 -16 156 0
-155 16 156 0
156 17 -157 0
-156 -17 -157 0
156 -17 157 0
-156 17 157 0
157 33 -158 0
-157 -33 -158 0
157 -33 158 0
-157 33 158 0
158 35 -159 0
-158 -35 -159 0
158 -35 159 0
-158 35 159 0
159 36 -160 0
-159 -36 -160 0
159 -36 160 0
-159 36 160 0
160 38 -161 0
-160 -38 -161 0
160 -38 161 0
-160 38 161 0
-161 0
15 16 -162 0
-15 -16 -162 0
15 -16 162 0
-15 16 162 0
162 17 -163 0
-162 -17 -163 0
162 -17 163 0
-162 17 163 0
163 18 -164 0
-163 -18 -164 0
163 -18 164 0
-163 18 164 0
164 34 -165 0
-164 -34 -165 0
164 -34 165 0
-164 34 165 0
165 36 -166 0
-165 -36 -166 0
165 -36 166 0
-165 36 166 0
166 37 -167 0
-166 -37 -167 0
166 -37 167 0
-166 37 167 0
167 39 -168 0
-167 -39 -168 0
167 -39 168 0
-167 39 168 0
-168 0
16 17 -169 0
-16 -17 -169 0
16 -17 169 0
-16 17 169 0
169 18 -170 0
-169 -18 -170 0
169 -18 170 0
-169 18 170 0
170 19 -171 0
-170 -19 -171 0
170 -19 171 0
-170 19 171 0
171 35 -172 0
-171 -35 -172 0
171 -35 172 0
-171 35 172 0
172 37 -173 0
-172 -37 -173 0
172 -37 173 0
-172 37 173 0
173 38 -174 0
-173 -38 -174 0
173 -38 174 0
-173 38 174 0
174 40 -175 0
-174 -40 -175 0
174 -40 175 0
-174 40 175 0
-175 0
17 18 -176 0
-17 -18 -176 0
17 -18 176 0
-17 18 176 0
176 19 -177 0
-176 -19 -177 0
176 -19 177 0
-176 19 177 0
177 20 -178 0
-177 -20 -178 0
177 -20 178 0
-177 20 178 0
178 36 -179 0
-178 -36 -179 0
178 -36 179 0
-178 36 179 0
179 38 -180 0
-179 -38 -180 0
179 -38 180 0
-179 38 180 0
180 39 -181 0
-180 -39 -181 0
180 -39 181 0
-180 39 181 0
181 41 -182 0
-181 -41 -182 0
181 -41 182 0
-181 41 182 0
-182 0
18 19 -183 0
-18 -19 -183 0
18 -19 183 0
-18 19 183 0
183 20 -184 0
-183 -20 -184 0
183 -20 184 0
-183 20 184 0
184 21 -185 0
-184 -21 -185 0
184 -21 185 0
-184 21 185 0
185 37 -186 0
-185 -37 -186 0
185 -37 186 0
-185 37 186 0
186 39 -187 0
-186 -39 -187 0
186 -39 187 0
-186 39 187 0
187 40 -188 0
-187 -40 -188 0
187 -40 188 0
-187 40 188 0
188 42 -189 0
-188 -42 -189 0
188 -42 189 0
-188 42 189 0
-189 0
1 23 -190 0
-1 -23 -190 0
1 -23 190 0
-1 23 190 0
190 24 -191 0
-190 -24 -191 0
190 -24 191 0
-190 24 191 0
191 25 -192 0
-191 -25 -192 0
191 -25 192 0
-191 25 192 0
192 26 -193 0
-192 -26 -193 0
192 -26 193 0
-192 26 193 0
193 27 -194 0
-193 -27 -194 0
193 -27 194 0
-193 27 194 0
194 28 -195 0
-194 -28 -195 0
194 -28 195 0
-194 28 195 0
195 29 -196 0
-195 -29 -196 0
195 -29 196 0
-195 29 196 0
196 30 -197 0
-196 -30 -197 0
196 -30 197 0
-196 30 197 0
197 31 -198 0
-197 -31 -198 0
197 -31 198 0
-197 31 198 0
198 32 -199 0
-198 -32 -199 0
198 -32 199 0
-198 32 199 0
199 33 -200 0
-199 -33 -200 0
199 -33 200 0
-199 33 200 0
200 34 -201 0
-200 -34 -201 0
200 -34 201 0
-200 34 201 0
201 35 -202 0
-201 -35 -202 0
201 -35 202 0
-201 35 202 0
202 36 -203 0
-202 -36 -203 0
202 -36 203 0
-202 36 203 0
203 37 -204 0
-203 -37 -204 0
203 -37 204 0
-203 37 204 0
204 38 -205 0
-204 -38 -205 0
204 -38 205 0
-204 38 205 0
205 39 -206 0
-205 -39 -206 0
205 -39 206 0
-205 39 206 0
206 40 -207 0
-206 -40 -207 0
206 -40 207 0
-206 40 207 0
4 23 -208 0
-4 -23 -208 0
4 -23 208 0
-4 23 208 0
208 24 -209 0
-208 -24 -209 0
208 -24 209 0
-208 24 209 0
209 25 -210 0
-209 -25 -210 0
209 -25 210 0
-209 25 210 0
207 210 0
1 0
-216 212 217 0
-214 212 217 0
-214 -216 217 0
-217 211 0
-215 211 0
-217 -215 0
-213 211 0
-217 -213 0
-213 -215 0
-217 -213 -215 0
-221 216 222 0
-219 216 222 0
-219 -221 222 0
-222 215 0
-220 215 0
-222 -220 0
-218 215 0
-222 -218 0
-218 -220 0
-222 -218 -220 0
-226 221 227 0
-224 221 227 0
-224 -226 227 0
-227 220 0
-225 220 0
-227 -225 0
-223 220 0
-227 -223 0
-223 -225 0
-227 -223 -225 0
-231 226 232 0
-229 226 232 0
-229 -231 232 0
-232 225 0
-230 225 0
-232 -230 0
-228 225 0
-232 -228 0
-228 -230 0
-232 -228 -230 0
-42 231 233 0
-41 231 233 0
-41 -42 233 0
-233 230 0
-40 229 236 0
-235 229 236 0
-235 -40 236 0
-236 228 0
-234 228 0
-236 -234 0
-39 235 237 0
-38 235 237 0
-38 -39 237 0
-237 234 0
-241 224 242 0
-239 224 242 0
-239 -241 242 0
-242 223 0
-240 223 0
-242 -240 0
-238 223 0
-242 -238 0
-238 -240 0
-242 -238 -240 0
-37 241 243 0
-36 241 243 0
-36 -37 243 0
-243 240 0
-35 239 246 0
-245 239 246 0
-245 -35 246 0
-246 238 0
-244 238 0
-246 -244 0
-34 245 247 0
-33 245 247 0
-33 -34 247 0
-247 244 0
-251 219 252 0
-249 219 252 0
-249 -251 252 0
-252 218 0
-250 218 0
-252 -250 0
-248 218 0
-252 -248 0
-248 -250 0
-252 -248 -250 0
-256 251 257 0
-254 251 257 0
-254 -256 257 0
-257 250 0
-255 250 0
-257 -255 0
-253 250 0
-257 -253 0
-253 -255 0
-257 -253 -255 0
-32 256 258 0
-31 256 258 0
-31 -32 258 0
-258 255 0
-30 254 261 0
-260 254 261 0
-260 -30 261 0
-261 253 0
-259 253 0
-261 -259 0
-29 260 262 0
-28 260 262 0
-28 -29 262 0
-262 259 0
-266 249 267 0
-264 249 267 0
-264 -266 267 0
-267 248 0
-265 248 0
-267 -265 0
-263 248 0
-267 -263 0
-263 -265 0
-267 -263 -265 0
-27 266 270 0
-269 266 270 0
-269 -27 270 0
-270 265 0
-268 265 0
-270 -268 0
-26 269 271 0
-25 269 271 0
-25 -26 271 0
-271 268 0
-24 264 274 0
-273 264 274 0
-273 -24 274 0
-274 263 0
-272 263 0
-274 -272 0
-23 273 275 0
-22 273 275 0
-22 -23 275 0
-275 272 0
-279 214 280 0
-277 214 280 0
-277 -279 280 0
-280 213 0
-278 213 0
-280 -278 0
-276 213 0
-280 -276 0
-276 -278 0
-280 -276 -278 0
-284 279 285 0
-282 279 285 0
-282 -284 285 0
-285 278 0
-283 278 0
-285 -283 0
-281 278 0
-285 -281 0
-281 -283 0
-285 -281 -283 0
-289 284 290 0
-287 284 290 0
-287 -289 290 0
-290 283 0
-288 283 0
-290 -288 0
-286 283 0
-290 -286 0
-286 -288 0
-290 -286 -288 0
-21 289 291 0
-20 289 291 0
-20 -21 291 0
-291 288 0
-19 287 294 0
-293 287 294 0
-293 -19 294 0
-294 286 0
-292 286 0
-294 -292 0
-18 293 295 0
-17 293 295 0
-17 -18 295 0
-295 292 0
-299 282 300 0
-297 282 300 0
-297 -299 300 0
-300 281 0
-298 281 0
-300 -298 0
-296 281 0
-300 -296 0
-296 -298 0
-300 -296 -298 0
-16 299 301 0
-15 299 301 0
-15 -16 301 0
-301 298 0
-14 297 304 0
-303 297 304 0
-303 -14 304 0
-304 296 0
-302 296 0
-304 -302 0
-13 303 305 0
-12 303 305 0
-12 -13 305 0
-305 302 0
-309 277 310 0
-307 277 310 0
-307 -309 310 0
-310 276 0
-308 276 0
-310 -308 0
-306 276 0
-310 -306 0
-306 -308 0
-310 -306 -308 0
-314 309 315 0
-312 309 315 0
-312 -314 315 0
-315 308 0
-313 308 0
-315 -313 0
-311 308 0
-315 -311 0
-311 -313 0
-315 -311 -313 0
-11 314 316 0
-10 314 316 0
-10 -11 316 0
-316 313 0
-9 312 319 0
-318 312 319 0
-318 -9 319 0
-319 311 0
-317 311 0
-319 -317 0
-8 318 320 0
-7 318 320 0
-7 -8 320 0
-320 317 0
-324 307 325 0
-322 307 325 0
-322 -324 325 0
-325 306 0
-323 306 0
-325 -323 0
-321 306 0
-325 -321 0
-321 -323 0
-325 -321 -323 0
-6 324 328 0
-327 324 328 0
-327 -6 328 0
-328 323 0
-326 323 0
-328 -326 0
-5 327 329 0
-4 327 329 0
-4 -5 329 0
-329 326 0
-3 322 332 0
-331 322 332 0
-331 -3 332 0
-332 321 0
-330 321 0
-332 -330 0
-2 331 333 0
-1 331 333 0
-1 -2 333 0
-333 330 0
