p cnf 3062 9840
1 150 -311 0
-1 -150 -311 0
1 -150 311 0
-1 150 311 0
311 151 -312 0
-311 -151 -312 0
311 -151 312 0
-311 151 312 0
312 155 -313 0
-312 -155 -313 0
312 -155 313 0
-312 155 313 0
313 156 -314 0
-313 -156 -314 0
313 -156 314 0
-313 156 314 0
314 286 -315 0
-314 -286 -315 0
314 -286 315 0
-314 286 315 0
315 296 -316 0
-315 -296 -316 0
315 -296 316 0
-315 296 316 0
316 301 -317 0
-316 -301 -317 0
316 -301 317 0
-316 301 317 0
-317 0
1 2 -318 0
-1 -2 -318 0
1 -2 318 0
-1 2 318 0
318 151 -319 0
-318 -151 -319 0
318 -151 319 0
-318 151 319 0
319 152 -320 0
-319 -152 -320 0
319 -152 320 0
-319 152 320 0
320 157 -321 0
-320 -157 -321 0
320 -157 321 0
-320 157 321 0
321 287 -322 0
-321 -287 -322 0
321 -287 322 0
-321 287 322 0
322 297 -323 0
-322 -297 -323 0
322 -297 323 0
-322 297 323 0
323 302 -324 0
-323 -302 -324 0
323 -302 324 0
-323 302 324 0
-324 0
2 3 -325 0
-2 -3 -325 0
2 -3 325 0
-2 3 325 0
325 152 -326 0
-325 -152 -326 0
325 -152 326 0
-325 152 326 0
326 153 -327 0
-326 -153 -327 0
326 -153 327 0
-326 153 327 0
327 158 -328 0
-327 -158 -328 0
327 -158 328 0
-327 158 328 0
328 288 -329 0
-328 -288 -329 0
328 -288 329 0
-328 288 329 0
329 298 -330 0
-329 -298 -330 0
329 -298 330 0
-329 298 330 0
330 303 -331 0
-330 -303 -331 0
330 -303 331 0
-330 303 331 0
-331 0
3 4 -332 0
-3 -4 -332 0
3 -4 332 0
-3 4 332 0
332 153 -333 0
-332 -153 -333 0
332 -153 333 0
-332 153 333 0
333 154 -334 0
-333 -154 -334 0
333 -154 334 0
-333 154 334 0
334 159 -335 0
-334 -159 -335 0
334 -159 335 0
-334 159 335 0
335 289 -336 0
-335 -289 -336 0
335 -289 336 0
-335 289 336 0
336 299 -337 0
-336 -299 -337 0
336 -299 337 0
-336 299 337 0
337 304 -338 0
-337 -304 -338 0
337 -304 338 0
-337 304 338 0
-338 0
4 5 -339 0
-4 -5 -339 0
4 -5 339 0
-4 5 339 0
339 154 -340 0
-339 -154 -340 0
339 -154 340 0
-339 154 340 0
340 155 -341 0
-340 -155 -341 0
340 -155 341 0
-340 155 341 0
341 160 -342 0
-341 -160 -342 0
341 -160 342 0
-341 160 342 0
342 290 -343 0
-342 -290 -343 0
342 -290 343 0
-342 290 343 0
343 300 -344 0
-343 -300 -344 0
343 -300 344 0
-343 300 344 0
344 305 -345 0
-344 -305 -345 0
344 -305 345 0
-344 305 345 0
-345 0
1 5 -346 0
-1 -5 -346 0
1 -5 346 0
-1 5 346 0
346 6 -347 0
-346 -6 -347 0
346 -6 347 0
-346 6 347 0
347 155 -348 0
-347 -155 -348 0
347 -155 348 0
-347 155 348 0
348 161 -349 0
-348 -161 -349 0
348 -161 349 0
-348 161 349 0
349 291 -350 0
-349 -291 -350 0
349 -291 350 0
-349 291 350 0
350 301 -351 0
-350 -301 -351 0
350 -301 351 0
-350 301 351 0
351 306 -352 0
-351 -306 -352 0
351 -306 352 0
-351 306 352 0
-352 0
1 2 -353 0
-1 -2 -353 0
1 -2 353 0
-1 2 353 0
353 6 -354 0
-353 -6 -354 0
353 -6 354 0
-353 6 354 0
354 7 -355 0
-354 -7 -355 0
354 -7 355 0
-354 7 355 0
355 162 -356 0
-355 -162 -356 0
355 -162 356 0
-355 162 356 0
356 292 -357 0
-356 -292 -357 0
356 -292 357 0
-356 292 357 0
357 302 -358 0
-357 -302 -358 0
357 -302 358 0
-357 302 358 0
358 307 -359 0
-358 -307 -359 0
358 -307 359 0
-358 307 359 0
-359 0
2 3 -360 0
-2 -3 -360 0
2 -3 360 0
-2 3 360 0
360 7 -361 0
-360 -7 -361 0
360 -7 361 0
-360 7 361 0
361 8 -362 0
-361 -8 -362 0
361 -8 362 0
-361 8 362 0
362 163 -363 0
-362 -163 -363 0
362 -163 363 0
-362 163 363 0
363 293 -364 0
-363 -293 -364 0
363 -293 364 0
-363 293 364 0
364 303 -365 0
-364 -303 -365 0
364 -303 365 0
-364 303 365 0
365 308 -366 0
-365 -308 -366 0
365 -308 366 0
-365 308 366 0
-366 0
3 4 -367 0
-3 -4 -367 0
3 -4 367 0
-3 4 367 0
367 8 -368 0
-367 -8 -368 0
367 -8 368 0
-367 8 368 0
368 9 -369 0
-368 -9 -369 0
368 -9 369 0
-368 9 369 0
369 164 -370 0
-369 -164 -370 0
369 -164 370 0
-369 164 370 0
370 294 -371 0
-370 -294 -371 0
370 -294 371 0
-370 294 371 0
371 304 -372 0
-371 -304 -372 0
371 -304 372 0
-371 304 372 0
372 309 -373 0
-372 -309 -373 0
372 -309 373 0
-372 309 373 0
-373 0
4 5 -374 0
-4 -5 -374 0
4 -5 374 0
-4 5 374 0
374 9 -375 0
-374 -9 -375 0
374 -9 375 0
-374 9 375 0
375 10 -376 0
-375 -10 -376 0
375 -10 376 0
-375 10 376 0
376 165 -377 0
-376 -165 -377 0
376 -165 377 0
-376 165 377 0
377 295 -378 0
-377 -295 -378 0
377 -295 378 0
-377 295 378 0
378 305 -379 0
-378 -305 -379 0
378 -305 379 0
-378 305 379 0
379 310 -380 0
-379 -310 -380 0
379 -310 380 0
-379 310 380 0
-380 0
5 6 -381 0
-5 -6 -381 0
5 -6 381 0
-5 6 381 0
381 10 -382 0
-381 -10 -382 0
381 -10 382 0
-381 10 382 0
382 11 -383 0
-382 -11 -383 0
382 -11 383 0
-382 11 383 0
383 156 -384 0
-383 -156 -384 0
383 -156 384 0
-383 156 384 0
384 166 -385 0
-384 -166 -385 0
384 -166 385 0
-384 166 385 0
385 296 -386 0
-385 -296 -386 0
385 -296 386 0
-385 296 386 0
386 306 -387 0
-386 -306 -387 0
386 -306 387 0
-386 306 387 0
-387 0
6 7 -388 0
-6 -7 -388 0
6 -7 388 0
-6 7 388 0
388 11 -389 0
-388 -11 -389 0
388 -11 389 0
-388 11 389 0
389 12 -390 0
-389 -12 -390 0
389 -12 390 0
-389 12 390 0
390 157 -391 0
-390 -157 -391 0
390 -157 391 0
-390 157 391 0
391 167 -392 0
-391 -167 -392 0
391 -167 392 0
-391 167 392 0
392 297 -393 0
-392 -297 -393 0
392 -297 393 0
-392 297 393 0
393 307 -394 0
-393 -307 -394 0
393 -307 394 0
-393 307 394 0
-394 0
7 8 -395 0
-7 -8 -395 0
7 -8 395 0
-7 8 395 0
395 12 -396 0
-395 -12 -396 0
395 -12 396 0
-395 12 396 0
396 13 -397 0
-396 -13 -397 0
396 -13 397 0
-396 13 397 0
397 158 -398 0
-397 -158 -398 0
397 -158 398 0
-397 158 398 0
398 168 -399 0
-398 -168 -399 0
398 -168 399 0
-398 168 399 0
399 298 -400 0
-399 -298 -400 0
399 -298 400 0
-399 298 400 0
400 308 -401 0
-400 -308 -401 0
400 -308 401 0
-400 308 401 0
-401 0
8 9 -402 0
-8 -9 -402 0
8 -9 402 0
-8 9 402 0
402 13 -403 0
-402 -13 -403 0
402 -13 403 0
-402 13 403 0
403 14 -404 0
-403 -14 -404 0
403 -14 404 0
-403 14 404 0
404 159 -405 0
-404 -159 -405 0
404 -159 405 0
-404 159 405 0
405 169 -406 0
-405 -169 -406 0
405 -169 406 0
-405 169 406 0
406 299 -407 0
-406 -299 -407 0
406 -299 407 0
-406 299 407 0
407 309 -408 0
-407 -309 -408 0
407 -309 408 0
-407 309 408 0
-408 0
9 10 -409 0
-9 -10 -409 0
9 -10 409 0
-9 10 409 0
409 14 -410 0
-409 -14 -410 0
409 -14 410 0
-409 14 410 0
410 15 -411 0
-410 -15 -411 0
410 -15 411 0
-410 15 411 0
411 160 -412 0
-411 -160 -412 0
411 -160 412 0
-411 160 412 0
412 170 -413 0
-412 -170 -413 0
412 -170 413 0
-412 170 413 0
413 300 -414 0
-413 -300 -414 0
413 -300 414 0
-413 300 414 0
414 310 -415 0
-414 -310 -415 0
414 -310 415 0
-414 310 415 0
-415 0
10 11 -416 0
-10 -11 -416 0
10 -11 416 0
-10 11 416 0
416 15 -417 0
-416 -15 -417 0
416 -15 417 0
-416 15 417 0
417 16 -418 0
-417 -16 -418 0
417 -16 418 0
-417 16 418 0
418 156 -419 0
-418 -156 -419 0
418 -156 419 0
-418 156 419 0
419 161 -420 0
-419 -161 -420 0
419 -161 420 0
-419 161 420 0
420 171 -421 0
-420 -171 -421 0
420 -171 421 0
-420 171 421 0
421 301 -422 0
-421 -301 -422 0
421 -301 422 0
-421 301 422 0
-422 0
11 12 -423 0
-11 -12 -423 0
11 -12 423 0
-11 12 423 0
423 16 -424 0
-423 -16 -424 0
423 -16 424 0
-423 16 424 0
424 17 -425 0
-424 -17 -425 0
424 -17 425 0
-424 17 425 0
425 157 -426 0
-425 -157 -426 0
425 -157 426 0
-425 157 426 0
426 162 -427 0
-426 -162 -427 0
426 -162 427 0
-426 162 427 0
427 172 -428 0
-427 -172 -428 0
427 -172 428 0
-427 172 428 0
428 302 -429 0
-428 -302 -429 0
428 -302 429 0
-428 302 429 0
-429 0
12 13 -430 0
-12 -13 -430 0
12 -13 430 0
-12 13 430 0
430 17 -431 0
-430 -17 -431 0
430 -17 431 0
-430 17 431 0
431 18 -432 0
-431 -18 -432 0
431 -18 432 0
-431 18 432 0
432 158 -433 0
-432 -158 -433 0
432 -158 433 0
-432 158 433 0
433 163 -434 0
-433 -163 -434 0
433 -163 434 0
-433 163 434 0
434 173 -435 0
-434 -173 -435 0
434 -173 435 0
-434 173 435 0
435 303 -436 0
-435 -303 -436 0
435 -303 436 0
-435 303 436 0
-436 0
13 14 -437 0
-13 -14 -437 0
13 -14 437 0
-13 14 437 0
437 18 -438 0
-437 -18 -438 0
437 -18 438 0
-437 18 438 0
438 19 -439 0
-438 -19 -439 0
438 -19 439 0
-438 19 439 0
439 159 -440 0
-439 -159 -440 0
439 -159 440 0
-439 159 440 0
440 164 -441 0
-440 -164 -441 0
440 -164 441 0
-440 164 441 0
441 174 -442 0
-441 -174 -442 0
441 -174 442 0
-441 174 442 0
442 304 -443 0
-442 -304 -443 0
442 -304 443 0
-442 304 443 0
-443 0
14 15 -444 0
-14 -15 -444 0
14 -15 444 0
-14 15 444 0
444 19 -445 0
-444 -19 -445 0
444 -19 445 0
-444 19 445 0
445 20 -446 0
-445 -20 -446 0
445 -20 446 0
-445 20 446 0
446 160 -447 0
-446 -160 -447 0
446 -160 447 0
-446 160 447 0
447 165 -448 0
-447 -165 -448 0
447 -165 448 0
-447 165 448 0
448 175 -449 0
-448 -175 -449 0
448 -175 449 0
-448 175 449 0
449 305 -450 0
-449 -305 -450 0
449 -305 450 0
-449 305 450 0
-450 0
15 16 -451 0
-15 -16 -451 0
15 -16 451 0
-15 16 451 0
451 20 -452 0
-451 -20 -452 0
451 -20 452 0
-451 20 452 0
452 21 -453 0
-452 -21 -453 0
452 -21 453 0
-452 21 453 0
453 161 -454 0
-453 -161 -454 0
453 -161 454 0
-453 161 454 0
454 166 -455 0
-454 -166 -455 0
454 -166 455 0
-454 166 455 0
455 176 -456 0
-455 -176 -456 0
455 -176 456 0
-455 176 456 0
456 306 -457 0
-456 -306 -457 0
456 -306 457 0
-456 306 457 0
-457 0
16 17 -458 0
-16 -17 -458 0
16 -17 458 0
-16 17 458 0
458 21 -459 0
-458 -21 -459 0
458 -21 459 0
-458 21 459 0
459 22 -460 0
-459 -22 -460 0
459 -22 460 0
-459 22 460 0
460 162 -461 0
-460 -162 -461 0
460 -162 461 0
-460 162 461 0
461 167 -462 0
-461 -167 -462 0
461 -167 462 0
-461 167 462 0
462 177 -463 0
-462 -177 -463 0
462 -177 463 0
-462 177 463 0
463 307 -464 0
-463 -307 -464 0
463 -307 464 0
-463 307 464 0
-464 0
17 18 -465 0
-17 -18 -465 0
17 -18 465 0
-17 18 465 0
465 22 -466 0
-465 -22 -466 0
465 -22 466 0
-465 22 466 0
466 23 -467 0
-466 -23 -467 0
466 -23 467 0
-466 23 467 0
467 163 -468 0
-467 -163 -468 0
467 -163 468 0
-467 163 468 0
468 168 -469 0
-468 -168 -469 0
468 -168 469 0
-468 168 469 0
469 178 -470 0
-469 -178 -470 0
469 -178 470 0
-469 178 470 0
470 308 -471 0
-470 -308 -471 0
470 -308 471 0
-470 308 471 0
-471 0
18 19 -472 0
-18 -19 -472 0
18 -19 472 0
-18 19 472 0
472 23 -473 0
-472 -23 -473 0
472 -23 473 0
-472 23 473 0
473 24 -474 0
-473 -24 -474 0
473 -24 474 0
-473 24 474 0
474 164 -475 0
-474 -164 -475 0
474 -164 475 0
-474 164 475 0
475 169 -476 0
-475 -169 -476 0
475 -169 476 0
-475 169 476 0
476 179 -477 0
-476 -179 -477 0
476 -179 477 0
-476 179 477 0
477 309 -478 0
-477 -309 -478 0
477 -309 478 0
-477 309 478 0
-478 0
19 20 -479 0
-19 -20 -479 0
19 -20 479 0
-19 20 479 0
479 24 -480 0
-479 -24 -480 0
479 -24 480 0
-479 24 480 0
480 25 -481 0
-480 -25 -481 0
480 -25 481 0
-480 25 481 0
481 165 -482 0
-481 -165 -482 0
481 -165 482 0
-481 165 482 0
482 170 -483 0
-482 -170 -483 0
482 -170 483 0
-482 170 483 0
483 180 -484 0
-483 -180 -484 0
483 -180 484 0
-483 180 484 0
484 310 -485 0
-484 -310 -485 0
484 -310 485 0
-484 310 485 0
-485 0
20 21 -486 0
-20 -21 -486 0
20 -21 486 0
-20 21 486 0
486 25 -487 0
-486 -25 -487 0
486 -25 487 0
-486 25 487 0
487 26 -488 0
-487 -26 -488 0
487 -26 488 0
-487 26 488 0
488 156 -489 0
-488 -156 -489 0
488 -156 489 0
-488 156 489 0
489 166 -490 0
-489 -166 -490 0
489 -166 490 0
-489 166 490 0
490 171 -491 0
-490 -171 -491 0
490 -171 491 0
-490 171 491 0
491 181 -492 0
-491 -181 -492 0
491 -181 492 0
-491 181 492 0
-492 0
21 22 -493 0
-21 -22 -493 0
21 -22 493 0
-21 22 493 0
493 26 -494 0
-493 -26 -494 0
493 -26 494 0
-493 26 494 0
494 27 -495 0
-494 -27 -495 0
494 -27 495 0
-494 27 495 0
495 157 -496 0
-495 -157 -496 0
495 -157 496 0
-495 157 496 0
496 167 -497 0
-496 -167 -497 0
496 -167 497 0
-496 167 497 0
497 172 -498 0
-497 -172 -498 0
497 -172 498 0
-497 172 498 0
498 182 -499 0
-498 -182 -499 0
498 -182 499 0
-498 182 499 0
-499 0
22 23 -500 0
-22 -23 -500 0
22 -23 500 0
-22 23 500 0
500 27 -501 0
-500 -27 -501 0
500 -27 501 0
-500 27 501 0
501 28 -502 0
-501 -28 -502 0
501 -28 502 0
-501 28 502 0
502 158 -503 0
-502 -158 -503 0
502 -158 503 0
-502 158 503 0
503 168 -504 0
-503 -168 -504 0
503 -168 504 0
-503 168 504 0
504 173 -505 0
-504 -173 -505 0
504 -173 505 0
-504 173 505 0
505 183 -506 0
-505 -183 -506 0
505 -183 506 0
-505 183 506 0
-506 0
23 24 -507 0
-23 -24 -507 0
23 -24 507 0
-23 24 507 0
507 28 -508 0
-507 -28 -508 0
507 -28 508 0
-507 28 508 0
508 29 -509 0
-508 -29 -509 0
508 -29 509 0
-508 29 509 0
509 159 -510 0
-509 -159 -510 0
509 -159 510 0
-509 159 510 0
510 169 -511 0
-510 -169 -511 0
510 -169 511 0
-510 169 511 0
511 174 -512 0
-511 -174 -512 0
511 -174 512 0
-511 174 512 0
512 184 -513 0
-512 -184 -513 0
512 -184 513 0
-512 184 513 0
-513 0
24 25 -514 0
-24 -25 -514 0
24 -25 514 0
-24 25 514 0
514 29 -515 0
-514 -29 -515 0
514 -29 515 0
-514 29 515 0
515 30 -516 0
-515 -30 -516 0
515 -30 516 0
-515 30 516 0
516 160 -517 0
-516 -160 -517 0
516 -160 517 0
-516 160 517 0
517 170 -518 0
-517 -170 -518 0
517 -170 518 0
-517 170 518 0
518 175 -519 0
-518 -175 -519 0
518 -175 519 0
-518 175 519 0
519 185 -520 0
-519 -185 -520 0
519 -185 520 0
-519 185 520 0
-520 0
25 26 -521 0
-25 -26 -521 0
25 -26 521 0
-25 26 521 0
521 30 -522 0
-521 -30 -522 0
521 -30 522 0
-521 30 522 0
522 31 -523 0
-522 -31 -523 0
522 -31 523 0
-522 31 523 0
523 161 -524 0
-523 -161 -524 0
523 -161 524 0
-523 161 524 0
524 171 -525 0
-524 -171 -525 0
524 -171 525 0
-524 171 525 0
525 176 -526 0
-525 -176 -526 0
525 -176 526 0
-525 176 526 0
526 186 -527 0
-526 -186 -527 0
526 -186 527 0
-526 186 527 0
-527 0
26 27 -528 0
-26 -27 -528 0
26 -27 528 0
-26 27 528 0
528 31 -529 0
-528 -31 -529 0
528 -31 529 0
-528 31 529 0
529 32 -530 0
-529 -32 -530 0
529 -32 530 0
-529 32 530 0
530 162 -531 0
-530 -162 -531 0
530 -162 531 0
-530 162 531 0
531 172 -532 0
-531 -172 -532 0
531 -172 532 0
-531 172 532 0
532 177 -533 0
-532 -177 -533 0
532 -177 533 0
-532 177 533 0
533 187 -534 0
-533 -187 -534 0
533 -187 534 0
-533 187 534 0
-534 0
27 28 -535 0
-27 -28 -535 0
27 -28 535 0
-27 28 535 0
535 32 -536 0
-535 -32 -536 0
535 -32 536 0
-535 32 536 0
536 33 -537 0
-536 -33 -537 0
536 -33 537 0
-536 33 537 0
537 163 -538 0
-537 -163 -538 0
537 -163 538 0
-537 163 538 0
538 173 -539 0
-538 -173 -539 0
538 -173 539 0
-538 173 539 0
539 178 -540 0
-539 -178 -540 0
539 -178 540 0
-539 178 540 0
540 188 -541 0
-540 -188 -541 0
540 -188 541 0
-540 188 541 0
-541 0
28 29 -542 0
-28 -29 -542 0
28 -29 542 0
-28 29 542 0
542 33 -543 0
-542 -33 -543 0
542 -33 543 0
-542 33 543 0
543 34 -544 0
-543 -34 -544 0
543 -34 544 0
-543 34 544 0
544 164 -545 0
-544 -164 -545 0
544 -164 545 0
-544 164 545 0
545 174 -546 0
-545 -174 -546 0
545 -174 546 0
-545 174 546 0
546 179 -547 0
-546 -179 -547 0
546 -179 547 0
-546 179 547 0
547 189 -548 0
-547 -189 -548 0
547 -189 548 0
-547 189 548 0
-548 0
29 30 -549 0
-29 -30 -549 0
29 -30 549 0
-29 30 549 0
549 34 -550 0
-549 -34 -550 0
549 -34 550 0
-549 34 550 0
550 35 -551 0
-550 -35 -551 0
550 -35 551 0
-550 35 551 0
551 165 -552 0
-551 -165 -552 0
551 -165 552 0
-551 165 552 0
552 175 -553 0
-552 -175 -553 0
552 -175 553 0
-552 175 553 0
553 180 -554 0
-553 -180 -554 0
553 -180 554 0
-553 180 554 0
554 190 -555 0
-554 -190 -555 0
554 -190 555 0
-554 190 555 0
-555 0
30 31 -556 0
-30 -31 -556 0
30 -31 556 0
-30 31 556 0
556 35 -557 0
-556 -35 -557 0
556 -35 557 0
-556 35 557 0
557 36 -558 0
-557 -36 -558 0
557 -36 558 0
-557 36 558 0
558 166 -559 0
-558 -166 -559 0
558 -166 559 0
-558 166 559 0
559 176 -560 0
-559 -176 -560 0
559 -176 560 0
-559 176 560 0
560 181 -561 0
-560 -181 -561 0
560 -181 561 0
-560 181 561 0
561 191 -562 0
-561 -191 -562 0
561 -191 562 0
-561 191 562 0
-562 0
31 32 -563 0
-31 -32 -563 0
31 -32 563 0
-31 32 563 0
563 36 -564 0
-563 -36 -564 0
563 -36 564 0
-563 36 564 0
564 37 -565 0
-564 -37 -565 0
564 -37 565 0
-564 37 565 0
565 167 -566 0
-565 -167 -566 0
565 -167 566 0
-565 167 566 0
566 177 -567 0
-566 -177 -567 0
566 -177 567 0
-566 177 567 0
567 182 -568 0
-567 -182 -568 0
567 -182 568 0
-567 182 568 0
568 192 -569 0
-568 -192 -569 0
568 -192 569 0
-568 192 569 0
-569 0
32 33 -570 0
-32 -33 -570 0
32 -33 570 0
-32 33 570 0
570 37 -571 0
-570 -37 -571 0
570 -37 571 0
-570 37 571 0
571 38 -572 0
-571 -38 -572 0
571 -38 572 0
-571 38 572 0
572 168 -573 0
-572 -168 -573 0
572 -168 573 0
-572 168 573 0
573 178 -574 0
-573 -178 -574 0
573 -178 574 0
-573 178 574 0
574 183 -575 0
-574 -183 -575 0
574 -183 575 0
-574 183 575 0
575 193 -576 0
-575 -193 -576 0
575 -193 576 0
-575 193 576 0
-576 0
33 34 -577 0
-33 -34 -577 0
33 -34 577 0
-33 34 577 0
577 38 -578 0
-577 -38 -578 0
577 -38 578 0
-577 38 578 0
578 39 -579 0
-578 -39 -579 0
578 -39 579 0
-578 39 579 0
579 169 -580 0
-579 -169 -580 0
579 -169 580 0
-579 169 580 0
580 179 -581 0
-580 -179 -581 0
580 -179 581 0
-580 179 581 0
581 184 -582 0
-581 -184 -582 0
581 -184 582 0
-581 184 582 0
582 194 -583 0
-582 -194 -583 0
582 -194 583 0
-582 194 583 0
-583 0
34 35 -584 0
-34 -35 -584 0
34 -35 584 0
-34 35 584 0
584 39 -585 0
-584 -39 -585 0
584 -39 585 0
-584 39 585 0
585 40 -586 0
-585 -40 -586 0
585 -40 586 0
-585 40 586 0
586 170 -587 0
-586 -170 -587 0
586 -170 587 0
-586 170 587 0
587 180 -588 0
-587 -180 -588 0
587 -180 588 0
-587 180 588 0
588 185 -589 0
-588 -185 -589 0
588 -185 589 0
-588 185 589 0
589 195 -590 0
-589 -195 -590 0
589 -195 590 0
-589 195 590 0
-590 0
35 36 -591 0
-35 -36 -591 0
35 -36 591 0
-35 36 591 0
591 40 -592 0
-591 -40 -592 0
591 -40 592 0
-591 40 592 0
592 41 -593 0
-592 -41 -593 0
592 -41 593 0
-592 41 593 0
593 171 -594 0
-593 -171 -594 0
593 -171 594 0
-593 171 594 0
594 181 -595 0
-594 -181 -595 0
594 -181 595 0
-594 181 595 0
595 186 -596 0
-595 -186 -596 0
595 -186 596 0
-595 186 596 0
596 196 -597 0
-596 -196 -597 0
596 -196 597 0
-596 196 597 0
-597 0
36 37 -598 0
-36 -37 -598 0
36 -37 598 0
-36 37 598 0
598 41 -599 0
-598 -41 -599 0
598 -41 599 0
-598 41 599 0
599 42 -600 0
-599 -42 -600 0
599 -42 600 0
-599 42 600 0
600 172 -601 0
-600 -172 -601 0
600 -172 601 0
-600 172 601 0
601 182 -602 0
-601 -182 -602 0
601 -182 602 0
-601 182 602 0
602 187 -603 0
-602 -187 -603 0
602 -187 603 0
-602 187 603 0
603 197 -604 0
-603 -197 -604 0
603 -197 604 0
-603 197 604 0
-604 0
37 38 -605 0
-37 -38 -605 0
37 -38 605 0
-37 38 605 0
605 42 -606 0
-605 -42 -606 0
605 -42 606 0
-605 42 606 0
606 43 -607 0
-606 -43 -607 0
606 -43 607 0
-606 43 607 0
607 173 -608 0
-607 -173 -608 0
607 -173 608 0
-607 173 608 0
608 183 -609 0
-608 -183 -609 0
608 -183 609 0
-608 183 609 0
609 188 -610 0
-609 -188 -610 0
609 -188 610 0
-609 188 610 0
610 198 -611 0
-610 -198 -611 0
610 -198 611 0
-610 198 611 0
-611 0
38 39 -612 0
-38 -39 -612 0
38 -39 612 0
-38 39 612 0
612 43 -613 0
-612 -43 -613 0
612 -43 613 0
-612 43 613 0
613 44 -614 0
-613 -44 -614 0
613 -44 614 0
-613 44 614 0
614 174 -615 0
-614 -174 -615 0
614 -174 615 0
-614 174 615 0
615 184 -616 0
-615 -184 -616 0
615 -184 616 0
-615 184 616 0
616 189 -617 0
-616 -189 -617 0
616 -189 617 0
-616 189 617 0
617 199 -618 0
-617 -199 -618 0
617 -199 618 0
-617 199 618 0
-618 0
39 40 -619 0
-39 -40 -619 0
39 -40 619 0
-39 40 619 0
619 44 -620 0
-619 -44 -620 0
619 -44 620 0
-619 44 620 0
620 45 -621 0
-620 -45 -621 0
620 -45 621 0
-620 45 621 0
621 175 -622 0
-621 -175 -622 0
621 -175 622 0
-621 175 622 0
622 185 -623 0
-622 -185 -623 0
622 -185 623 0
-622 185 623 0
623 190 -624 0
-623 -190 -624 0
623 -190 624 0
-623 190 624 0
624 200 -625 0
-624 -200 -625 0
624 -200 625 0
-624 200 625 0
-625 0
40 41 -626 0
-40 -41 -626 0
40 -41 626 0
-40 41 626 0
626 45 -627 0
-626 -45 -627 0
626 -45 627 0
-626 45 627 0
627 46 -628 0
-627 -46 -628 0
627 -46 628 0
-627 46 628 0
628 176 -629 0
-628 -176 -629 0
628 -176 629 0
-628 176 629 0
629 186 -630 0
-629 -186 -630 0
629 -186 630 0
-629 186 630 0
630 191 -631 0
-630 -191 -631 0
630 -191 631 0
-630 191 631 0
631 201 -632 0
-631 -201 -632 0
631 -201 632 0
-631 201 632 0
-632 0
41 42 -633 0
-41 -42 -633 0
41 -42 633 0
-41 42 633 0
633 46 -634 0
-633 -46 -634 0
633 -46 634 0
-633 46 634 0
634 47 -635 0
-634 -47 -635 0
634 -47 635 0
-634 47 635 0
635 177 -636 0
-635 -177 -636 0
635 -177 636 0
-635 177 636 0
636 187 -637 0
-636 -187 -637 0
636 -187 637 0
-636 187 637 0
637 192 -638 0
-637 -192 -638 0
637 -192 638 0
-637 192 638 0
638 202 -639 0
-638 -202 -639 0
638 -202 639 0
-638 202 639 0
-639 0
42 43 -640 0
-42 -43 -640 0
42 -43 640 0
-42 43 640 0
640 47 -641 0
-640 -47 -641 0
640 -47 641 0
-640 47 641 0
641 48 -642 0
-641 -48 -642 0
641 -48 642 0
-641 48 642 0
642 178 -643 0
-642 -178 -643 0
642 -178 643 0
-642 178 643 0
643 188 -644 0
-643 -188 -644 0
643 -188 644 0
-643 188 644 0
644 193 -645 0
-644 -193 -645 0
644 -193 645 0
-644 193 645 0
645 203 -646 0
-645 -203 -646 0
645 -203 646 0
-645 203 646 0
-646 0
43 44 -647 0
-43 -44 -647 0
43 -44 647 0
-43 44 647 0
647 48 -648 0
-647 -48 -648 0
647 -48 648 0
-647 48 648 0
648 49 -649 0
-648 -49 -649 0
648 -49 649 0
-648 49 649 0
649 179 -650 0
-649 -179 -650 0
649 -179 650 0
-649 179 650 0
650 189 -651 0
-650 -189 -651 0
650 -189 651 0
-650 189 651 0
651 194 -652 0
-651 -194 -652 0
651 -194 652 0
-651 194 652 0
652 204 -653 0
-652 -204 -653 0
652 -204 653 0
-652 204 653 0
-653 0
44 45 -654 0
-44 -45 -654 0
44 -45 654 0
-44 45 654 0
654 49 -655 0
-654 -49 -655 0
654 -49 655 0
-654 49 655 0
655 50 -656 0
-655 -50 -656 0
655 -50 656 0
-655 50 656 0
656 180 -657 0
-656 -180 -657 0
656 -180 657 0
-656 180 657 0
657 190 -658 0
-657 -190 -658 0
657 -190 658 0
-657 190 658 0
658 195 -659 0
-658 -195 -659 0
658 -195 659 0
-658 195 659 0
659 205 -660 0
-659 -205 -660 0
659 -205 660 0
-659 205 660 0
-660 0
45 46 -661 0
-45 -46 -661 0
45 -46 661 0
-45 46 661 0
661 50 -662 0
-661 -50 -662 0
661 -50 662 0
-661 50 662 0
662 51 -663 0
-662 -51 -663 0
662 -51 663 0
-662 51 663 0
663 181 -664 0
-663 -181 -664 0
663 -181 664 0
-663 181 664 0
664 191 -665 0
-664 -191 -665 0
664 -191 665 0
-664 191 665 0
665 196 -666 0
-665 -196 -666 0
665 -196 666 0
-665 196 666 0
666 206 -667 0
-666 -206 -667 0
666 -206 667 0
-666 206 667 0
-667 0
46 47 -668 0
-46 -47 -668 0
46 -47 668 0
-46 47 668 0
668 51 -669 0
-668 -51 -669 0
668 -51 669 0
-668 51 669 0
669 52 -670 0
-669 -52 -670 0
669 -52 670 0
-669 52 670 0
670 182 -671 0
-670 -182 -671 0
670 -182 671 0
-670 182 671 0
671 192 -672 0
-671 -192 -672 0
671 -192 672 0
-671 192 672 0
672 197 -673 0
-672 -197 -673 0
672 -197 673 0
-672 197 673 0
673 207 -674 0
-673 -207 -674 0
673 -207 674 0
-673 207 674 0
-674 0
47 48 -675 0
-47 -48 -675 0
47 -48 675 0
-47 48 675 0
675 52 -676 0
-675 -52 -676 0
675 -52 676 0
-675 52 676 0
676 53 -677 0
-676 -53 -677 0
676 -53 677 0
-676 53 677 0
677 183 -678 0
-677 -183 -678 0
677 -183 678 0
-677 183 678 0
678 193 -679 0
-678 -193 -679 0
678 -193 679 0
-678 193 679 0
679 198 -680 0
-679 -198 -680 0
679 -198 680 0
-679 198 680 0
680 208 -681 0
-680 -208 -681 0
680 -208 681 0
-680 208 681 0
-681 0
48 49 -682 0
-48 -49 -682 0
48 -49 682 0
-48 49 682 0
682 53 -683 0
-682 -53 -683 0
682 -53 683 0
-682 53 683 0
683 54 -684 0
-683 -54 -684 0
683 -54 684 0
-683 54 684 0
684 184 -685 0
-684 -184 -685 0
684 -184 685 0
-684 184 685 0
685 194 -686 0
-685 -194 -686 0
685 -194 686 0
-685 194 686 0
686 199 -687 0
-686 -199 -687 0
686 -199 687 0
-686 199 687 0
687 209 -688 0
-687 -209 -688 0
687 -209 688 0
-687 209 688 0
-688 0
49 50 -689 0
-49 -50 -689 0
49 -50 689 0
-49 50 689 0
689 54 -690 0
-689 -54 -690 0
689 -54 690 0
-689 54 690 0
690 55 -691 0
-690 -55 -691 0
690 -55 691 0
-690 55 691 0
691 185 -692 0
-691 -185 -692 0
691 -185 692 0
-691 185 692 0
692 195 -693 0
-692 -195 -693 0
692 -195 693 0
-692 195 693 0
693 200 -694 0
-693 -200 -694 0
693 -200 694 0
-693 200 694 0
694 210 -695 0
-694 -210 -695 0
694 -210 695 0
-694 210 695 0
-695 0
50 51 -696 0
-50 -51 -696 0
50 -51 696 0
-50 51 696 0
696 55 -697 0
-696 -55 -697 0
696 -55 697 0
-696 55 697 0
697 56 -698 0
-697 -56 -698 0
697 -56 698 0
-697 56 698 0
698 186 -699 0
-698 -186 -699 0
698 -186 699 0
-698 186 699 0
699 196 -700 0
-699 -196 -700 0
699 -196 700 0
-699 196 700 0
700 201 -701 0
-700 -201 -701 0
700 -201 701 0
-700 201 701 0
701 211 -702 0
-701 -211 -702 0
701 -211 702 0
-701 211 702 0
-702 0
51 52 -703 0
-51 -52 -703 0
51 -52 703 0
-51 52 703 0
703 56 -704 0
-703 -56 -704 0
703 -56 704 0
-703 56 704 0
704 57 -705 0
-704 -57 -705 0
704 -57 705 0
-704 57 705 0
705 187 -706 0
-705 -187 -706 0
705 -187 706 0
-705 187 706 0
706 197 -707 0
-706 -197 -707 0
706 -197 707 0
-706 197 707 0
707 202 -708 0
-707 -202 -708 0
707 -202 708 0
-707 202 708 0
708 212 -709 0
-708 -212 -709 0
708 -212 709 0
-708 212 709 0
-709 0
52 53 -710 0
-52 -53 -710 0
52 -53 710 0
-52 53 710 0
710 57 -711 0
-710 -57 -711 0
710 -57 711 0
-710 57 711 0
711 58 -712 0
-711 -58 -712 0
711 -58 712 0
-711 58 712 0
712 188 -713 0
-712 -188 -713 0
712 -188 713 0
-712 188 713 0
713 198 -714 0
-713 -198 -714 0
713 -198 714 0
-713 198 714 0
714 203 -715 0
-714 -203 -715 0
714 -203 715 0
-714 203 715 0
715 213 -716 0
-715 -213 -716 0
715 -213 716 0
-715 213 716 0
-716 0
53 54 -717 0
-53 -54 -717 0
53 -54 717 0
-53 54 717 0
717 58 -718 0
-717 -58 -718 0
717 -58 718 0
-717 58 718 0
718 59 -719 0
-718 -59 -719 0
718 -59 719 0
-718 59 719 0
719 189 -720 0
-719 -189 -720 0
719 -189 720 0
-719 189 720 0
720 199 -721 0
-720 -199 -721 0
720 -199 721 0
-720 199 721 0
721 204 -722 0
-721 -204 -722 0
721 -204 722 0
-721 204 722 0
722 214 -723 0
-722 -214 -723 0
722 -214 723 0
-722 214 723 0
-723 0
54 55 -724 0
-54 -55 -724 0
54 -55 724 0
-54 55 724 0
724 59 -725 0
-724 -59 -725 0
724 -59 725 0
-724 59 725 0
725 60 -726 0
-725 -60 -726 0
725 -60 726 0
-725 60 726 0
726 190 -727 0
-726 -190 -727 0
726 -190 727 0
-726 190 727 0
727 200 -728 0
-727 -200 -728 0
727 -200 728 0
-727 200 728 0
728 205 -729 0
-728 -205 -729 0
728 -205 729 0
-728 205 729 0
729 215 -730 0
-729 -215 -730 0
729 -215 730 0
-729 215 730 0
-730 0
55 56 -731 0
-55 -56 -731 0
55 -56 731 0
-55 56 731 0
731 60 -732 0
-731 -60 -732 0
731 -60 732 0
-731 60 732 0
732 61 -733 0
-732 -61 -733 0
732 -61 733 0
-732 61 733 0
733 191 -734 0
-733 -191 -734 0
733 -191 734 0
-733 191 734 0
734 201 -735 0
-734 -201 -735 0
734 -201 735 0
-734 201 735 0
735 206 -736 0
-735 -206 -736 0
735 -206 736 0
-735 206 736 0
736 216 -737 0
-736 -216 -737 0
736 -216 737 0
-736 216 737 0
-737 0
56 57 -738 0
-56 -57 -738 0
56 -57 738 0
-56 57 738 0
738 61 -739 0
-738 -61 -739 0
738 -61 739 0
-738 61 739 0
739 62 -740 0
-739 -62 -740 0
739 -62 740 0
-739 62 740 0
740 192 -741 0
-740 -192 -741 0
740 -192 741 0
-740 192 741 0
741 202 -742 0
-741 -202 -742 0
741 -202 742 0
-741 202 742 0
742 207 -743 0
-742 -207 -743 0
742 -207 743 0
-742 207 743 0
743 217 -744 0
-743 -217 -744 0
743 -217 744 0
-743 217 744 0
-744 0
57 58 -745 0
-57 -58 -745 0
57 -58 745 0
-57 58 745 0
745 62 -746 0
-745 -62 -746 0
745 -62 746 0
-745 62 746 0
746 63 -747 0
-746 -63 -747 0
746 -63 747 0
-746 63 747 0
747 193 -748 0
-747 -193 -748 0
747 -193 748 0
-747 193 748 0
748 203 -749 0
-748 -203 -749 0
748 -203 749 0
-748 203 749 0
749 208 -750 0
-749 -208 -750 0
749 -208 750 0
-749 208 750 0
750 218 -751 0
-750 -218 -751 0
750 -218 751 0
-750 218 751 0
-751 0
58 59 -752 0
-58 -59 -752 0
58 -59 752 0
-58 59 752 0
752 63 -753 0
-752 -63 -753 0
752 -63 753 0
-752 63 753 0
753 64 -754 0
-753 -64 -754 0
753 -64 754 0
-753 64 754 0
754 194 -755 0
-754 -194 -755 0
754 -194 755 0
-754 194 755 0
755 204 -756 0
-755 -204 -756 0
755 -204 756 0
-755 204 756 0
756 209 -757 0
-756 -209 -757 0
756 -209 757 0
-756 209 757 0
757 219 -758 0
-757 -219 -758 0
757 -219 758 0
-757 219 758 0
-758 0
59 60 -759 0
-59 -60 -759 0
59 -60 759 0
-59 60 759 0
759 64 -760 0
-759 -64 -760 0
759 -64 760 0
-759 64 760 0
760 65 -761 0
-760 -65 -761 0
760 -65 761 0
-760 65 761 0
761 195 -762 0
-761 -195 -762 0
761 -195 762 0
-761 195 762 0
762 205 -763 0
-762 -205 -763 0
762 -205 763 0
-762 205 763 0
763 210 -764 0
-763 -210 -764 0
763 -210 764 0
-763 210 764 0
764 220 -765 0
-764 -220 -765 0
764 -220 765 0
-764 220 765 0
-765 0
60 61 -766 0
-60 -61 -766 0
60 -61 766 0
-60 61 766 0
766 65 -767 0
-766 -65 -767 0
766 -65 767 0
-766 65 767 0
767 66 -768 0
-767 -66 -768 0
767 -66 768 0
-767 66 768 0
768 196 -769 0
-768 -196 -769 0
768 -196 769 0
-768 196 769 0
769 206 -770 0
-769 -206 -770 0
769 -206 770 0
-769 206 770 0
770 211 -771 0
-770 -211 -771 0
770 -211 771 0
-770 211 771 0
771 221 -772 0
-771 -221 -772 0
771 -221 772 0
-771 221 772 0
-772 0
61 62 -773 0
-61 -62 -773 0
61 -62 773 0
-61 62 773 0
773 66 -774 0
-773 -66 -774 0
773 -66 774 0
-773 66 774 0
774 67 -775 0
-774 -67 -775 0
774 -67 775 0
-774 67 775 0
775 197 -776 0
-775 -197 -776 0
775 -197 776 0
-775 197 776 0
776 207 -777 0
-776 -207 -777 0
776 -207 777 0
-776 207 777 0
777 212 -778 0
-777 -212 -778 0
777 -212 778 0
-777 212 778 0
778 222 -779 0
-778 -222 -779 0
778 -222 779 0
-778 222 779 0
-779 0
62 63 -780 0
-62 -63 -780 0
62 -63 780 0
-62 63 780 0
780 67 -781 0
-780 -67 -781 0
780 -67 781 0
-780 67 781 0
781 68 -782 0
-781 -68 -782 0
781 -68 782 0
-781 68 782 0
782 198 -783 0
-782 -198 -783 0
782 -198 783 0
-782 198 783 0
783 208 -784 0
-783 -208 -784 0
783 -208 784 0
-783 208 784 0
784 213 -785 0
-784 -213 -785 0
784 -213 785 0
-784 213 785 0
785 223 -786 0
-785 -223 -786 0
785 -223 786 0
-785 223 786 0
-786 0
63 64 -787 0
-63 -64 -787 0
63 -64 787 0
-63 64 787 0
787 68 -788 0
-787 -68 -788 0
787 -68 788 0
-787 68 788 0
788 69 -789 0
-788 -69 -789 0
788 -69 789 0
-788 69 789 0
789 199 -790 0
-789 -199 -790 0
789 -199 790 0
-789 199 790 0
790 209 -791 0
-790 -209 -791 0
790 -209 791 0
-790 209 791 0
791 214 -792 0
-791 -214 -792 0
791 -214 792 0
-791 214 792 0
792 224 -793 0
-792 -224 -793 0
792 -224 793 0
-792 224 793 0
-793 0
64 65 -794 0
-64 -65 -794 0
64 -65 794 0
-64 65 794 0
794 69 -795 0
-794 -69 -795 0
794 -69 795 0
-794 69 795 0
795 70 -796 0
-795 -70 -796 0
795 -70 796 0
-795 70 796 0
796 200 -797 0
-796 -200 -797 0
796 -200 797 0
-796 200 797 0
797 210 -798 0
-797 -210 -798 0
797 -210 798 0
-797 210 798 0
798 215 -799 0
-798 -215 -799 0
798 -215 799 0
-798 215 799 0
799 225 -800 0
-799 -225 -800 0
799 -225 800 0
-799 225 800 0
-800 0
65 66 -801 0
-65 -66 -801 0
65 -66 801 0
-65 66 801 0
801 70 -802 0
-801 -70 -802 0
801 -70 802 0
-801 70 802 0
802 71 -803 0
-802 -71 -803 0
802 -71 803 0
-802 71 803 0
803 201 -804 0
-803 -201 -804 0
803 -201 804 0
-803 201 804 0
804 211 -805 0
-804 -211 -805 0
804 -211 805 0
-804 211 805 0
805 216 -806 0
-805 -216 -806 0
805 -216 806 0
-805 216 806 0
806 226 -807 0
-806 -226 -807 0
806 -226 807 0
-806 226 807 0
-807 0
66 67 -808 0
-66 -67 -808 0
66 -67 808 0
-66 67 808 0
808 71 -809 0
-808 -71 -809 0
808 -71 809 0
-808 71 809 0
809 72 -810 0
-809 -72 -810 0
809 -72 810 0
-809 72 810 0
810 202 -811 0
-810 -202 -811 0
810 -202 811 0
-810 202 811 0
811 212 -812 0
-811 -212 -812 0
811 -212 812 0
-811 212 812 0
812 217 -813 0
-812 -217 -813 0
812 -217 813 0
-812 217 813 0
813 227 -814 0
-813 -227 -814 0
813 -227 814 0
-813 227 814 0
-814 0
67 68 -815 0
-67 -68 -815 0
67 -68 815 0
-67 68 815 0
815 72 -816 0
-815 -72 -816 0
815 -72 816 0
-815 72 816 0
816 73 -817 0
-816 -73 -817 0
816 -73 817 0
-816 73 817 0
817 203 -818 0
-817 -203 -818 0
817 -203 818 0
-817 203 818 0
818 213 -819 0
-818 -213 -819 0
818 -213 819 0
-818 213 819 0
819 218 -820 0
-819 -218 -820 0
819 -218 820 0
-819 218 820 0
820 228 -821 0
-820 -228 -821 0
820 -228 821 0
-820 228 821 0
-821 0
68 69 -822 0
-68 -69 -822 0
68 -69 822 0
-68 69 822 0
822 73 -823 0
-822 -73 -823 0
822 -73 823 0
-822 73 823 0
823 74 -824 0
-823 -74 -824 0
823 -74 824 0
-823 74 824 0
824 204 -825 0
-824 -204 -825 0
824 -204 825 0
-824 204 825 0
825 214 -826 0
-825 -214 -826 0
825 -214 826 0
-825 214 826 0
826 219 -827 0
-826 -219 -827 0
826 -219 827 0
-826 219 827 0
827 229 -828 0
-827 -229 -828 0
827 -229 828 0
-827 229 828 0
-828 0
69 70 -829 0
-69 -70 -829 0
69 -70 829 0
-69 70 829 0
829 74 -830 0
-829 -74 -830 0
829 -74 830 0
-829 74 830 0
830 75 -831 0
-830 -75 -831 0
830 -75 831 0
-830 75 831 0
831 205 -832 0
-831 -205 -832 0
831 -205 832 0
-831 205 832 0
832 215 -833 0
-832 -215 -833 0
832 -215 833 0
-832 215 833 0
833 220 -834 0
-833 -220 -834 0
833 -220 834 0
-833 220 834 0
834 230 -835 0
-834 -230 -835 0
834 -230 835 0
-834 230 835 0
-835 0
70 71 -836 0
-70 -71 -836 0
70 -71 836 0
-70 71 836 0
836 75 -837 0
-836 -75 -837 0
836 -75 837 0
-836 75 837 0
837 76 -838 0
-837 -76 -838 0
837 -76 838 0
-837 76 838 0
838 206 -839 0
-838 -206 -839 0
838 -206 839 0
-838 206 839 0
839 216 -840 0
-839 -216 -840 0
839 -216 840 0
-839 216 840 0
840 221 -841 0
-840 -221 -841 0
840 -221 841 0
-840 221 841 0
841 231 -842 0
-841 -231 -842 0
841 -231 842 0
-841 231 842 0
-842 0
71 72 -843 0
-71 -72 -843 0
71 -72 843 0
-71 72 843 0
843 76 -844 0
-843 -76 -844 0
843 -76 844 0
-843 76 844 0
844 77 -845 0
-844 -77 -845 0
844 -77 845 0
-844 77 845 0
845 207 -846 0
-845 -207 -846 0
845 -207 846 0
-845 207 846 0
846 217 -847 0
-846 -217 -847 0
846 -217 847 0
-846 217 847 0
847 222 -848 0
-847 -222 -848 0
847 -222 848 0
-847 222 848 0
848 232 -849 0
-848 -232 -849 0
848 -232 849 0
-848 232 849 0
-849 0
72 73 -850 0
-72 -73 -850 0
72 -73 850 0
-72 73 850 0
850 77 -851 0
-850 -77 -851 0
850 -77 851 0
-850 77 851 0
851 78 -852 0
-851 -78 -852 0
851 -78 852 0
-851 78 852 0
852 208 -853 0
-852 -208 -853 0
852 -208 853 0
-852 208 853 0
853 218 -854 0
-853 -218 -854 0
853 -218 854 0
-853 218 854 0
854 223 -855 0
-854 -223 -855 0
854 -223 855 0
-854 223 855 0
855 233 -856 0
-855 -233 -856 0
855 -233 856 0
-855 233 856 0
-856 0
73 74 -857 0
-73 -74 -857 0
73 -74 857 0
-73 74 857 0
857 78 -858 0
-857 -78 -858 0
857 -78 858 0
-857 78 858 0
858 79 -859 0
-858 -79 -859 0
858 -79 859 0
-858 79 859 0
859 209 -860 0
-859 -209 -860 0
859 -209 860 0
-859 209 860 0
860 219 -861 0
-860 -219 -861 0
860 -219 861 0
-860 219 861 0
861 224 -862 0
-861 -224 -862 0
861 -224 862 0
-861 224 862 0
862 234 -863 0
-862 -234 -863 0
862 -234 863 0
-862 234 863 0
-863 0
74 75 -864 0
-74 -75 -864 0
74 -75 864 0
-74 75 864 0
864 79 -865 0
-864 -79 -865 0
864 -79 865 0
-864 79 865 0
865 80 -866 0
-865 -80 -866 0
865 -80 866 0
-865 80 866 0
866 210 -867 0
-866 -210 -867 0
866 -210 867 0
-866 210 867 0
867 220 -868 0
-867 -220 -868 0
867 -220 868 0
-867 220 868 0
868 225 -869 0
-868 -225 -869 0
868 -225 869 0
-868 225 869 0
869 235 -870 0
-869 -235 -870 0
869 -235 870 0
-869 235 870 0
-870 0
75 76 -871 0
-75 -76 -871 0
75 -76 871 0
-75 76 871 0
871 80 -872 0
-871 -80 -872 0
871 -80 872 0
-871 80 872 0
872 81 -873 0
-872 -81 -873 0
872 -81 873 0
-872 81 873 0
873 211 -874 0
-873 -211 -874 0
873 -211 874 0
-873 211 874 0
874 221 -875 0
-874 -221 -875 0
874 -221 875 0
-874 221 875 0
875 226 -876 0
-875 -226 -876 0
875 -226 876 0
-875 226 876 0
876 236 -877 0
-876 -236 -877 0
876 -236 877 0
-876 236 877 0
-877 0
76 77 -878 0
-76 -77 -878 0
76 -77 878 0
-76 77 878 0
878 81 -879 0
-878 -81 -879 0
878 -81 879 0
-878 81 879 0
879 82 -880 0
-879 -82 -880 0
879 -82 880 0
-879 82 880 0
880 212 -881 0
-880 -212 -881 0
880 -212 881 0
-880 212 881 0
881 222 -882 0
-881 -222 -882 0
881 -222 882 0
-881 222 882 0
882 227 -883 0
-882 -227 -883 0
882 -227 883 0
-882 227 883 0
883 237 -884 0
-883 -237 -884 0
883 -237 884 0
-883 237 884 0
-884 0
77 78 -885 0
-77 -78 -885 0
77 -78 885 0
-77 78 885 0
885 82 -886 0
-885 -82 -886 0
885 -82 886 0
-885 82 886 0
886 83 -887 0
-886 -83 -887 0
886 -83 887 0
-886 83 887 0
887 213 -888 0
-887 -213 -888 0
887 -213 888 0
-887 213 888 0
888 223 -889 0
-888 -223 -889 0
888 -223 889 0
-888 223 889 0
889 228 -890 0
-889 -228 -890 0
889 -228 890 0
-889 228 890 0
890 238 -891 0
-890 -238 -891 0
890 -238 891 0
-890 238 891 0
-891 0
78 79 -892 0
-78 -79 -892 0
78 -79 892 0
-78 79 892 0
892 83 -893 0
-892 -83 -893 0
892 -83 893 0
-892 83 893 0
893 84 -894 0
-893 -84 -894 0
893 -84 894 0
-893 84 894 0
894 214 -895 0
-894 -214 -895 0
894 -214 895 0
-894 214 895 0
895 224 -896 0
-895 -224 -896 0
895 -224 896 0
-895 224 896 0
896 229 -897 0
-896 -229 -897 0
896 -229 897 0
-896 229 897 0
897 239 -898 0
-897 -239 -898 0
897 -239 898 0
-897 239 898 0
-898 0
79 80 -899 0
-79 -80 -899 0
79 -80 899 0
-79 80 899 0
899 84 -900 0
-899 -84 -900 0
899 -84 900 0
-899 84 900 0
900 85 -901 0
-900 -85 -901 0
900 -85 901 0
-900 85 901 0
901 215 -902 0
-901 -215 -902 0
901 -215 902 0
-901 215 902 0
902 225 -903 0
-902 -225 -903 0
902 -225 903 0
-902 225 903 0
903 230 -904 0
-903 -230 -904 0
903 -230 904 0
-903 230 904 0
904 240 -905 0
-904 -240 -905 0
904 -240 905 0
-904 240 905 0
-905 0
80 81 -906 0
-80 -81 -906 0
80 -81 906 0
-80 81 906 0
906 85 -907 0
-906 -85 -907 0
906 -85 907 0
-906 85 907 0
907 86 -908 0
-907 -86 -908 0
907 -86 908 0
-907 86 908 0
908 216 -909 0
-908 -216 -909 0
908 -216 909 0
-908 216 909 0
909 226 -910 0
-909 -226 -910 0
909 -226 910 0
-909 226 910 0
910 231 -911 0
-910 -231 -911 0
910 -231 911 0
-910 231 911 0
911 241 -912 0
-911 -241 -912 0
911 -241 912 0
-911 241 912 0
-912 0
81 82 -913 0
-81 -82 -913 0
81 -82 913 0
-81 82 913 0
913 86 -914 0
-913 -86 -914 0
913 -86 914 0
-913 86 914 0
914 87 -915 0
-914 -87 -915 0
914 -87 915 0
-914 87 915 0
915 217 -916 0
-915 -217 -916 0
915 -217 916 0
-915 217 916 0
916 227 -917 0
-916 -227 -917 0
916 -227 917 0
-916 227 917 0
917 232 -918 0
-917 -232 -918 0
917 -232 918 0
-917 232 918 0
918 242 -919 0
-918 -242 -919 0
918 -242 919 0
-918 242 919 0
-919 0
82 83 -920 0
-82 -83 -920 0
82 -83 920 0
-82 83 920 0
920 87 -921 0
-920 -87 -921 0
920 -87 921 0
-920 87 921 0
921 88 -922 0
-921 -88 -922 0
921 -88 922 0
-921 88 922 0
922 218 -923 0
-922 -218 -923 0
922 -218 923 0
-922 218 923 0
923 228 -924 0
-923 -228 -924 0
923 -228 924 0
-923 228 924 0
924 233 -925 0
-924 -233 -925 0
924 -233 925 0
-924 233 925 0
925 243 -926 0
-925 -243 -926 0
925 -243 926 0
-925 243 926 0
-926 0
83 84 -927 0
-83 -84 -927 0
83 -84 927 0
-83 84 927 0
927 88 -928 0
-927 -88 -928 0
927 -88 928 0
-927 88 928 0
928 89 -929 0
-928 -89 -929 0
928 -89 929 0
-928 89 929 0
929 219 -930 0
-929 -219 -930 0
929 -219 930 0
-929 219 930 0
930 229 -931 0
-930 -229 -931 0
930 -229 931 0
-930 229 931 0
931 234 -932 0
-931 -234 -932 0
931 -234 932 0
-931 234 932 0
932 244 -933 0
-932 -244 -933 0
932 -244 933 0
-932 244 933 0
-933 0
84 85 -934 0
-84 -85 -934 0
84 -85 934 0
-84 85 934 0
934 89 -935 0
-934 -89 -935 0
934 -89 935 0
-934 89 935 0
935 90 -936 0
-935 -90 -936 0
935 -90 936 0
-935 90 936 0
936 220 -937 0
-936 -220 -937 0
936 -220 937 0
-936 220 937 0
937 230 -938 0
-937 -230 -938 0
937 -230 938 0
-937 230 938 0
938 235 -939 0
-938 -235 -939 0
938 -235 939 0
-938 235 939 0
939 245 -940 0
-939 -245 -940 0
939 -245 940 0
-939 245 940 0
-940 0
85 86 -941 0
-85 -86 -941 0
85 -86 941 0
-85 86 941 0
941 90 -942 0
-941 -90 -942 0
941 -90 942 0
-941 90 942 0
942 91 -943 0
-942 -91 -943 0
942 -91 943 0
-942 91 943 0
943 221 -944 0
-943 -221 -944 0
943 -221 944 0
-943 221 944 0
944 231 -945 0
-944 -231 -945 0
944 -231 945 0
-944 231 945 0
945 236 -946 0
-945 -236 -946 0
945 -236 946 0
-945 236 946 0
946 246 -947 0
-946 -246 -947 0
946 -246 947 0
-946 246 947 0
-947 0
86 87 -948 0
-86 -87 -948 0
86 -87 948 0
-86 87 948 0
948 91 -949 0
-948 -91 -949 0
948 -91 949 0
-948 91 949 0
949 92 -950 0
-949 -92 -950 0
949 -92 950 0
-949 92 950 0
950 222 -951 0
-950 -222 -951 0
950 -222 951 0
-950 222 951 0
951 232 -952 0
-951 -232 -952 0
951 -232 952 0
-951 232 952 0
952 237 -953 0
-952 -237 -953 0
952 -237 953 0
-952 237 953 0
953 247 -954 0
-953 -247 -954 0
953 -247 954 0
-953 247 954 0
-954 0
87 88 -955 0
-87 -88 -955 0
87 -88 955 0
-87 88 955 0
955 92 -956 0
-955 -92 -956 0
955 -92 956 0
-955 92 956 0
956 93 -957 0
-956 -93 -957 0
956 -93 957 0
-956 93 957 0
957 223 -958 0
-957 -223 -958 0
957 -223 958 0
-957 223 958 0
958 233 -959 0
-958 -233 -959 0
958 -233 959 0
-958 233 959 0
959 238 -960 0
-959 -238 -960 0
959 -238 960 0
-959 238 960 0
960 248 -961 0
-960 -248 -961 0
960 -248 961 0
-960 248 961 0
-961 0
88 89 -962 0
-88 -89 -962 0
88 -89 962 0
-88 89 962 0
962 93 -963 0
-962 -93 -963 0
962 -93 963 0
-962 93 963 0
963 94 -964 0
-963 -94 -964 0
963 -94 964 0
-963 94 964 0
964 224 -965 0
-964 -224 -965 0
964 -224 965 0
-964 224 965 0
965 234 -966 0
-965 -234 -966 0
965 -234 966 0
-965 234 966 0
966 239 -967 0
-966 -239 -967 0
966 -239 967 0
-966 239 967 0
967 249 -968 0
-967 -249 -968 0
967 -249 968 0
-967 249 968 0
-968 0
89 90 -969 0
-89 -90 -969 0
89 -90 969 0
-89 90 969 0
969 94 -970 0
-969 -94 -970 0
969 -94 970 0
-969 94 970 0
970 95 -971 0
-970 -95 -971 0
970 -95 971 0
-970 95 971 0
971 225 -972 0
-971 -225 -972 0
971 -225 972 0
-971 225 972 0
972 235 -973 0
-972 -235 -973 0
972 -235 973 0
-972 235 973 0
973 240 -974 0
-973 -240 -974 0
973 -240 974 0
-973 240 974 0
974 250 -975 0
-974 -250 -975 0
974 -250 975 0
-974 250 975 0
-975 0
90 91 -976 0
-90 -91 -976 0
90 -91 976 0
-90 91 976 0
976 95 -977 0
-976 -95 -977 0
976 -95 977 0
-976 95 977 0
977 96 -978 0
-977 -96 -978 0
977 -96 978 0
-977 96 978 0
978 226 -979 0
-978 -226 -979 0
978 -226 979 0
-978 226 979 0
979 236 -980 0
-979 -236 -980 0
979 -236 980 0
-979 236 980 0
980 241 -981 0
-980 -241 -981 0
980 -241 981 0
-980 241 981 0
981 251 -982 0
-981 -251 -982 0
981 -251 982 0
-981 251 982 0
-982 0
91 92 -983 0
-91 -92 -983 0
91 -92 983 0
-91 92 983 0
983 96 -984 0
-983 -96 -984 0
983 -96 984 0
-983 96 984 0
984 97 -985 0
-984 -97 -985 0
984 -97 985 0
-984 97 985 0
985 227 -986 0
-985 -227 -986 0
985 -227 986 0
-985 227 986 0
986 237 -987 0
-986 -237 -987 0
986 -237 987 0
-986 237 987 0
987 242 -988 0
-987 -242 -988 0
987 -242 988 0
-987 242 988 0
988 252 -989 0
-988 -252 -989 0
988 -252 989 0
-988 252 989 0
-989 0
92 93 -990 0
-92 -93 -990 0
92 -93 990 0
-92 93 990 0
990 97 -991 0
-990 -97 -991 0
990 -97 991 0
-990 97 991 0
991 98 -992 0
-991 -98 -992 0
991 -98 992 0
-991 98 992 0
992 228 -993 0
-992 -228 -993 0
992 -228 993 0
-992 228 993 0
993 238 -994 0
-993 -238 -994 0
993 -238 994 0
-993 238 994 0
994 243 -995 0
-994 -243 -995 0
994 -243 995 0
-994 243 995 0
995 253 -996 0
-995 -253 -996 0
995 -253 996 0
-995 253 996 0
-996 0
93 94 -997 0
-93 -94 -997 0
93 -94 997 0
-93 94 997 0
997 98 -998 0
-997 -98 -998 0
997 -98 998 0
-997 98 998 0
998 99 -999 0
-998 -99 -999 0
998 -99 999 0
-998 99 999 0
999 229 -1000 0
-999 -229 -1000 0
999 -229 1000 0
-999 229 1000 0
1000 239 -1001 0
-1000 -239 -1001 0
1000 -239 1001 0
-1000 239 1001 0
1001 244 -1002 0
-1001 -244 -1002 0
1001 -244 1002 0
-1001 244 1002 0
1002 254 -1003 0
-1002 -254 -1003 0
1002 -254 1003 0
-1002 254 1003 0
-1003 0
94 95 -1004 0
-94 -95 -1004 0
94 -95 1004 0
-94 95 1004 0
1004 99 -1005 0
-1004 -99 -1005 0
1004 -99 1005 0
-1004 99 1005 0
1005 100 -1006 0
-1005 -100 -1006 0
1005 -100 1006 0
-1005 100 1006 0
1006 230 -1007 0
-1006 -230 -1007 0
1006 -230 1007 0
-1006 230 1007 0
1007 240 -1008 0
-1007 -240 -1008 0
1007 -240 1008 0
-1007 240 1008 0
1008 245 -1009 0
-1008 -245 -1009 0
1008 -245 1009 0
-1008 245 1009 0
1009 255 -1010 0
-1009 -255 -1010 0
1009 -255 1010 0
-1009 255 1010 0
-1010 0
95 96 -1011 0
-95 -96 -1011 0
95 -96 1011 0
-95 96 1011 0
1011 100 -1012 0
-1011 -100 -1012 0
1011 -100 1012 0
-1011 100 1012 0
1012 101 -1013 0
-1012 -101 -1013 0
1012 -101 1013 0
-1012 101 1013 0
1013 231 -1014 0
-1013 -231 -1014 0
1013 -231 1014 0
-1013 231 1014 0
1014 241 -1015 0
-1014 -241 -1015 0
1014 -241 1015 0
-1014 241 1015 0
1015 246 -1016 0
-1015 -246 -1016 0
1015 -246 1016 0
-1015 246 1016 0
1016 256 -1017 0
-1016 -256 -1017 0
1016 -256 1017 0
-1016 256 1017 0
-1017 0
96 97 -1018 0
-96 -97 -1018 0
96 -97 1018 0
-96 97 1018 0
1018 101 -1019 0
-1018 -101 -1019 0
1018 -101 1019 0
-1018 101 1019 0
1019 102 -1020 0
-1019 -102 -1020 0
1019 -102 1020 0
-1019 102 1020 0
1020 232 -1021 0
-1020 -232 -1021 0
1020 -232 1021 0
-1020 232 1021 0
1021 242 -1022 0
-1021 -242 -1022 0
1021 -242 1022 0
-1021 242 1022 0
1022 247 -1023 0
-1022 -247 -1023 0
1022 -247 1023 0
-1022 247 1023 0
1023 257 -1024 0
-1023 -257 -1024 0
1023 -257 1024 0
-1023 257 1024 0
-1024 0
97 98 -1025 0
-97 -98 -1025 0
97 -98 1025 0
-97 98 1025 0
1025 102 -1026 0
-1025 -102 -1026 0
1025 -102 1026 0
-1025 102 1026 0
1026 103 -1027 0
-1026 -103 -1027 0
1026 -103 1027 0
-1026 103 1027 0
1027 233 -1028 0
-1027 -233 -1028 0
1027 -233 1028 0
-1027 233 1028 0
1028 243 -1029 0
-1028 -243 -1029 0
1028 -243 1029 0
-1028 243 1029 0
1029 248 -1030 0
-1029 -248 -1030 0
1029 -248 1030 0
-1029 248 1030 0
1030 258 -1031 0
-1030 -258 -1031 0
1030 -258 1031 0
-1030 258 1031 0
-1031 0
98 99 -1032 0
-98 -99 -1032 0
98 -99 1032 0
-98 99 1032 0
1032 103 -1033 0
-1032 -103 -1033 0
1032 -103 1033 0
-1032 103 1033 0
1033 104 -1034 0
-1033 -104 -1034 0
1033 -104 1034 0
-1033 104 1034 0
1034 234 -1035 0
-1034 -234 -1035 0
1034 -234 1035 0
-1034 234 1035 0
1035 244 -1036 0
-1035 -244 -1036 0
1035 -244 1036 0
-1035 244 1036 0
1036 249 -1037 0
-1036 -249 -1037 0
1036 -249 1037 0
-1036 249 1037 0
1037 259 -1038 0
-1037 -259 -1038 0
1037 -259 1038 0
-1037 259 1038 0
-1038 0
99 100 -1039 0
-99 -100 -1039 0
99 -100 1039 0
-99 100 1039 0
1039 104 -1040 0
-1039 -104 -1040 0
1039 -104 1040 0
-1039 104 1040 0
1040 105 -1041 0
-1040 -105 -1041 0
1040 -105 1041 0
-1040 105 1041 0
1041 235 -1042 0
-1041 -235 -1042 0
1041 -235 1042 0
-1041 235 1042 0
1042 245 -1043 0
-1042 -245 -1043 0
1042 -245 1043 0
-1042 245 1043 0
1043 250 -1044 0
-1043 -250 -1044 0
1043 -250 1044 0
-1043 250 1044 0
1044 260 -1045 0
-1044 -260 -1045 0
1044 -260 1045 0
-1044 260 1045 0
-1045 0
100 101 -1046 0
-100 -101 -1046 0
100 -101 1046 0
-100 101 1046 0
1046 105 -1047 0
-1046 -105 -1047 0
1046 -105 1047 0
-1046 105 1047 0
1047 106 -1048 0
-1047 -106 -1048 0
1047 -106 1048 0
-1047 106 1048 0
1048 236 -1049 0
-1048 -236 -1049 0
1048 -236 1049 0
-1048 236 1049 0
1049 246 -1050 0
-1049 -246 -1050 0
1049 -246 1050 0
-1049 246 1050 0
1050 251 -1051 0
-1050 -251 -1051 0
1050 -251 1051 0
-1050 251 1051 0
1051 261 -1052 0
-1051 -261 -1052 0
1051 -261 1052 0
-1051 261 1052 0
-1052 0
101 102 -1053 0
-101 -102 -1053 0
101 -102 1053 0
-101 102 1053 0
1053 106 -1054 0
-1053 -106 -1054 0
1053 -106 1054 0
-1053 106 1054 0
1054 107 -1055 0
-1054 -107 -1055 0
1054 -107 1055 0
-1054 107 1055 0
1055 237 -1056 0
-1055 -237 -1056 0
1055 -237 1056 0
-1055 237 1056 0
1056 247 -1057 0
-1056 -247 -1057 0
1056 -247 1057 0
-1056 247 1057 0
1057 252 -1058 0
-1057 -252 -1058 0
1057 -252 1058 0
-1057 252 1058 0
1058 262 -1059 0
-1058 -262 -1059 0
1058 -262 1059 0
-1058 262 1059 0
-1059 0
102 103 -1060 0
-102 -103 -1060 0
102 -103 1060 0
-102 103 1060 0
1060 107 -1061 0
-1060 -107 -1061 0
1060 -107 1061 0
-1060 107 1061 0
1061 108 -1062 0
-1061 -108 -1062 0
1061 -108 1062 0
-1061 108 1062 0
1062 238 -1063 0
-1062 -238 -1063 0
1062 -238 1063 0
-1062 238 1063 0
1063 248 -1064 0
-1063 -248 -1064 0
1063 -248 1064 0
-1063 248 1064 0
1064 253 -1065 0
-1064 -253 -1065 0
1064 -253 1065 0
-1064 253 1065 0
1065 263 -1066 0
-1065 -263 -1066 0
1065 -263 1066 0
-1065 263 1066 0
-1066 0
103 104 -1067 0
-103 -104 -1067 0
103 -104 1067 0
-103 104 1067 0
1067 108 -1068 0
-1067 -108 -1068 0
1067 -108 1068 0
-1067 108 1068 0
1068 109 -1069 0
-1068 -109 -1069 0
1068 -109 1069 0
-1068 109 1069 0
1069 239 -1070 0
-1069 -239 -1070 0
1069 -239 1070 0
-1069 239 1070 0
1070 249 -1071 0
-1070 -249 -1071 0
1070 -249 1071 0
-1070 249 1071 0
1071 254 -1072 0
-1071 -254 -1072 0
1071 -254 1072 0
-1071 254 1072 0
1072 264 -1073 0
-1072 -264 -1073 0
1072 -264 1073 0
-1072 264 1073 0
-1073 0
104 105 -1074 0
-104 -105 -1074 0
104 -105 1074 0
-104 105 1074 0
1074 109 -1075 0
-1074 -109 -1075 0
1074 -109 1075 0
-1074 109 1075 0
1075 110 -1076 0
-1075 -110 -1076 0
1075 -110 1076 0
-1075 110 1076 0
1076 240 -1077 0
-1076 -240 -1077 0
1076 -240 1077 0
-1076 240 1077 0
1077 250 -1078 0
-1077 -250 -1078 0
1077 -250 1078 0
-1077 250 1078 0
1078 255 -1079 0
-1078 -255 -1079 0
1078 -255 1079 0
-1078 255 1079 0
1079 265 -1080 0
-1079 -265 -1080 0
1079 -265 1080 0
-1079 265 1080 0
-1080 0
105 106 -1081 0
-105 -106 -1081 0
105 -106 1081 0
-105 106 1081 0
1081 110 -1082 0
-1081 -110 -1082 0
1081 -110 1082 0
-1081 110 1082 0
1082 111 -1083 0
-1082 -111 -1083 0
1082 -111 1083 0
-1082 111 1083 0
1083 241 -1084 0
-1083 -241 -1084 0
1083 -241 1084 0
-1083 241 1084 0
1084 251 -1085 0
-1084 -251 -1085 0
1084 -251 1085 0
-1084 251 1085 0
1085 256 -1086 0
-1085 -256 -1086 0
1085 -256 1086 0
-1085 256 1086 0
1086 266 -1087 0
-1086 -266 -1087 0
1086 -266 1087 0
-1086 266 1087 0
-1087 0
106 107 -1088 0
-106 -107 -1088 0
106 -107 1088 0
-106 107 1088 0
1088 111 -1089 0
-1088 -111 -1089 0
1088 -111 1089 0
-1088 111 1089 0
1089 112 -1090 0
-1089 -112 -1090 0
1089 -112 1090 0
-1089 112 1090 0
1090 242 -1091 0
-1090 -242 -1091 0
1090 -242 1091 0
-1090 242 1091 0
1091 252 -1092 0
-1091 -252 -1092 0
1091 -252 1092 0
-1091 252 1092 0
1092 257 -1093 0
-1092 -257 -1093 0
1092 -257 1093 0
-1092 257 1093 0
1093 267 -1094 0
-1093 -267 -1094 0
1093 -267 1094 0
-1093 267 1094 0
-1094 0
107 108 -1095 0
-107 -108 -1095 0
107 -108 1095 0
-107 108 1095 0
1095 112 -1096 0
-1095 -112 -1096 0
1095 -112 1096 0
-1095 112 1096 0
1096 113 -1097 0
-1096 -113 -1097 0
1096 -113 1097 0
-1096 113 1097 0
1097 243 -1098 0
-1097 -243 -1098 0
1097 -243 1098 0
-1097 243 1098 0
1098 253 -1099 0
-1098 -253 -1099 0
1098 -253 1099 0
-1098 253 1099 0
1099 258 -1100 0
-1099 -258 -1100 0
1099 -258 1100 0
-1099 258 1100 0
1100 268 -1101 0
-1100 -268 -1101 0
1100 -268 1101 0
-1100 268 1101 0
-1101 0
108 109 -1102 0
-108 -109 -1102 0
108 -109 1102 0
-108 109 1102 0
1102 113 -1103 0
-1102 -113 -1103 0
1102 -113 1103 0
-1102 113 1103 0
1103 114 -1104 0
-1103 -114 -1104 0
1103 -114 1104 0
-1103 114 1104 0
1104 244 -1105 0
-1104 -244 -1105 0
1104 -244 1105 0
-1104 244 1105 0
1105 254 -1106 0
-1105 -254 -1106 0
1105 -254 1106 0
-1105 254 1106 0
1106 259 -1107 0
-1106 -259 -1107 0
1106 -259 1107 0
-1106 259 1107 0
1107 269 -1108 0
-1107 -269 -1108 0
1107 -269 1108 0
-1107 269 1108 0
-1108 0
109 110 -1109 0
-109 -110 -1109 0
109 -110 1109 0
-109 110 1109 0
1109 114 -1110 0
-1109 -114 -1110 0
1109 -114 1110 0
-1109 114 1110 0
1110 115 -1111 0
-1110 -115 -1111 0
1110 -115 1111 0
-1110 115 1111 0
1111 245 -1112 0
-1111 -245 -1112 0
1111 -245 1112 0
-1111 245 1112 0
1112 255 -1113 0
-1112 -255 -1113 0
1112 -255 1113 0
-1112 255 1113 0
1113 260 -1114 0
-1113 -260 -1114 0
1113 -260 1114 0
-1113 260 1114 0
1114 270 -1115 0
-1114 -270 -1115 0
1114 -270 1115 0
-1114 270 1115 0
-1115 0
110 111 -1116 0
-110 -111 -1116 0
110 -111 1116 0
-110 111 1116 0
1116 115 -1117 0
-1116 -115 -1117 0
1116 -115 1117 0
-1116 115 1117 0
1117 116 -1118 0
-1117 -116 -1118 0
1117 -116 1118 0
-1117 116 1118 0
1118 246 -1119 0
-1118 -246 -1119 0
1118 -246 1119 0
-1118 246 1119 0
1119 256 -1120 0
-1119 -256 -1120 0
1119 -256 1120 0
-1119 256 1120 0
1120 261 -1121 0
-1120 -261 -1121 0
1120 -261 1121 0
-1120 261 1121 0
1121 271 -1122 0
-1121 -271 -1122 0
1121 -271 1122 0
-1121 271 1122 0
-1122 0
111 112 -1123 0
-111 -112 -1123 0
111 -112 1123 0
-111 112 1123 0
1123 116 -1124 0
-1123 -116 -1124 0
1123 -116 1124 0
-1123 116 1124 0
1124 117 -1125 0
-1124 -117 -1125 0
1124 -117 1125 0
-1124 117 1125 0
1125 247 -1126 0
-1125 -247 -1126 0
1125 -247 1126 0
-1125 247 1126 0
1126 257 -1127 0
-1126 -257 -1127 0
1126 -257 1127 0
-1126 257 1127 0
1127 262 -1128 0
-1127 -262 -1128 0
1127 -262 1128 0
-1127 262 1128 0
1128 272 -1129 0
-1128 -272 -1129 0
1128 -272 1129 0
-1128 272 1129 0
-1129 0
112 113 -1130 0
-112 -113 -1130 0
112 -113 1130 0
-112 113 1130 0
1130 117 -1131 0
-1130 -117 -1131 0
1130 -117 1131 0
-1130 117 1131 0
1131 118 -1132 0
-1131 -118 -1132 0
1131 -118 1132 0
-1131 118 1132 0
1132 248 -1133 0
-1132 -248 -1133 0
1132 -248 1133 0
-1132 248 1133 0
1133 258 -1134 0
-1133 -258 -1134 0
1133 -258 1134 0
-1133 258 1134 0
1134 263 -1135 0
-1134 -263 -1135 0
1134 -263 1135 0
-1134 263 1135 0
1135 273 -1136 0
-1135 -273 -1136 0
1135 -273 1136 0
-1135 273 1136 0
-1136 0
113 114 -1137 0
-113 -114 -1137 0
113 -114 1137 0
-113 114 1137 0
1137 118 -1138 0
-1137 -118 -1138 0
1137 -118 1138 0
-1137 118 1138 0
1138 119 -1139 0
-1138 -119 -1139 0
1138 -119 1139 0
-1138 119 1139 0
1139 249 -1140 0
-1139 -249 -1140 0
1139 -249 1140 0
-1139 249 1140 0
1140 259 -1141 0
-1140 -259 -1141 0
1140 -259 1141 0
-1140 259 1141 0
1141 264 -1142 0
-1141 -264 -1142 0
1141 -264 1142 0
-1141 264 1142 0
1142 274 -1143 0
-1142 -274 -1143 0
1142 -274 1143 0
-1142 274 1143 0
-1143 0
114 115 -1144 0
-114 -115 -1144 0
114 -115 1144 0
-114 115 1144 0
1144 119 -1145 0
-1144 -119 -1145 0
1144 -119 1145 0
-1144 119 1145 0
1145 120 -1146 0
-1145 -120 -1146 0
1145 -120 1146 0
-1145 120 1146 0
1146 250 -1147 0
-1146 -250 -1147 0
1146 -250 1147 0
-1146 250 1147 0
1147 260 -1148 0
-1147 -260 -1148 0
1147 -260 1148 0
-1147 260 1148 0
1148 265 -1149 0
-1148 -265 -1149 0
1148 -265 1149 0
-1148 265 1149 0
1149 275 -1150 0
-1149 -275 -1150 0
1149 -275 1150 0
-1149 275 1150 0
-1150 0
115 116 -1151 0
-115 -116 -1151 0
115 -116 1151 0
-115 116 1151 0
1151 120 -1152 0
-1151 -120 -1152 0
1151 -120 1152 0
-1151 120 1152 0
1152 121 -1153 0
-1152 -121 -1153 0
1152 -121 1153 0
-1152 121 1153 0
1153 251 -1154 0
-1153 -251 -1154 0
1153 -251 1154 0
-1153 251 1154 0
1154 261 -1155 0
-1154 -261 -1155 0
1154 -261 1155 0
-1154 261 1155 0
1155 266 -1156 0
-1155 -266 -1156 0
1155 -266 1156 0
-1155 266 1156 0
1156 276 -1157 0
-1156 -276 -1157 0
1156 -276 1157 0
-1156 276 1157 0
-1157 0
116 117 -1158 0
-116 -117 -1158 0
116 -117 1158 0
-116 117 1158 0
1158 121 -1159 0
-1158 -121 -1159 0
1158 -121 1159 0
-1158 121 1159 0
1159 122 -1160 0
-1159 -122 -1160 0
1159 -122 1160 0
-1159 122 1160 0
1160 252 -1161 0
-1160 -252 -1161 0
1160 -252 1161 0
-1160 252 1161 0
1161 262 -1162 0
-1161 -262 -1162 0
1161 -262 1162 0
-1161 262 1162 0
1162 267 -1163 0
-1162 -267 -1163 0
1162 -267 1163 0
-1162 267 1163 0
1163 277 -1164 0
-1163 -277 -1164 0
1163 -277 1164 0
-1163 277 1164 0
-1164 0
117 118 -1165 0
-117 -118 -1165 0
117 -118 1165 0
-117 118 1165 0
1165 122 -1166 0
-1165 -122 -1166 0
1165 -122 1166 0
-1165 122 1166 0
1166 123 -1167 0
-1166 -123 -1167 0
1166 -123 1167 0
-1166 123 1167 0
1167 253 -1168 0
-1167 -253 -1168 0
1167 -253 1168 0
-1167 253 1168 0
1168 263 -1169 0
-1168 -263 -1169 0
1168 -263 1169 0
-1168 263 1169 0
1169 268 -1170 0
-1169 -268 -1170 0
1169 -268 1170 0
-1169 268 1170 0
1170 278 -1171 0
-1170 -278 -1171 0
1170 -278 1171 0
-1170 278 1171 0
-1171 0
118 119 -1172 0
-118 -119 -1172 0
118 -119 1172 0
-118 119 1172 0
1172 123 -1173 0
-1172 -123 -1173 0
1172 -123 1173 0
-1172 123 1173 0
1173 124 -1174 0
-1173 -124 -1174 0
1173 -124 1174 0
-1173 124 1174 0
1174 254 -1175 0
-1174 -254 -1175 0
1174 -254 1175 0
-1174 254 1175 0
1175 264 -1176 0
-1175 -264 -1176 0
1175 -264 1176 0
-1175 264 1176 0
1176 269 -1177 0
-1176 -269 -1177 0
1176 -269 1177 0
-1176 269 1177 0
1177 279 -1178 0
-1177 -279 -1178 0
1177 -279 1178 0
-1177 279 1178 0
-1178 0
119 120 -1179 0
-119 -120 -1179 0
119 -120 1179 0
-119 120 1179 0
1179 124 -1180 0
-1179 -124 -1180 0
1179 -124 1180 0
-1179 124 1180 0
1180 125 -1181 0
-1180 -125 -1181 0
1180 -125 1181 0
-1180 125 1181 0
1181 255 -1182 0
-1181 -255 -1182 0
1181 -255 1182 0
-1181 255 1182 0
1182 265 -1183 0
-1182 -265 -1183 0
1182 -265 1183 0
-1182 265 1183 0
1183 270 -1184 0
-1183 -270 -1184 0
1183 -270 1184 0
-1183 270 1184 0
1184 280 -1185 0
-1184 -280 -1185 0
1184 -280 1185 0
-1184 280 1185 0
-1185 0
120 121 -1186 0
-120 -121 -1186 0
120 -121 1186 0
-120 121 1186 0
1186 125 -1187 0
-1186 -125 -1187 0
1186 -125 1187 0
-1186 125 1187 0
1187 126 -1188 0
-1187 -126 -1188 0
1187 -126 1188 0
-1187 126 1188 0
1188 256 -1189 0
-1188 -256 -1189 0
1188 -256 1189 0
-1188 256 1189 0
1189 266 -1190 0
-1189 -266 -1190 0
1189 -266 1190 0
-1189 266 1190 0
1190 271 -1191 0
-1190 -271 -1191 0
1190 -271 1191 0
-1190 271 1191 0
1191 281 -1192 0
-1191 -281 -1192 0
1191 -281 1192 0
-1191 281 1192 0
-1192 0
121 122 -1193 0
-121 -122 -1193 0
121 -122 1193 0
-121 122 1193 0
1193 126 -1194 0
-1193 -126 -1194 0
1193 -126 1194 0
-1193 126 1194 0
1194 127 -1195 0
-1194 -127 -1195 0
1194 -127 1195 0
-1194 127 1195 0
1195 257 -1196 0
-1195 -257 -1196 0
1195 -257 1196 0
-1195 257 1196 0
1196 267 -1197 0
-1196 -267 -1197 0
1196 -267 1197 0
-1196 267 1197 0
1197 272 -1198 0
-1197 -272 -1198 0
1197 -272 1198 0
-1197 272 1198 0
1198 282 -1199 0
-1198 -282 -1199 0
1198 -282 1199 0
-1198 282 1199 0
-1199 0
122 123 -1200 0
-122 -123 -1200 0
122 -123 1200 0
-122 123 1200 0
1200 127 -1201 0
-1200 -127 -1201 0
1200 -127 1201 0
-1200 127 1201 0
1201 128 -1202 0
-1201 -128 -1202 0
1201 -128 1202 0
-1201 128 1202 0
1202 258 -1203 0
-1202 -258 -1203 0
1202 -258 1203 0
-1202 258 1203 0
1203 268 -1204 0
-1203 -268 -1204 0
1203 -268 1204 0
-1203 268 1204 0
1204 273 -1205 0
-1204 -273 -1205 0
1204 -273 1205 0
-1204 273 1205 0
1205 283 -1206 0
-1205 -283 -1206 0
1205 -283 1206 0
-1205 283 1206 0
-1206 0
123 124 -1207 0
-123 -124 -1207 0
123 -124 1207 0
-123 124 1207 0
1207 128 -1208 0
-1207 -128 -1208 0
1207 -128 1208 0
-1207 128 1208 0
1208 129 -1209 0
-1208 -129 -1209 0
1208 -129 1209 0
-1208 129 1209 0
1209 259 -1210 0
-1209 -259 -1210 0
1209 -259 1210 0
-1209 259 1210 0
1210 269 -1211 0
-1210 -269 -1211 0
1210 -269 1211 0
-1210 269 1211 0
1211 274 -1212 0
-1211 -274 -1212 0
1211 -274 1212 0
-1211 274 1212 0
1212 284 -1213 0
-1212 -284 -1213 0
1212 -284 1213 0
-1212 284 1213 0
-1213 0
124 125 -1214 0
-124 -125 -1214 0
124 -125 1214 0
-124 125 1214 0
1214 129 -1215 0
-1214 -129 -1215 0
1214 -129 1215 0
-1214 129 1215 0
1215 130 -1216 0
-1215 -130 -1216 0
1215 -130 1216 0
-1215 130 1216 0
1216 260 -1217 0
-1216 -260 -1217 0
1216 -260 1217 0
-1216 260 1217 0
1217 270 -1218 0
-1217 -270 -1218 0
1217 -270 1218 0
-1217 270 1218 0
1218 275 -1219 0
-1218 -275 -1219 0
1218 -275 1219 0
-1218 275 1219 0
1219 285 -1220 0
-1219 -285 -1220 0
1219 -285 1220 0
-1219 285 1220 0
-1220 0
125 126 -1221 0
-125 -126 -1221 0
125 -126 1221 0
-125 126 1221 0
1221 130 -1222 0
-1221 -130 -1222 0
1221 -130 1222 0
-1221 130 1222 0
1222 131 -1223 0
-1222 -131 -1223 0
1222 -131 1223 0
-1222 131 1223 0
1223 261 -1224 0
-1223 -261 -1224 0
1223 -261 1224 0
-1223 261 1224 0
1224 271 -1225 0
-1224 -271 -1225 0
1224 -271 1225 0
-1224 271 1225 0
1225 276 -1226 0
-1225 -276 -1226 0
1225 -276 1226 0
-1225 276 1226 0
1226 286 -1227 0
-1226 -286 -1227 0
1226 -286 1227 0
-1226 286 1227 0
-1227 0
126 127 -1228 0
-126 -127 -1228 0
126 -127 1228 0
-126 127 1228 0
1228 131 -1229 0
-1228 -131 -1229 0
1228 -131 1229 0
-1228 131 1229 0
1229 132 -1230 0
-1229 -132 -1230 0
1229 -132 1230 0
-1229 132 1230 0
1230 262 -1231 0
-1230 -262 -1231 0
1230 -262 1231 0
-1230 262 1231 0
1231 272 -1232 0
-1231 -272 -1232 0
1231 -272 1232 0
-1231 272 1232 0
1232 277 -1233 0
-1232 -277 -1233 0
1232 -277 1233 0
-1232 277 1233 0
1233 287 -1234 0
-1233 -287 -1234 0
1233 -287 1234 0
-1233 287 1234 0
-1234 0
127 128 -1235 0
-127 -128 -1235 0
127 -128 1235 0
-127 128 1235 0
1235 132 -1236 0
-1235 -132 -1236 0
1235 -132 1236 0
-1235 132 1236 0
1236 133 -1237 0
-1236 -133 -1237 0
1236 -133 1237 0
-1236 133 1237 0
1237 263 -1238 0
-1237 -263 -1238 0
1237 -263 1238 0
-1237 263 1238 0
1238 273 -1239 0
-1238 -273 -1239 0
1238 -273 1239 0
-1238 273 1239 0
1239 278 -1240 0
-1239 -278 -1240 0
1239 -278 1240 0
-1239 278 1240 0
1240 288 -1241 0
-1240 -288 -1241 0
1240 -288 1241 0
-1240 288 1241 0
-1241 0
128 129 -1242 0
-128 -129 -1242 0
128 -129 1242 0
-128 129 1242 0
1242 133 -1243 0
-1242 -133 -1243 0
1242 -133 1243 0
-1242 133 1243 0
1243 134 -1244 0
-1243 -134 -1244 0
1243 -134 1244 0
-1243 134 1244 0
1244 264 -1245 0
-1244 -264 -1245 0
1244 -264 1245 0
-1244 264 1245 0
1245 274 -1246 0
-1245 -274 -1246 0
1245 -274 1246 0
-1245 274 1246 0
1246 279 -1247 0
-1246 -279 -1247 0
1246 -279 1247 0
-1246 279 1247 0
1247 289 -1248 0
-1247 -289 -1248 0
1247 -289 1248 0
-1247 289 1248 0
-1248 0
129 130 -1249 0
-129 -130 -1249 0
129 -130 1249 0
-129 130 1249 0
1249 134 -1250 0
-1249 -134 -1250 0
1249 -134 1250 0
-1249 134 1250 0
1250 135 -1251 0
-1250 -135 -1251 0
1250 -135 1251 0
-1250 135 1251 0
1251 265 -1252 0
-1251 -265 -1252 0
1251 -265 1252 0
-1251 265 1252 0
1252 275 -1253 0
-1252 -275 -1253 0
1252 -275 1253 0
-1252 275 1253 0
1253 280 -1254 0
-1253 -280 -1254 0
1253 -280 1254 0
-1253 280 1254 0
1254 290 -1255 0
-1254 -290 -1255 0
1254 -290 1255 0
-1254 290 1255 0
-1255 0
130 131 -1256 0
-130 -131 -1256 0
130 -131 1256 0
-130 131 1256 0
1256 135 -1257 0
-1256 -135 -1257 0
1256 -135 1257 0
-1256 135 1257 0
1257 136 -1258 0
-1257 -136 -1258 0
1257 -136 1258 0
-1257 136 1258 0
1258 266 -1259 0
-1258 -266 -1259 0
1258 -266 1259 0
-1258 266 1259 0
1259 276 -1260 0
-1259 -276 -1260 0
1259 -276 1260 0
-1259 276 1260 0
1260 281 -1261 0
-1260 -281 -1261 0
1260 -281 1261 0
-1260 281 1261 0
1261 291 -1262 0
-1261 -291 -1262 0
1261 -291 1262 0
-1261 291 1262 0
-1262 0
131 132 -1263 0
-131 -132 -1263 0
131 -132 1263 0
-131 132 1263 0
1263 136 -1264 0
-1263 -136 -1264 0
1263 -136 1264 0
-1263 136 1264 0
1264 137 -1265 0
-1264 -137 -1265 0
1264 -137 1265 0
-1264 137 1265 0
1265 267 -1266 0
-1265 -267 -1266 0
1265 -267 1266 0
-1265 267 1266 0
1266 277 -1267 0
-1266 -277 -1267 0
1266 -277 1267 0
-1266 277 1267 0
1267 282 -1268 0
-1267 -282 -1268 0
1267 -282 1268 0
-1267 282 1268 0
1268 292 -1269 0
-1268 -292 -1269 0
1268 -292 1269 0
-1268 292 1269 0
-1269 0
132 133 -1270 0
-132 -133 -1270 0
132 -133 1270 0
-132 133 1270 0
1270 137 -1271 0
-1270 -137 -1271 0
1270 -137 1271 0
-1270 137 1271 0
1271 138 -1272 0
-1271 -138 -1272 0
1271 -138 1272 0
-1271 138 1272 0
1272 268 -1273 0
-1272 -268 -1273 0
1272 -268 1273 0
-1272 268 1273 0
1273 278 -1274 0
-1273 -278 -1274 0
1273 -278 1274 0
-1273 278 1274 0
1274 283 -1275 0
-1274 -283 -1275 0
1274 -283 1275 0
-1274 283 1275 0
1275 293 -1276 0
-1275 -293 -1276 0
1275 -293 1276 0
-1275 293 1276 0
-1276 0
133 134 -1277 0
-133 -134 -1277 0
133 -134 1277 0
-133 134 1277 0
1277 138 -1278 0
-1277 -138 -1278 0
1277 -138 1278 0
-1277 138 1278 0
1278 139 -1279 0
-1278 -139 -1279 0
1278 -139 1279 0
-1278 139 1279 0
1279 269 -1280 0
-1279 -269 -1280 0
1279 -269 1280 0
-1279 269 1280 0
1280 279 -1281 0
-1280 -279 -1281 0
1280 -279 1281 0
-1280 279 1281 0
1281 284 -1282 0
-1281 -284 -1282 0
1281 -284 1282 0
-1281 284 1282 0
1282 294 -1283 0
-1282 -294 -1283 0
1282 -294 1283 0
-1282 294 1283 0
-1283 0
134 135 -1284 0
-134 -135 -1284 0
134 -135 1284 0
-134 135 1284 0
1284 139 -1285 0
-1284 -139 -1285 0
1284 -139 1285 0
-1284 139 1285 0
1285 140 -1286 0
-1285 -140 -1286 0
1285 -140 1286 0
-1285 140 1286 0
1286 270 -1287 0
-1286 -270 -1287 0
1286 -270 1287 0
-1286 270 1287 0
1287 280 -1288 0
-1287 -280 -1288 0
1287 -280 1288 0
-1287 280 1288 0
1288 285 -1289 0
-1288 -285 -1289 0
1288 -285 1289 0
-1288 285 1289 0
1289 295 -1290 0
-1289 -295 -1290 0
1289 -295 1290 0
-1289 295 1290 0
-1290 0
135 136 -1291 0
-135 -136 -1291 0
135 -136 1291 0
-135 136 1291 0
1291 140 -1292 0
-1291 -140 -1292 0
1291 -140 1292 0
-1291 140 1292 0
1292 141 -1293 0
-1292 -141 -1293 0
1292 -141 1293 0
-1292 141 1293 0
1293 271 -1294 0
-1293 -271 -1294 0
1293 -271 1294 0
-1293 271 1294 0
1294 281 -1295 0
-1294 -281 -1295 0
1294 -281 1295 0
-1294 281 1295 0
1295 286 -1296 0
-1295 -286 -1296 0
1295 -286 1296 0
-1295 286 1296 0
1296 296 -1297 0
-1296 -296 -1297 0
1296 -296 1297 0
-1296 296 1297 0
-1297 0
136 137 -1298 0
-136 -137 -1298 0
136 -137 1298 0
-136 137 1298 0
1298 141 -1299 0
-1298 -141 -1299 0
1298 -141 1299 0
-1298 141 1299 0
1299 142 -1300 0
-1299 -142 -1300 0
1299 -142 1300 0
-1299 142 1300 0
1300 272 -1301 0
-1300 -272 -1301 0
1300 -272 1301 0
-1300 272 1301 0
1301 282 -1302 0
-1301 -282 -1302 0
1301 -282 1302 0
-1301 282 1302 0
1302 287 -1303 0
-1302 -287 -1303 0
1302 -287 1303 0
-1302 287 1303 0
1303 297 -1304 0
-1303 -297 -1304 0
1303 -297 1304 0
-1303 297 1304 0
-1304 0
137 138 -1305 0
-137 -138 -1305 0
137 -138 1305 0
-137 138 1305 0
1305 142 -1306 0
-1305 -142 -1306 0
1305 -142 1306 0
-1305 142 1306 0
1306 143 -1307 0
-1306 -143 -1307 0
1306 -143 1307 0
-1306 143 1307 0
1307 273 -1308 0
-1307 -273 -1308 0
1307 -273 1308 0
-1307 273 1308 0
1308 283 -1309 0
-1308 -283 -1309 0
1308 -283 1309 0
-1308 283 1309 0
1309 288 -1310 0
-1309 -288 -1310 0
1309 -288 1310 0
-1309 288 1310 0
1310 298 -1311 0
-1310 -298 -1311 0
1310 -298 1311 0
-1310 298 1311 0
-1311 0
138 139 -1312 0
-138 -139 -1312 0
138 -139 1312 0
-138 139 1312 0
1312 143 -1313 0
-1312 -143 -1313 0
1312 -143 1313 0
-1312 143 1313 0
1313 144 -1314 0
-1313 -144 -1314 0
1313 -144 1314 0
-1313 144 1314 0
1314 274 -1315 0
-1314 -274 -1315 0
1314 -274 1315 0
-1314 274 1315 0
1315 284 -1316 0
-1315 -284 -1316 0
1315 -284 1316 0
-1315 284 1316 0
1316 289 -1317 0
-1316 -289 -1317 0
1316 -289 1317 0
-1316 289 1317 0
1317 299 -1318 0
-1317 -299 -1318 0
1317 -299 1318 0
-1317 299 1318 0
-1318 0
139 140 -1319 0
-139 -140 -1319 0
139 -140 1319 0
-139 140 1319 0
1319 144 -1320 0
-1319 -144 -1320 0
1319 -144 1320 0
-1319 144 1320 0
1320 145 -1321 0
-1320 -145 -1321 0
1320 -145 1321 0
-1320 145 1321 0
1321 275 -1322 0
-1321 -275 -1322 0
1321 -275 1322 0
-1321 275 1322 0
1322 285 -1323 0
-1322 -285 -1323 0
1322 -285 1323 0
-1322 285 1323 0
1323 290 -1324 0
-1323 -290 -1324 0
1323 -290 1324 0
-1323 290 1324 0
1324 300 -1325 0
-1324 -300 -1325 0
1324 -300 1325 0
-1324 300 1325 0
-1325 0
140 141 -1326 0
-140 -141 -1326 0
140 -141 1326 0
-140 141 1326 0
1326 145 -1327 0
-1326 -145 -1327 0
1326 -145 1327 0
-1326 145 1327 0
1327 146 -1328 0
-1327 -146 -1328 0
1327 -146 1328 0
-1327 146 1328 0
1328 276 -1329 0
-1328 -276 -1329 0
1328 -276 1329 0
-1328 276 1329 0
1329 286 -1330 0
-1329 -286 -1330 0
1329 -286 1330 0
-1329 286 1330 0
1330 291 -1331 0
-1330 -291 -1331 0
1330 -291 1331 0
-1330 291 1331 0
1331 301 -1332 0
-1331 -301 -1332 0
1331 -301 1332 0
-1331 301 1332 0
-1332 0
141 142 -1333 0
-141 -142 -1333 0
141 -142 1333 0
-141 142 1333 0
1333 146 -1334 0
-1333 -146 -1334 0
1333 -146 1334 0
-1333 146 1334 0
1334 147 -1335 0
-1334 -147 -1335 0
1334 -147 1335 0
-1334 147 1335 0
1335 277 -1336 0
-1335 -277 -1336 0
1335 -277 1336 0
-1335 277 1336 0
1336 287 -1337 0
-1336 -287 -1337 0
1336 -287 1337 0
-1336 287 1337 0
1337 292 -1338 0
-1337 -292 -1338 0
1337 -292 1338 0
-1337 292 1338 0
1338 302 -1339 0
-1338 -302 -1339 0
1338 -302 1339 0
-1338 302 1339 0
-1339 0
142 143 -1340 0
-142 -143 -1340 0
142 -143 1340 0
-142 143 1340 0
1340 147 -1341 0
-1340 -147 -1341 0
1340 -147 1341 0
-1340 147 1341 0
1341 148 -1342 0
-1341 -148 -1342 0
1341 -148 1342 0
-1341 148 1342 0
1342 278 -1343 0
-1342 -278 -1343 0
1342 -278 1343 0
-1342 278 1343 0
1343 288 -1344 0
-1343 -288 -1344 0
1343 -288 1344 0
-1343 288 1344 0
1344 293 -1345 0
-1344 -293 -1345 0
1344 -293 1345 0
-1344 293 1345 0
1345 303 -1346 0
-1345 -303 -1346 0
1345 -303 1346 0
-1345 303 1346 0
-1346 0
143 144 -1347 0
-143 -144 -1347 0
143 -144 1347 0
-143 144 1347 0
1347 148 -1348 0
-1347 -148 -1348 0
1347 -148 1348 0
-1347 148 1348 0
1348 149 -1349 0
-1348 -149 -1349 0
1348 -149 1349 0
-1348 149 1349 0
1349 279 -1350 0
-1349 -279 -1350 0
1349 -279 1350 0
-1349 279 1350 0
1350 289 -1351 0
-1350 -289 -1351 0
1350 -289 1351 0
-1350 289 1351 0
1351 294 -1352 0
-1351 -294 -1352 0
1351 -294 1352 0
-1351 294 1352 0
1352 304 -1353 0
-1352 -304 -1353 0
1352 -304 1353 0
-1352 304 1353 0
-1353 0
144 145 -1354 0
-144 -145 -1354 0
144 -145 1354 0
-144 145 1354 0
1354 149 -1355 0
-1354 -149 -1355 0
1354 -149 1355 0
-1354 149 1355 0
1355 150 -1356 0
-1355 -150 -1356 0
1355 -150 1356 0
-1355 150 1356 0
1356 280 -1357 0
-1356 -280 -1357 0
1356 -280 1357 0
-1356 280 1357 0
1357 290 -1358 0
-1357 -290 -1358 0
1357 -290 1358 0
-1357 290 1358 0
1358 295 -1359 0
-1358 -295 -1359 0
1358 -295 1359 0
-1358 295 1359 0
1359 305 -1360 0
-1359 -305 -1360 0
1359 -305 1360 0
-1359 305 1360 0
-1360 0
145 146 -1361 0
-145 -146 -1361 0
145 -146 1361 0
-145 146 1361 0
1361 150 -1362 0
-1361 -150 -1362 0
1361 -150 1362 0
-1361 150 1362 0
1362 151 -1363 0
-1362 -151 -1363 0
1362 -151 1363 0
-1362 151 1363 0
1363 281 -1364 0
-1363 -281 -1364 0
1363 -281 1364 0
-1363 281 1364 0
1364 291 -1365 0
-1364 -291 -1365 0
1364 -291 1365 0
-1364 291 1365 0
1365 296 -1366 0
-1365 -296 -1366 0
1365 -296 1366 0
-1365 296 1366 0
1366 306 -1367 0
-1366 -306 -1367 0
1366 -306 1367 0
-1366 306 1367 0
-1367 0
146 147 -1368 0
-146 -147 -1368 0
146 -147 1368 0
-146 147 1368 0
1368 151 -1369 0
-1368 -151 -1369 0
1368 -151 1369 0
-1368 151 1369 0
1369 152 -1370 0
-1369 -152 -1370 0
1369 -152 1370 0
-1369 152 1370 0
1370 282 -1371 0
-1370 -282 -1371 0
1370 -282 1371 0
-1370 282 1371 0
1371 292 -1372 0
-1371 -292 -1372 0
1371 -292 1372 0
-1371 292 1372 0
1372 297 -1373 0
-1372 -297 -1373 0
1372 -297 1373 0
-1372 297 1373 0
1373 307 -1374 0
-1373 -307 -1374 0
1373 -307 1374 0
-1373 307 1374 0
-1374 0
147 148 -1375 0
-147 -148 -1375 0
147 -148 1375 0
-147 148 1375 0
1375 152 -1376 0
-1375 -152 -1376 0
1375 -152 1376 0
-1375 152 1376 0
1376 153 -1377 0
-1376 -153 -1377 0
1376 -153 1377 0
-1376 153 1377 0
1377 283 -1378 0
-1377 -283 -1378 0
1377 -283 1378 0
-1377 283 1378 0
1378 293 -1379 0
-1378 -293 -1379 0
1378 -293 1379 0
-1378 293 1379 0
1379 298 -1380 0
-1379 -298 -1380 0
1379 -298 1380 0
-1379 298 1380 0
1380 308 -1381 0
-1380 -308 -1381 0
1380 -308 1381 0
-1380 308 1381 0
-1381 0
148 149 -1382 0
-148 -149 -1382 0
148 -149 1382 0
-148 149 1382 0
1382 153 -1383 0
-1382 -153 -1383 0
1382 -153 1383 0
-1382 153 1383 0
1383 154 -1384 0
-1383 -154 -1384 0
1383 -154 1384 0
-1383 154 1384 0
1384 284 -1385 0
-1384 -284 -1385 0
1384 -284 1385 0
-1384 284 1385 0
1385 294 -1386 0
-1385 -294 -1386 0
1385 -294 1386 0
-1385 294 1386 0
1386 299 -1387 0
-1386 -299 -1387 0
1386 -299 1387 0
-1386 299 1387 0
1387 309 -1388 0
-1387 -309 -1388 0
1387 -309 1388 0
-1387 309 1388 0
-1388 0
149 150 -1389 0
-149 -150 -1389 0
149 -150 1389 0
-149 150 1389 0
1389 154 -1390 0
-1389 -154 -1390 0
1389 -154 1390 0
-1389 154 1390 0
1390 155 -1391 0
-1390 -155 -1391 0
1390 -155 1391 0
-1390 155 1391 0
1391 285 -1392 0
-1391 -285 -1392 0
1391 -285 1392 0
-1391 285 1392 0
1392 295 -1393 0
-1392 -295 -1393 0
1392 -295 1393 0
-1392 295 1393 0
1393 300 -1394 0
-1393 -300 -1394 0
1393 -300 1394 0
-1393 300 1394 0
1394 310 -1395 0
-1394 -310 -1395 0
1394 -310 1395 0
-1394 310 1395 0
-1395 0
1 161 -1396 0
-1 -161 -1396 0
1 -161 1396 0
-1 161 1396 0
1396 166 -1397 0
-1396 -166 -1397 0
1396 -166 1397 0
-1396 166 1397 0
1397 171 -1398 0
-1397 -171 -1398 0
1397 -171 1398 0
-1397 171 1398 0
1398 176 -1399 0
-1398 -176 -1399 0
1398 -176 1399 0
-1398 176 1399 0
1399 181 -1400 0
-1399 -181 -1400 0
1399 -181 1400 0
-1399 181 1400 0
1400 186 -1401 0
-1400 -186 -1401 0
1400 -186 1401 0
-1400 186 1401 0
1401 191 -1402 0
-1401 -191 -1402 0
1401 -191 1402 0
-1401 191 1402 0
1402 196 -1403 0
-1402 -196 -1403 0
1402 -196 1403 0
-1402 196 1403 0
1403 201 -1404 0
-1403 -201 -1404 0
1403 -201 1404 0
-1403 201 1404 0
1404 206 -1405 0
-1404 -206 -1405 0
1404 -206 1405 0
-1404 206 1405 0
1405 211 -1406 0
-1405 -211 -1406 0
1405 -211 1406 0
-1405 211 1406 0
1406 216 -1407 0
-1406 -216 -1407 0
1406 -216 1407 0
-1406 216 1407 0
1407 221 -1408 0
-1407 -221 -1408 0
1407 -221 1408 0
-1407 221 1408 0
1408 226 -1409 0
-1408 -226 -1409 0
1408 -226 1409 0
-1408 226 1409 0
1409 231 -1410 0
-1409 -231 -1410 0
1409 -231 1410 0
-1409 231 1410 0
1410 236 -1411 0
-1410 -236 -1411 0
1410 -236 1411 0
-1410 236 1411 0
1411 241 -1412 0
-1411 -241 -1412 0
1411 -241 1412 0
-1411 241 1412 0
1412 246 -1413 0
-1412 -246 -1413 0
1412 -246 1413 0
-1412 246 1413 0
1413 251 -1414 0
-1413 -251 -1414 0
1413 -251 1414 0
-1413 251 1414 0
1414 256 -1415 0
-1414 -256 -1415 0
1414 -256 1415 0
-1414 256 1415 0
1415 261 -1416 0
-1415 -261 -1416 0
1415 -261 1416 0
-1415 261 1416 0
1416 266 -1417 0
-1416 -266 -1417 0
1416 -266 1417 0
-1416 266 1417 0
1417 271 -1418 0
-1417 -271 -1418 0
1417 -271 1418 0
-1417 271 1418 0
1418 276 -1419 0
-1418 -276 -1419 0
1418 -276 1419 0
-1418 276 1419 0
1419 281 -1420 0
-1419 -281 -1420 0
1419 -281 1420 0
-1419 281 1420 0
1420 286 -1421 0
-1420 -286 -1421 0
1420 -286 1421 0
-1420 286 1421 0
1421 291 -1422 0
-1421 -291 -1422 0
1421 -291 1422 0
-1421 291 1422 0
1422 292 -1423 0
-1422 -292 -1423 0
1422 -292 1423 0
-1422 292 1423 0
1423 293 -1424 0
-1423 -293 -1424 0
1423 -293 1424 0
-1423 293 1424 0
1424 294 -1425 0
-1424 -294 -1425 0
1424 -294 1425 0
-1424 294 1425 0
1425 295 -1426 0
-1425 -295 -1426 0
1425 -295 1426 0
-1425 295 1426 0
1426 301 -1427 0
-1426 -301 -1427 0
1426 -301 1427 0
-1426 301 1427 0
1427 306 -1428 0
-1427 -306 -1428 0
1427 -306 1428 0
-1427 306 1428 0
1428 307 -1429 0
-1428 -307 -1429 0
1428 -307 1429 0
-1428 307 1429 0
1429 308 -1430 0
-1429 -308 -1430 0
1429 -308 1430 0
-1429 308 1430 0
1430 309 -1431 0
-1430 -309 -1431 0
1430 -309 1431 0
-1430 309 1431 0
1431 310 -1432 0
-1431 -310 -1432 0
1431 -310 1432 0
-1431 310 1432 0
2 161 -1433 0
-2 -161 -1433 0
2 -161 1433 0
-2 161 1433 0
1433 162 -1434 0
-1433 -162 -1434 0
1433 -162 1434 0
-1433 162 1434 0
1434 166 -1435 0
-1434 -166 -1435 0
1434 -166 1435 0
-1434 166 1435 0
1435 167 -1436 0
-1435 -167 -1436 0
1435 -167 1436 0
-1435 167 1436 0
1436 171 -1437 0
-1436 -171 -1437 0
1436 -171 1437 0
-1436 171 1437 0
1437 172 -1438 0
-1437 -172 -1438 0
1437 -172 1438 0
-1437 172 1438 0
1438 176 -1439 0
-1438 -176 -1439 0
1438 -176 1439 0
-1438 176 1439 0
1439 177 -1440 0
-1439 -177 -1440 0
1439 -177 1440 0
-1439 177 1440 0
1440 181 -1441 0
-1440 -181 -1441 0
1440 -181 1441 0
-1440 181 1441 0
1441 182 -1442 0
-1441 -182 -1442 0
1441 -182 1442 0
-1441 182 1442 0
1442 186 -1443 0
-1442 -186 -1443 0
1442 -186 1443 0
-1442 186 1443 0
1443 187 -1444 0
-1443 -187 -1444 0
1443 -187 1444 0
-1443 187 1444 0
1444 191 -1445 0
-1444 -191 -1445 0
1444 -191 1445 0
-1444 191 1445 0
1445 192 -1446 0
-1445 -192 -1446 0
1445 -192 1446 0
-1445 192 1446 0
1446 196 -1447 0
-1446 -196 -1447 0
1446 -196 1447 0
-1446 196 1447 0
1447 197 -1448 0
-1447 -197 -1448 0
1447 -197 1448 0
-1447 197 1448 0
1448 201 -1449 0
-1448 -201 -1449 0
1448 -201 1449 0
-1448 201 1449 0
1449 202 -1450 0
-1449 -202 -1450 0
1449 -202 1450 0
-1449 202 1450 0
1450 206 -1451 0
-1450 -206 -1451 0
1450 -206 1451 0
-1450 206 1451 0
1451 207 -1452 0
-1451 -207 -1452 0
1451 -207 1452 0
-1451 207 1452 0
1452 211 -1453 0
-1452 -211 -1453 0
1452 -211 1453 0
-1452 211 1453 0
1453 212 -1454 0
-1453 -212 -1454 0
1453 -212 1454 0
-1453 212 1454 0
1454 216 -1455 0
-1454 -216 -1455 0
1454 -216 1455 0
-1454 216 1455 0
1455 217 -1456 0
-1455 -217 -1456 0
1455 -217 1456 0
-1455 217 1456 0
1456 221 -1457 0
-1456 -221 -1457 0
1456 -221 1457 0
-1456 221 1457 0
1457 222 -1458 0
-1457 -222 -1458 0
1457 -222 1458 0
-1457 222 1458 0
1458 226 -1459 0
-1458 -226 -1459 0
1458 -226 1459 0
-1458 226 1459 0
1459 227 -1460 0
-1459 -227 -1460 0
1459 -227 1460 0
-1459 227 1460 0
1460 231 -1461 0
-1460 -231 -1461 0
1460 -231 1461 0
-1460 231 1461 0
1461 232 -1462 0
-1461 -232 -1462 0
1461 -232 1462 0
-1461 232 1462 0
1462 236 -1463 0
-1462 -236 -1463 0
1462 -236 1463 0
-1462 236 1463 0
1463 237 -1464 0
-1463 -237 -1464 0
1463 -237 1464 0
-1463 237 1464 0
1464 241 -1465 0
-1464 -241 -1465 0
1464 -241 1465 0
-1464 241 1465 0
1465 242 -1466 0
-1465 -242 -1466 0
1465 -242 1466 0
-1465 242 1466 0
1466 246 -1467 0
-1466 -246 -1467 0
1466 -246 1467 0
-1466 246 1467 0
1467 247 -1468 0
-1467 -247 -1468 0
1467 -247 1468 0
-1467 247 1468 0
1468 251 -1469 0
-1468 -251 -1469 0
1468 -251 1469 0
-1468 251 1469 0
1469 252 -1470 0
-1469 -252 -1470 0
1469 -252 1470 0
-1469 252 1470 0
1470 256 -1471 0
-1470 -256 -1471 0
1470 -256 1471 0
-1470 256 1471 0
1471 257 -1472 0
-1471 -257 -1472 0
1471 -257 1472 0
-1471 257 1472 0
1472 261 -1473 0
-1472 -261 -1473 0
1472 -261 1473 0
-1472 261 1473 0
1473 262 -1474 0
-1473 -262 -1474 0
1473 -262 1474 0
-1473 262 1474 0
1474 266 -1475 0
-1474 -266 -1475 0
1474 -266 1475 0
-1474 266 1475 0
1475 267 -1476 0
-1475 -267 -1476 0
1475 -267 1476 0
-1475 267 1476 0
1476 271 -1477 0
-1476 -271 -1477 0
1476 -271 1477 0
-1476 271 1477 0
1477 272 -1478 0
-1477 -272 -1478 0
1477 -272 1478 0
-1477 272 1478 0
1478 276 -1479 0
-1478 -276 -1479 0
1478 -276 1479 0
-1478 276 1479 0
1479 277 -1480 0
-1479 -277 -1480 0
1479 -277 1480 0
-1479 277 1480 0
1480 281 -1481 0
-1480 -281 -1481 0
1480 -281 1481 0
-1480 281 1481 0
1481 282 -1482 0
-1481 -282 -1482 0
1481 -282 1482 0
-1481 282 1482 0
1482 286 -1483 0
-1482 -286 -1483 0
1482 -286 1483 0
-1482 286 1483 0
1483 287 -1484 0
-1483 -287 -1484 0
1483 -287 1484 0
-1483 287 1484 0
1484 291 -1485 0
-1484 -291 -1485 0
1484 -291 1485 0
-1484 291 1485 0
1485 292 -1486 0
-1485 -292 -1486 0
1485 -292 1486 0
-1485 292 1486 0
1486 293 -1487 0
-1486 -293 -1487 0
1486 -293 1487 0
-1486 293 1487 0
1487 294 -1488 0
-1487 -294 -1488 0
1487 -294 1488 0
-1487 294 1488 0
1488 295 -1489 0
-1488 -295 -1489 0
1488 -295 1489 0
-1488 295 1489 0
1489 301 -1490 0
-1489 -301 -1490 0
1489 -301 1490 0
-1489 301 1490 0
1490 302 -1491 0
-1490 -302 -1491 0
1490 -302 1491 0
-1490 302 1491 0
1491 306 -1492 0
-1491 -306 -1492 0
1491 -306 1492 0
-1491 306 1492 0
1492 307 -1493 0
-1492 -307 -1493 0
1492 -307 1493 0
-1492 307 1493 0
1493 308 -1494 0
-1493 -308 -1494 0
1493 -308 1494 0
-1493 308 1494 0
1494 309 -1495 0
-1494 -309 -1495 0
1494 -309 1495 0
-1494 309 1495 0
1495 310 -1496 0
-1495 -310 -1496 0
1495 -310 1496 0
-1495 310 1496 0
3 161 -1497 0
-3 -161 -1497 0
3 -161 1497 0
-3 161 1497 0
1497 162 -1498 0
-1497 -162 -1498 0
1497 -162 1498 0
-1497 162 1498 0
1498 163 -1499 0
-1498 -163 -1499 0
1498 -163 1499 0
-1498 163 1499 0
1499 166 -1500 0
-1499 -166 -1500 0
1499 -166 1500 0
-1499 166 1500 0
1500 167 -1501 0
-1500 -167 -1501 0
1500 -167 1501 0
-1500 167 1501 0
1501 168 -1502 0
-1501 -168 -1502 0
1501 -168 1502 0
-1501 168 1502 0
1502 171 -1503 0
-1502 -171 -1503 0
1502 -171 1503 0
-1502 171 1503 0
1503 172 -1504 0
-1503 -172 -1504 0
1503 -172 1504 0
-1503 172 1504 0
1504 173 -1505 0
-1504 -173 -1505 0
1504 -173 1505 0
-1504 173 1505 0
1505 176 -1506 0
-1505 -176 -1506 0
1505 -176 1506 0
-1505 176 1506 0
1506 177 -1507 0
-1506 -177 -1507 0
1506 -177 1507 0
-1506 177 1507 0
1507 178 -1508 0
-1507 -178 -1508 0
1507 -178 1508 0
-1507 178 1508 0
1508 181 -1509 0
-1508 -181 -1509 0
1508 -181 1509 0
-1508 181 1509 0
1509 182 -1510 0
-1509 -182 -1510 0
1509 -182 1510 0
-1509 182 1510 0
1510 183 -1511 0
-1510 -183 -1511 0
1510 -183 1511 0
-1510 183 1511 0
1511 186 -1512 0
-1511 -186 -1512 0
1511 -186 1512 0
-1511 186 1512 0
1512 187 -1513 0
-1512 -187 -1513 0
1512 -187 1513 0
-1512 187 1513 0
1513 188 -1514 0
-1513 -188 -1514 0
1513 -188 1514 0
-1513 188 1514 0
1514 191 -1515 0
-1514 -191 -1515 0
1514 -191 1515 0
-1514 191 1515 0
1515 192 -1516 0
-1515 -192 -1516 0
1515 -192 1516 0
-1515 192 1516 0
1516 193 -1517 0
-1516 -193 -1517 0
1516 -193 1517 0
-1516 193 1517 0
1517 196 -1518 0
-1517 -196 -1518 0
1517 -196 1518 0
-1517 196 1518 0
1518 197 -1519 0
-1518 -197 -1519 0
1518 -197 1519 0
-1518 197 1519 0
1519 198 -1520 0
-1519 -198 -1520 0
1519 -198 1520 0
-1519 198 1520 0
1520 201 -1521 0
-1520 -201 -1521 0
1520 -201 1521 0
-1520 201 1521 0
1521 202 -1522 0
-1521 -202 -1522 0
1521 -202 1522 0
-1521 202 1522 0
1522 203 -1523 0
-1522 -203 -1523 0
1522 -203 1523 0
-1522 203 1523 0
1523 206 -1524 0
-1523 -206 -1524 0
1523 -206 1524 0
-1523 206 1524 0
1524 207 -1525 0
-1524 -207 -1525 0
1524 -207 1525 0
-1524 207 1525 0
1525 208 -1526 0
-1525 -208 -1526 0
1525 -208 1526 0
-1525 208 1526 0
1526 211 -1527 0
-1526 -211 -1527 0
1526 -211 1527 0
-1526 211 1527 0
1527 212 -1528 0
-1527 -212 -1528 0
1527 -212 1528 0
-1527 212 1528 0
1528 213 -1529 0
-1528 -213 -1529 0
1528 -213 1529 0
-1528 213 1529 0
1529 216 -1530 0
-1529 -216 -1530 0
1529 -216 1530 0
-1529 216 1530 0
1530 217 -1531 0
-1530 -217 -1531 0
1530 -217 1531 0
-1530 217 1531 0
1531 218 -1532 0
-1531 -218 -1532 0
1531 -218 1532 0
-1531 218 1532 0
1532 221 -1533 0
-1532 -221 -1533 0
1532 -221 1533 0
-1532 221 1533 0
1533 222 -1534 0
-1533 -222 -1534 0
1533 -222 1534 0
-1533 222 1534 0
1534 223 -1535 0
-1534 -223 -1535 0
1534 -223 1535 0
-1534 223 1535 0
1535 226 -1536 0
-1535 -226 -1536 0
1535 -226 1536 0
-1535 226 1536 0
1536 227 -1537 0
-1536 -227 -1537 0
1536 -227 1537 0
-1536 227 1537 0
1537 228 -1538 0
-1537 -228 -1538 0
1537 -228 1538 0
-1537 228 1538 0
1538 231 -1539 0
-1538 -231 -1539 0
1538 -231 1539 0
-1538 231 1539 0
1539 232 -1540 0
-1539 -232 -1540 0
1539 -232 1540 0
-1539 232 1540 0
1540 233 -1541 0
-1540 -233 -1541 0
1540 -233 1541 0
-1540 233 1541 0
1541 236 -1542 0
-1541 -236 -1542 0
1541 -236 1542 0
-1541 236 1542 0
1542 237 -1543 0
-1542 -237 -1543 0
1542 -237 1543 0
-1542 237 1543 0
1543 238 -1544 0
-1543 -238 -1544 0
1543 -238 1544 0
-1543 238 1544 0
1544 241 -1545 0
-1544 -241 -1545 0
1544 -241 1545 0
-1544 241 1545 0
1545 242 -1546 0
-1545 -242 -1546 0
1545 -242 1546 0
-1545 242 1546 0
1546 243 -1547 0
-1546 -243 -1547 0
1546 -243 1547 0
-1546 243 1547 0
1547 246 -1548 0
-1547 -246 -1548 0
1547 -246 1548 0
-1547 246 1548 0
1548 247 -1549 0
-1548 -247 -1549 0
1548 -247 1549 0
-1548 247 1549 0
1549 248 -1550 0
-1549 -248 -1550 0
1549 -248 1550 0
-1549 248 1550 0
1550 251 -1551 0
-1550 -251 -1551 0
1550 -251 1551 0
-1550 251 1551 0
1551 252 -1552 0
-1551 -252 -1552 0
1551 -252 1552 0
-1551 252 1552 0
1552 253 -1553 0
-1552 -253 -1553 0
1552 -253 1553 0
-1552 253 1553 0
1553 256 -1554 0
-1553 -256 -1554 0
1553 -256 1554 0
-1553 256 1554 0
1554 257 -1555 0
-1554 -257 -1555 0
1554 -257 1555 0
-1554 257 1555 0
1555 258 -1556 0
-1555 -258 -1556 0
1555 -258 1556 0
-1555 258 1556 0
1556 261 -1557 0
-1556 -261 -1557 0
1556 -261 1557 0
-1556 261 1557 0
1557 262 -1558 0
-1557 -262 -1558 0
1557 -262 1558 0
-1557 262 1558 0
1558 263 -1559 0
-1558 -263 -1559 0
1558 -263 1559 0
-1558 263 1559 0
1559 266 -1560 0
-1559 -266 -1560 0
1559 -266 1560 0
-1559 266 1560 0
1560 267 -1561 0
-1560 -267 -1561 0
1560 -267 1561 0
-1560 267 1561 0
1561 268 -1562 0
-1561 -268 -1562 0
1561 -268 1562 0
-1561 268 1562 0
1562 271 -1563 0
-1562 -271 -1563 0
1562 -271 1563 0
-1562 271 1563 0
1563 272 -1564 0
-1563 -272 -1564 0
1563 -272 1564 0
-1563 272 1564 0
1564 273 -1565 0
-1564 -273 -1565 0
1564 -273 1565 0
-1564 273 1565 0
1565 276 -1566 0
-1565 -276 -1566 0
1565 -276 1566 0
-1565 276 1566 0
1566 277 -1567 0
-1566 -277 -1567 0
1566 -277 1567 0
-1566 277 1567 0
1567 278 -1568 0
-1567 -278 -1568 0
1567 -278 1568 0
-1567 278 1568 0
1568 281 -1569 0
-1568 -281 -1569 0
1568 -281 1569 0
-1568 281 1569 0
1569 282 -1570 0
-1569 -282 -1570 0
1569 -282 1570 0
-1569 282 1570 0
1570 283 -1571 0
-1570 -283 -1571 0
1570 -283 1571 0
-1570 283 1571 0
1571 286 -1572 0
-1571 -286 -1572 0
1571 -286 1572 0
-1571 286 1572 0
1572 287 -1573 0
-1572 -287 -1573 0
1572 -287 1573 0
-1572 287 1573 0
1573 288 -1574 0
-1573 -288 -1574 0
1573 -288 1574 0
-1573 288 1574 0
1574 291 -1575 0
-1574 -291 -1575 0
1574 -291 1575 0
-1574 291 1575 0
1575 292 -1576 0
-1575 -292 -1576 0
1575 -292 1576 0
-1575 292 1576 0
1576 293 -1577 0
-1576 -293 -1577 0
1576 -293 1577 0
-1576 293 1577 0
1577 294 -1578 0
-1577 -294 -1578 0
1577 -294 1578 0
-1577 294 1578 0
1578 295 -1579 0
-1578 -295 -1579 0
1578 -295 1579 0
-1578 295 1579 0
1579 301 -1580 0
-1579 -301 -1580 0
1579 -301 1580 0
-1579 301 1580 0
1580 302 -1581 0
-1580 -302 -1581 0
1580 -302 1581 0
-1580 302 1581 0
1581 303 -1582 0
-1581 -303 -1582 0
1581 -303 1582 0
-1581 303 1582 0
1582 306 -1583 0
-1582 -306 -1583 0
1582 -306 1583 0
-1582 306 1583 0
1583 307 -1584 0
-1583 -307 -1584 0
1583 -307 1584 0
-1583 307 1584 0
1584 308 -1585 0
-1584 -308 -1585 0
1584 -308 1585 0
-1584 308 1585 0
1585 309 -1586 0
-1585 -309 -1586 0
1585 -309 1586 0
-1585 309 1586 0
1586 310 -1587 0
-1586 -310 -1587 0
1586 -310 1587 0
-1586 310 1587 0
4 161 -1588 0
-4 -161 -1588 0
4 -161 1588 0
-4 161 1588 0
1588 162 -1589 0
-1588 -162 -1589 0
1588 -162 1589 0
-1588 162 1589 0
1589 163 -1590 0
-1589 -163 -1590 0
1589 -163 1590 0
-1589 163 1590 0
1590 164 -1591 0
-1590 -164 -1591 0
1590 -164 1591 0
-1590 164 1591 0
1591 166 -1592 0
-1591 -166 -1592 0
1591 -166 1592 0
-1591 166 1592 0
1592 167 -1593 0
-1592 -167 -1593 0
1592 -167 1593 0
-1592 167 1593 0
1593 168 -1594 0
-1593 -168 -1594 0
1593 -168 1594 0
-1593 168 1594 0
1594 169 -1595 0
-1594 -169 -1595 0
1594 -169 1595 0
-1594 169 1595 0
1595 171 -1596 0
-1595 -171 -1596 0
1595 -171 1596 0
-1595 171 1596 0
1596 172 -1597 0
-1596 -172 -1597 0
1596 -172 1597 0
-1596 172 1597 0
1597 173 -1598 0
-1597 -173 -1598 0
1597 -173 1598 0
-1597 173 1598 0
1598 174 -1599 0
-1598 -174 -1599 0
1598 -174 1599 0
-1598 174 1599 0
1599 176 -1600 0
-1599 -176 -1600 0
1599 -176 1600 0
-1599 176 1600 0
1600 177 -1601 0
-1600 -177 -1601 0
1600 -177 1601 0
-1600 177 1601 0
1601 178 -1602 0
-1601 -178 -1602 0
1601 -178 1602 0
-1601 178 1602 0
1602 179 -1603 0
-1602 -179 -1603 0
1602 -179 1603 0
-1602 179 1603 0
1603 181 -1604 0
-1603 -181 -1604 0
1603 -181 1604 0
-1603 181 1604 0
1604 182 -1605 0
-1604 -182 -1605 0
1604 -182 1605 0
-1604 182 1605 0
1605 183 -1606 0
-1605 -183 -1606 0
1605 -183 1606 0
-1605 183 1606 0
1606 184 -1607 0
-1606 -184 -1607 0
1606 -184 1607 0
-1606 184 1607 0
1607 186 -1608 0
-1607 -186 -1608 0
1607 -186 1608 0
-1607 186 1608 0
1608 187 -1609 0
-1608 -187 -1609 0
1608 -187 1609 0
-1608 187 1609 0
1609 188 -1610 0
-1609 -188 -1610 0
1609 -188 1610 0
-1609 188 1610 0
1610 189 -1611 0
-1610 -189 -1611 0
1610 -189 1611 0
-1610 189 1611 0
1611 191 -1612 0
-1611 -191 -1612 0
1611 -191 1612 0
-1611 191 1612 0
1612 192 -1613 0
-1612 -192 -1613 0
1612 -192 1613 0
-1612 192 1613 0
1613 193 -1614 0
-1613 -193 -1614 0
1613 -193 1614 0
-1613 193 1614 0
1614 194 -1615 0
-1614 -194 -1615 0
1614 -194 1615 0
-1614 194 1615 0
1615 196 -1616 0
-1615 -196 -1616 0
1615 -196 1616 0
-1615 196 1616 0
1616 197 -1617 0
-1616 -197 -1617 0
1616 -197 1617 0
-1616 197 1617 0
1617 198 -1618 0
-1617 -198 -1618 0
1617 -198 1618 0
-1617 198 1618 0
1618 199 -1619 0
-1618 -199 -1619 0
1618 -199 1619 0
-1618 199 1619 0
1619 201 -1620 0
-1619 -201 -1620 0
1619 -201 1620 0
-1619 201 1620 0
1620 202 -1621 0
-1620 -202 -1621 0
1620 -202 1621 0
-1620 202 1621 0
1621 203 -1622 0
-1621 -203 -1622 0
1621 -203 1622 0
-1621 203 1622 0
1622 204 -1623 0
-1622 -204 -1623 0
1622 -204 1623 0
-1622 204 1623 0
1623 206 -1624 0
-1623 -206 -1624 0
1623 -206 1624 0
-1623 206 1624 0
1624 207 -1625 0
-1624 -207 -1625 0
1624 -207 1625 0
-1624 207 1625 0
1625 208 -1626 0
-1625 -208 -1626 0
1625 -208 1626 0
-1625 208 1626 0
1626 209 -1627 0
-1626 -209 -1627 0
1626 -209 1627 0
-1626 209 1627 0
1627 211 -1628 0
-1627 -211 -1628 0
1627 -211 1628 0
-1627 211 1628 0
1628 212 -1629 0
-1628 -212 -1629 0
1628 -212 1629 0
-1628 212 1629 0
1629 213 -1630 0
-1629 -213 -1630 0
1629 -213 1630 0
-1629 213 1630 0
1630 214 -1631 0
-1630 -214 -1631 0
1630 -214 1631 0
-1630 214 1631 0
1631 216 -1632 0
-1631 -216 -1632 0
1631 -216 1632 0
-1631 216 1632 0
1632 217 -1633 0
-1632 -217 -1633 0
1632 -217 1633 0
-1632 217 1633 0
1633 218 -1634 0
-1633 -218 -1634 0
1633 -218 1634 0
-1633 218 1634 0
1634 219 -1635 0
-1634 -219 -1635 0
1634 -219 1635 0
-1634 219 1635 0
1635 221 -1636 0
-1635 -221 -1636 0
1635 -221 1636 0
-1635 221 1636 0
1636 222 -1637 0
-1636 -222 -1637 0
1636 -222 1637 0
-1636 222 1637 0
1637 223 -1638 0
-1637 -223 -1638 0
1637 -223 1638 0
-1637 223 1638 0
1638 224 -1639 0
-1638 -224 -1639 0
1638 -224 1639 0
-1638 224 1639 0
1639 226 -1640 0
-1639 -226 -1640 0
1639 -226 1640 0
-1639 226 1640 0
1640 227 -1641 0
-1640 -227 -1641 0
1640 -227 1641 0
-1640 227 1641 0
1641 228 -1642 0
-1641 -228 -1642 0
1641 -228 1642 0
-1641 228 1642 0
1642 229 -1643 0
-1642 -229 -1643 0
1642 -229 1643 0
-1642 229 1643 0
1643 231 -1644 0
-1643 -231 -1644 0
1643 -231 1644 0
-1643 231 1644 0
1644 232 -1645 0
-1644 -232 -1645 0
1644 -232 1645 0
-1644 232 1645 0
1645 233 -1646 0
-1645 -233 -1646 0
1645 -233 1646 0
-1645 233 1646 0
1646 234 -1647 0
-1646 -234 -1647 0
1646 -234 1647 0
-1646 234 1647 0
1647 236 -1648 0
-1647 -236 -1648 0
1647 -236 1648 0
-1647 236 1648 0
1648 237 -1649 0
-1648 -237 -1649 0
1648 -237 1649 0
-1648 237 1649 0
1649 238 -1650 0
-1649 -238 -1650 0
1649 -238 1650 0
-1649 238 1650 0
1650 239 -1651 0
-1650 -239 -1651 0
1650 -239 1651 0
-1650 239 1651 0
1651 241 -1652 0
-1651 -241 -1652 0
1651 -241 1652 0
-1651 241 1652 0
1652 242 -1653 0
-1652 -242 -1653 0
1652 -242 1653 0
-1652 242 1653 0
1653 243 -1654 0
-1653 -243 -1654 0
1653 -243 1654 0
-1653 243 1654 0
1654 244 -1655 0
-1654 -244 -1655 0
1654 -244 1655 0
-1654 244 1655 0
1655 246 -1656 0
-1655 -246 -1656 0
1655 -246 1656 0
-1655 246 1656 0
1656 247 -1657 0
-1656 -247 -1657 0
1656 -247 1657 0
-1656 247 1657 0
1657 248 -1658 0
-1657 -248 -1658 0
1657 -248 1658 0
-1657 248 1658 0
1658 249 -1659 0
-1658 -249 -1659 0
1658 -249 1659 0
-1658 249 1659 0
1659 251 -1660 0
-1659 -251 -1660 0
1659 -251 1660 0
-1659 251 1660 0
1660 252 -1661 0
-1660 -252 -1661 0
1660 -252 1661 0
-1660 252 1661 0
1661 253 -1662 0
-1661 -253 -1662 0
1661 -253 1662 0
-1661 253 1662 0
1662 254 -1663 0
-1662 -254 -1663 0
1662 -254 1663 0
-1662 254 1663 0
1663 256 -1664 0
-1663 -256 -1664 0
1663 -256 1664 0
-1663 256 1664 0
1664 257 -1665 0
-1664 -257 -1665 0
1664 -257 1665 0
-1664 257 1665 0
1665 258 -1666 0
-1665 -258 -1666 0
1665 -258 1666 0
-1665 258 1666 0
1666 259 -1667 0
-1666 -259 -1667 0
1666 -259 1667 0
-1666 259 1667 0
1667 261 -1668 0
-1667 -261 -1668 0
1667 -261 1668 0
-1667 261 1668 0
1668 262 -1669 0
-1668 -262 -1669 0
1668 -262 1669 0
-1668 262 1669 0
1669 263 -1670 0
-1669 -263 -1670 0
1669 -263 1670 0
-1669 263 1670 0
1670 264 -1671 0
-1670 -264 -1671 0
1670 -264 1671 0
-1670 264 1671 0
1671 266 -1672 0
-1671 -266 -1672 0
1671 -266 1672 0
-1671 266 1672 0
1672 267 -1673 0
-1672 -267 -1673 0
1672 -267 1673 0
-1672 267 1673 0
1673 268 -1674 0
-1673 -268 -1674 0
1673 -268 1674 0
-1673 268 1674 0
1674 269 -1675 0
-1674 -269 -1675 0
1674 -269 1675 0
-1674 269 1675 0
1675 271 -1676 0
-1675 -271 -1676 0
1675 -271 1676 0
-1675 271 1676 0
1676 272 -1677 0
-1676 -272 -1677 0
1676 -272 1677 0
-1676 272 1677 0
1677 273 -1678 0
-1677 -273 -1678 0
1677 -273 1678 0
-1677 273 1678 0
1678 274 -1679 0
-1678 -274 -1679 0
1678 -274 1679 0
-1678 274 1679 0
1679 276 -1680 0
-1679 -276 -1680 0
1679 -276 1680 0
-1679 276 1680 0
1680 277 -1681 0
-1680 -277 -1681 0
1680 -277 1681 0
-1680 277 1681 0
1681 278 -1682 0
-1681 -278 -1682 0
1681 -278 1682 0
-1681 278 1682 0
1682 279 -1683 0
-1682 -279 -1683 0
1682 -279 1683 0
-1682 279 1683 0
1683 281 -1684 0
-1683 -281 -1684 0
1683 -281 1684 0
-1683 281 1684 0
1684 282 -1685 0
-1684 -282 -1685 0
1684 -282 1685 0
-1684 282 1685 0
1685 283 -1686 0
-1685 -283 -1686 0
1685 -283 1686 0
-1685 283 1686 0
1686 284 -1687 0
-1686 -284 -1687 0
1686 -284 1687 0
-1686 284 1687 0
1687 286 -1688 0
-1687 -286 -1688 0
1687 -286 1688 0
-1687 286 1688 0
1688 287 -1689 0
-1688 -287 -1689 0
1688 -287 1689 0
-1688 287 1689 0
1689 288 -1690 0
-1689 -288 -1690 0
1689 -288 1690 0
-1689 288 1690 0
1690 289 -1691 0
-1690 -289 -1691 0
1690 -289 1691 0
-1690 289 1691 0
1691 291 -1692 0
-1691 -291 -1692 0
1691 -291 1692 0
-1691 291 1692 0
1692 292 -1693 0
-1692 -292 -1693 0
1692 -292 1693 0
-1692 292 1693 0
1693 293 -1694 0
-1693 -293 -1694 0
1693 -293 1694 0
-1693 293 1694 0
1694 294 -1695 0
-1694 -294 -1695 0
1694 -294 1695 0
-1694 294 1695 0
1695 295 -1696 0
-1695 -295 -1696 0
1695 -295 1696 0
-1695 295 1696 0
1696 301 -1697 0
-1696 -301 -1697 0
1696 -301 1697 0
-1696 301 1697 0
1697 302 -1698 0
-1697 -302 -1698 0
1697 -302 1698 0
-1697 302 1698 0
1698 303 -1699 0
-1698 -303 -1699 0
1698 -303 1699 0
-1698 303 1699 0
1699 304 -1700 0
-1699 -304 -1700 0
1699 -304 1700 0
-1699 304 1700 0
1700 306 -1701 0
-1700 -306 -1701 0
1700 -306 1701 0
-1700 306 1701 0
1701 307 -1702 0
-1701 -307 -1702 0
1701 -307 1702 0
-1701 307 1702 0
1702 308 -1703 0
-1702 -308 -1703 0
1702 -308 1703 0
-1702 308 1703 0
1703 309 -1704 0
-1703 -309 -1704 0
1703 -309 1704 0
-1703 309 1704 0
1704 310 -1705 0
-1704 -310 -1705 0
1704 -310 1705 0
-1704 310 1705 0
5 161 -1706 0
-5 -161 -1706 0
5 -161 1706 0
-5 161 1706 0
1706 162 -1707 0
-1706 -162 -1707 0
1706 -162 1707 0
-1706 162 1707 0
1707 163 -1708 0
-1707 -163 -1708 0
1707 -163 1708 0
-1707 163 1708 0
1708 164 -1709 0
-1708 -164 -1709 0
1708 -164 1709 0
-1708 164 1709 0
1709 165 -1710 0
-1709 -165 -1710 0
1709 -165 1710 0
-1709 165 1710 0
1710 166 -1711 0
-1710 -166 -1711 0
1710 -166 1711 0
-1710 166 1711 0
1711 167 -1712 0
-1711 -167 -1712 0
1711 -167 1712 0
-1711 167 1712 0
1712 168 -1713 0
-1712 -168 -1713 0
1712 -168 1713 0
-1712 168 1713 0
1713 169 -1714 0
-1713 -169 -1714 0
1713 -169 1714 0
-1713 169 1714 0
1714 170 -1715 0
-1714 -170 -1715 0
1714 -170 1715 0
-1714 170 1715 0
1715 171 -1716 0
-1715 -171 -1716 0
1715 -171 1716 0
-1715 171 1716 0
1716 172 -1717 0
-1716 -172 -1717 0
1716 -172 1717 0
-1716 172 1717 0
1717 173 -1718 0
-1717 -173 -1718 0
1717 -173 1718 0
-1717 173 1718 0
1718 174 -1719 0
-1718 -174 -1719 0
1718 -174 1719 0
-1718 174 1719 0
1719 175 -1720 0
-1719 -175 -1720 0
1719 -175 1720 0
-1719 175 1720 0
1720 176 -1721 0
-1720 -176 -1721 0
1720 -176 1721 0
-1720 176 1721 0
1721 177 -1722 0
-1721 -177 -1722 0
1721 -177 1722 0
-1721 177 1722 0
1722 178 -1723 0
-1722 -178 -1723 0
1722 -178 1723 0
-1722 178 1723 0
1723 179 -1724 0
-1723 -179 -1724 0
1723 -179 1724 0
-1723 179 1724 0
1724 180 -1725 0
-1724 -180 -1725 0
1724 -180 1725 0
-1724 180 1725 0
1725 181 -1726 0
-1725 -181 -1726 0
1725 -181 1726 0
-1725 181 1726 0
1726 182 -1727 0
-1726 -182 -1727 0
1726 -182 1727 0
-1726 182 1727 0
1727 183 -1728 0
-1727 -183 -1728 0
1727 -183 1728 0
-1727 183 1728 0
1728 184 -1729 0
-1728 -184 -1729 0
1728 -184 1729 0
-1728 184 1729 0
1729 185 -1730 0
-1729 -185 -1730 0
1729 -185 1730 0
-1729 185 1730 0
1730 186 -1731 0
-1730 -186 -1731 0
1730 -186 1731 0
-1730 186 1731 0
1731 187 -1732 0
-1731 -187 -1732 0
1731 -187 1732 0
-1731 187 1732 0
1732 188 -1733 0
-1732 -188 -1733 0
1732 -188 1733 0
-1732 188 1733 0
1733 189 -1734 0
-1733 -189 -1734 0
1733 -189 1734 0
-1733 189 1734 0
1734 190 -1735 0
-1734 -190 -1735 0
1734 -190 1735 0
-1734 190 1735 0
1735 191 -1736 0
-1735 -191 -1736 0
1735 -191 1736 0
-1735 191 1736 0
1736 192 -1737 0
-1736 -192 -1737 0
1736 -192 1737 0
-1736 192 1737 0
1737 193 -1738 0
-1737 -193 -1738 0
1737 -193 1738 0
-1737 193 1738 0
1738 194 -1739 0
-1738 -194 -1739 0
1738 -194 1739 0
-1738 194 1739 0
1739 195 -1740 0
-1739 -195 -1740 0
1739 -195 1740 0
-1739 195 1740 0
1740 196 -1741 0
-1740 -196 -1741 0
1740 -196 1741 0
-1740 196 1741 0
1741 197 -1742 0
-1741 -197 -1742 0
1741 -197 1742 0
-1741 197 1742 0
1742 198 -1743 0
-1742 -198 -1743 0
1742 -198 1743 0
-1742 198 1743 0
1743 199 -1744 0
-1743 -199 -1744 0
1743 -199 1744 0
-1743 199 1744 0
1744 200 -1745 0
-1744 -200 -1745 0
1744 -200 1745 0
-1744 200 1745 0
1745 201 -1746 0
-1745 -201 -1746 0
1745 -201 1746 0
-1745 201 1746 0
1746 202 -1747 0
-1746 -202 -1747 0
1746 -202 1747 0
-1746 202 1747 0
1747 203 -1748 0
-1747 -203 -1748 0
1747 -203 1748 0
-1747 203 1748 0
1748 204 -1749 0
-1748 -204 -1749 0
1748 -204 1749 0
-1748 204 1749 0
1749 205 -1750 0
-1749 -205 -1750 0
1749 -205 1750 0
-1749 205 1750 0
1750 206 -1751 0
-1750 -206 -1751 0
1750 -206 1751 0
-1750 206 1751 0
1751 207 -1752 0
-1751 -207 -1752 0
1751 -207 1752 0
-1751 207 1752 0
1752 208 -1753 0
-1752 -208 -1753 0
1752 -208 1753 0
-1752 208 1753 0
1753 209 -1754 0
-1753 -209 -1754 0
1753 -209 1754 0
-1753 209 1754 0
1754 210 -1755 0
-1754 -210 -1755 0
1754 -210 1755 0
-1754 210 1755 0
1755 211 -1756 0
-1755 -211 -1756 0
1755 -211 1756 0
-1755 211 1756 0
1756 212 -1757 0
-1756 -212 -1757 0
1756 -212 1757 0
-1756 212 1757 0
1757 213 -1758 0
-1757 -213 -1758 0
1757 -213 1758 0
-1757 213 1758 0
1758 214 -1759 0
-1758 -214 -1759 0
1758 -214 1759 0
-1758 214 1759 0
1759 215 -1760 0
-1759 -215 -1760 0
1759 -215 1760 0
-1759 215 1760 0
1760 216 -1761 0
-1760 -216 -1761 0
1760 -216 1761 0
-1760 216 1761 0
1761 217 -1762 0
-1761 -217 -1762 0
1761 -217 1762 0
-1761 217 1762 0
1762 218 -1763 0
-1762 -218 -1763 0
1762 -218 1763 0
-1762 218 1763 0
1763 219 -1764 0
-1763 -219 -1764 0
1763 -219 1764 0
-1763 219 1764 0
1764 220 -1765 0
-1764 -220 -1765 0
1764 -220 1765 0
-1764 220 1765 0
1765 221 -1766 0
-1765 -221 -1766 0
1765 -221 1766 0
-1765 221 1766 0
1766 222 -1767 0
-1766 -222 -1767 0
1766 -222 1767 0
-1766 222 1767 0
1767 223 -1768 0
-1767 -223 -1768 0
1767 -223 1768 0
-1767 223 1768 0
1768 224 -1769 0
-1768 -224 -1769 0
1768 -224 1769 0
-1768 224 1769 0
1769 225 -1770 0
-1769 -225 -1770 0
1769 -225 1770 0
-1769 225 1770 0
1770 226 -1771 0
-1770 -226 -1771 0
1770 -226 1771 0
-1770 226 1771 0
1771 227 -1772 0
-1771 -227 -1772 0
1771 -227 1772 0
-1771 227 1772 0
1772 228 -1773 0
-1772 -228 -1773 0
1772 -228 1773 0
-1772 228 1773 0
1773 229 -1774 0
-1773 -229 -1774 0
1773 -229 1774 0
-1773 229 1774 0
1774 230 -1775 0
-1774 -230 -1775 0
1774 -230 1775 0
-1774 230 1775 0
1775 231 -1776 0
-1775 -231 -1776 0
1775 -231 1776 0
-1775 231 1776 0
1776 232 -1777 0
-1776 -232 -1777 0
1776 -232 1777 0
-1776 232 1777 0
1777 233 -1778 0
-1777 -233 -1778 0
1777 -233 1778 0
-1777 233 1778 0
1778 234 -1779 0
-1778 -234 -1779 0
1778 -234 1779 0
-1778 234 1779 0
1779 235 -1780 0
-1779 -235 -1780 0
1779 -235 1780 0
-1779 235 1780 0
1780 236 -1781 0
-1780 -236 -1781 0
1780 -236 1781 0
-1780 236 1781 0
1781 237 -1782 0
-1781 -237 -1782 0
1781 -237 1782 0
-1781 237 1782 0
1782 238 -1783 0
-1782 -238 -1783 0
1782 -238 1783 0
-1782 238 1783 0
1783 239 -1784 0
-1783 -239 -1784 0
1783 -239 1784 0
-1783 239 1784 0
1784 240 -1785 0
-1784 -240 -1785 0
1784 -240 1785 0
-1784 240 1785 0
1785 241 -1786 0
-1785 -241 -1786 0
1785 -241 1786 0
-1785 241 1786 0
1786 242 -1787 0
-1786 -242 -1787 0
1786 -242 1787 0
-1786 242 1787 0
1787 243 -1788 0
-1787 -243 -1788 0
1787 -243 1788 0
-1787 243 1788 0
1788 244 -1789 0
-1788 -244 -1789 0
1788 -244 1789 0
-1788 244 1789 0
1789 245 -1790 0
-1789 -245 -1790 0
1789 -245 1790 0
-1789 245 1790 0
1790 246 -1791 0
-1790 -246 -1791 0
1790 -246 1791 0
-1790 246 1791 0
1791 247 -1792 0
-1791 -247 -1792 0
1791 -247 1792 0
-1791 247 1792 0
1792 248 -1793 0
-1792 -248 -1793 0
1792 -248 1793 0
-1792 248 1793 0
1793 249 -1794 0
-1793 -249 -1794 0
1793 -249 1794 0
-1793 249 1794 0
1794 250 -1795 0
-1794 -250 -1795 0
1794 -250 1795 0
-1794 250 1795 0
1795 251 -1796 0
-1795 -251 -1796 0
1795 -251 1796 0
-1795 251 1796 0
1796 252 -1797 0
-1796 -252 -1797 0
1796 -252 1797 0
-1796 252 1797 0
1797 253 -1798 0
-1797 -253 -1798 0
1797 -253 1798 0
-1797 253 1798 0
1798 254 -1799 0
-1798 -254 -1799 0
1798 -254 1799 0
-1798 254 1799 0
1799 255 -1800 0
-1799 -255 -1800 0
1799 -255 1800 0
-1799 255 1800 0
1800 256 -1801 0
-1800 -256 -1801 0
1800 -256 1801 0
-1800 256 1801 0
1801 257 -1802 0
-1801 -257 -1802 0
1801 -257 1802 0
-1801 257 1802 0
1802 258 -1803 0
-1802 -258 -1803 0
1802 -258 1803 0
-1802 258 1803 0
1803 259 -1804 0
-1803 -259 -1804 0
1803 -259 1804 0
-1803 259 1804 0
1804 260 -1805 0
-1804 -260 -1805 0
1804 -260 1805 0
-1804 260 1805 0
1805 261 -1806 0
-1805 -261 -1806 0
1805 -261 1806 0
-1805 261 1806 0
1806 262 -1807 0
-1806 -262 -1807 0
1806 -262 1807 0
-1806 262 1807 0
1807 263 -1808 0
-1807 -263 -1808 0
1807 -263 1808 0
-1807 263 1808 0
1808 264 -1809 0
-1808 -264 -1809 0
1808 -264 1809 0
-1808 264 1809 0
1809 265 -1810 0
-1809 -265 -1810 0
1809 -265 1810 0
-1809 265 1810 0
1810 266 -1811 0
-1810 -266 -1811 0
1810 -266 1811 0
-1810 266 1811 0
1811 267 -1812 0
-1811 -267 -1812 0
1811 -267 1812 0
-1811 267 1812 0
1812 268 -1813 0
-1812 -268 -1813 0
1812 -268 1813 0
-1812 268 1813 0
1813 269 -1814 0
-1813 -269 -1814 0
1813 -269 1814 0
-1813 269 1814 0
1814 270 -1815 0
-1814 -270 -1815 0
1814 -270 1815 0
-1814 270 1815 0
1815 271 -1816 0
-1815 -271 -1816 0
1815 -271 1816 0
-1815 271 1816 0
1816 272 -1817 0
-1816 -272 -1817 0
1816 -272 1817 0
-1816 272 1817 0
1817 273 -1818 0
-1817 -273 -1818 0
1817 -273 1818 0
-1817 273 1818 0
1818 274 -1819 0
-1818 -274 -1819 0
1818 -274 1819 0
-1818 274 1819 0
1819 275 -1820 0
-1819 -275 -1820 0
1819 -275 1820 0
-1819 275 1820 0
1820 276 -1821 0
-1820 -276 -1821 0
1820 -276 1821 0
-1820 276 1821 0
1821 277 -1822 0
-1821 -277 -1822 0
1821 -277 1822 0
-1821 277 1822 0
1822 278 -1823 0
-1822 -278 -1823 0
1822 -278 1823 0
-1822 278 1823 0
1823 279 -1824 0
-1823 -279 -1824 0
1823 -279 1824 0
-1823 279 1824 0
1824 280 -1825 0
-1824 -280 -1825 0
1824 -280 1825 0
-1824 280 1825 0
1825 281 -1826 0
-1825 -281 -1826 0
1825 -281 1826 0
-1825 281 1826 0
1826 282 -1827 0
-1826 -282 -1827 0
1826 -282 1827 0
-1826 282 1827 0
1827 283 -1828 0
-1827 -283 -1828 0
1827 -283 1828 0
-1827 283 1828 0
1828 284 -1829 0
-1828 -284 -1829 0
1828 -284 1829 0
-1828 284 1829 0
1829 285 -1830 0
-1829 -285 -1830 0
1829 -285 1830 0
-1829 285 1830 0
1830 286 -1831 0
-1830 -286 -1831 0
1830 -286 1831 0
-1830 286 1831 0
1831 287 -1832 0
-1831 -287 -1832 0
1831 -287 1832 0
-1831 287 1832 0
1832 288 -1833 0
-1832 -288 -1833 0
1832 -288 1833 0
-1832 288 1833 0
1833 289 -1834 0
-1833 -289 -1834 0
1833 -289 1834 0
-1833 289 1834 0
1834 290 -1835 0
-1834 -290 -1835 0
1834 -290 1835 0
-1834 290 1835 0
1835 291 -1836 0
-1835 -291 -1836 0
1835 -291 1836 0
-1835 291 1836 0
1836 292 -1837 0
-1836 -292 -1837 0
1836 -292 1837 0
-1836 292 1837 0
1837 293 -1838 0
-1837 -293 -1838 0
1837 -293 1838 0
-1837 293 1838 0
1838 294 -1839 0
-1838 -294 -1839 0
1838 -294 1839 0
-1838 294 1839 0
1839 295 -1840 0
-1839 -295 -1840 0
1839 -295 1840 0
-1839 295 1840 0
1840 301 -1841 0
-1840 -301 -1841 0
1840 -301 1841 0
-1840 301 1841 0
1841 302 -1842 0
-1841 -302 -1842 0
1841 -302 1842 0
-1841 302 1842 0
1842 303 -1843 0
-1842 -303 -1843 0
1842 -303 1843 0
-1842 303 1843 0
1843 304 -1844 0
-1843 -304 -1844 0
1843 -304 1844 0
-1843 304 1844 0
1844 305 -1845 0
-1844 -305 -1845 0
1844 -305 1845 0
-1844 305 1845 0
1845 306 -1846 0
-1845 -306 -1846 0
1845 -306 1846 0
-1845 306 1846 0
1846 307 -1847 0
-1846 -307 -1847 0
1846 -307 1847 0
-1846 307 1847 0
1847 308 -1848 0
-1847 -308 -1848 0
1847 -308 1848 0
-1847 308 1848 0
1848 309 -1849 0
-1848 -309 -1849 0
1848 -309 1849 0
-1848 309 1849 0
1849 310 -1850 0
-1849 -310 -1850 0
1849 -310 1850 0
-1849 310 1850 0
6 161 -1851 0
-6 -161 -1851 0
6 -161 1851 0
-6 161 1851 0
1851 162 -1852 0
-1851 -162 -1852 0
1851 -162 1852 0
-1851 162 1852 0
1852 163 -1853 0
-1852 -163 -1853 0
1852 -163 1853 0
-1852 163 1853 0
1853 164 -1854 0
-1853 -164 -1854 0
1853 -164 1854 0
-1853 164 1854 0
1854 165 -1855 0
-1854 -165 -1855 0
1854 -165 1855 0
-1854 165 1855 0
1855 167 -1856 0
-1855 -167 -1856 0
1855 -167 1856 0
-1855 167 1856 0
1856 168 -1857 0
-1856 -168 -1857 0
1856 -168 1857 0
-1856 168 1857 0
1857 169 -1858 0
-1857 -169 -1858 0
1857 -169 1858 0
-1857 169 1858 0
1858 170 -1859 0
-1858 -170 -1859 0
1858 -170 1859 0
-1858 170 1859 0
1859 172 -1860 0
-1859 -172 -1860 0
1859 -172 1860 0
-1859 172 1860 0
1860 173 -1861 0
-1860 -173 -1861 0
1860 -173 1861 0
-1860 173 1861 0
1861 174 -1862 0
-1861 -174 -1862 0
1861 -174 1862 0
-1861 174 1862 0
1862 175 -1863 0
-1862 -175 -1863 0
1862 -175 1863 0
-1862 175 1863 0
1863 177 -1864 0
-1863 -177 -1864 0
1863 -177 1864 0
-1863 177 1864 0
1864 178 -1865 0
-1864 -178 -1865 0
1864 -178 1865 0
-1864 178 1865 0
1865 179 -1866 0
-1865 -179 -1866 0
1865 -179 1866 0
-1865 179 1866 0
1866 180 -1867 0
-1866 -180 -1867 0
1866 -180 1867 0
-1866 180 1867 0
1867 182 -1868 0
-1867 -182 -1868 0
1867 -182 1868 0
-1867 182 1868 0
1868 183 -1869 0
-1868 -183 -1869 0
1868 -183 1869 0
-1868 183 1869 0
1869 184 -1870 0
-1869 -184 -1870 0
1869 -184 1870 0
-1869 184 1870 0
1870 185 -1871 0
-1870 -185 -1871 0
1870 -185 1871 0
-1870 185 1871 0
1871 187 -1872 0
-1871 -187 -1872 0
1871 -187 1872 0
-1871 187 1872 0
1872 188 -1873 0
-1872 -188 -1873 0
1872 -188 1873 0
-1872 188 1873 0
1873 189 -1874 0
-1873 -189 -1874 0
1873 -189 1874 0
-1873 189 1874 0
1874 190 -1875 0
-1874 -190 -1875 0
1874 -190 1875 0
-1874 190 1875 0
1875 192 -1876 0
-1875 -192 -1876 0
1875 -192 1876 0
-1875 192 1876 0
1876 193 -1877 0
-1876 -193 -1877 0
1876 -193 1877 0
-1876 193 1877 0
1877 194 -1878 0
-1877 -194 -1878 0
1877 -194 1878 0
-1877 194 1878 0
1878 195 -1879 0
-1878 -195 -1879 0
1878 -195 1879 0
-1878 195 1879 0
1879 197 -1880 0
-1879 -197 -1880 0
1879 -197 1880 0
-1879 197 1880 0
1880 198 -1881 0
-1880 -198 -1881 0
1880 -198 1881 0
-1880 198 1881 0
1881 199 -1882 0
-1881 -199 -1882 0
1881 -199 1882 0
-1881 199 1882 0
1882 200 -1883 0
-1882 -200 -1883 0
1882 -200 1883 0
-1882 200 1883 0
1883 202 -1884 0
-1883 -202 -1884 0
1883 -202 1884 0
-1883 202 1884 0
1884 203 -1885 0
-1884 -203 -1885 0
1884 -203 1885 0
-1884 203 1885 0
1885 204 -1886 0
-1885 -204 -1886 0
1885 -204 1886 0
-1885 204 1886 0
1886 205 -1887 0
-1886 -205 -1887 0
1886 -205 1887 0
-1886 205 1887 0
1887 207 -1888 0
-1887 -207 -1888 0
1887 -207 1888 0
-1887 207 1888 0
1888 208 -1889 0
-1888 -208 -1889 0
1888 -208 1889 0
-1888 208 1889 0
1889 209 -1890 0
-1889 -209 -1890 0
1889 -209 1890 0
-1889 209 1890 0
1890 210 -1891 0
-1890 -210 -1891 0
1890 -210 1891 0
-1890 210 1891 0
1891 212 -1892 0
-1891 -212 -1892 0
1891 -212 1892 0
-1891 212 1892 0
1892 213 -1893 0
-1892 -213 -1893 0
1892 -213 1893 0
-1892 213 1893 0
1893 214 -1894 0
-1893 -214 -1894 0
1893 -214 1894 0
-1893 214 1894 0
1894 215 -1895 0
-1894 -215 -1895 0
1894 -215 1895 0
-1894 215 1895 0
1895 217 -1896 0
-1895 -217 -1896 0
1895 -217 1896 0
-1895 217 1896 0
1896 218 -1897 0
-1896 -218 -1897 0
1896 -218 1897 0
-1896 218 1897 0
1897 219 -1898 0
-1897 -219 -1898 0
1897 -219 1898 0
-1897 219 1898 0
1898 220 -1899 0
-1898 -220 -1899 0
1898 -220 1899 0
-1898 220 1899 0
1899 222 -1900 0
-1899 -222 -1900 0
1899 -222 1900 0
-1899 222 1900 0
1900 223 -1901 0
-1900 -223 -1901 0
1900 -223 1901 0
-1900 223 1901 0
1901 224 -1902 0
-1901 -224 -1902 0
1901 -224 1902 0
-1901 224 1902 0
1902 225 -1903 0
-1902 -225 -1903 0
1902 -225 1903 0
-1902 225 1903 0
1903 227 -1904 0
-1903 -227 -1904 0
1903 -227 1904 0
-1903 227 1904 0
1904 228 -1905 0
-1904 -228 -1905 0
1904 -228 1905 0
-1904 228 1905 0
1905 229 -1906 0
-1905 -229 -1906 0
1905 -229 1906 0
-1905 229 1906 0
1906 230 -1907 0
-1906 -230 -1907 0
1906 -230 1907 0
-1906 230 1907 0
1907 232 -1908 0
-1907 -232 -1908 0
1907 -232 1908 0
-1907 232 1908 0
1908 233 -1909 0
-1908 -233 -1909 0
1908 -233 1909 0
-1908 233 1909 0
1909 234 -1910 0
-1909 -234 -1910 0
1909 -234 1910 0
-1909 234 1910 0
1910 235 -1911 0
-1910 -235 -1911 0
1910 -235 1911 0
-1910 235 1911 0
1911 237 -1912 0
-1911 -237 -1912 0
1911 -237 1912 0
-1911 237 1912 0
1912 238 -1913 0
-1912 -238 -1913 0
1912 -238 1913 0
-1912 238 1913 0
1913 239 -1914 0
-1913 -239 -1914 0
1913 -239 1914 0
-1913 239 1914 0
1914 240 -1915 0
-1914 -240 -1915 0
1914 -240 1915 0
-1914 240 1915 0
1915 242 -1916 0
-1915 -242 -1916 0
1915 -242 1916 0
-1915 242 1916 0
1916 243 -1917 0
-1916 -243 -1917 0
1916 -243 1917 0
-1916 243 1917 0
1917 244 -1918 0
-1917 -244 -1918 0
1917 -244 1918 0
-1917 244 1918 0
1918 245 -1919 0
-1918 -245 -1919 0
1918 -245 1919 0
-1918 245 1919 0
1919 247 -1920 0
-1919 -247 -1920 0
1919 -247 1920 0
-1919 247 1920 0
1920 248 -1921 0
-1920 -248 -1921 0
1920 -248 1921 0
-1920 248 1921 0
1921 249 -1922 0
-1921 -249 -1922 0
1921 -249 1922 0
-1921 249 1922 0
1922 250 -1923 0
-1922 -250 -1923 0
1922 -250 1923 0
-1922 250 1923 0
1923 252 -1924 0
-1923 -252 -1924 0
1923 -252 1924 0
-1923 252 1924 0
1924 253 -1925 0
-1924 -253 -1925 0
1924 -253 1925 0
-1924 253 1925 0
1925 254 -1926 0
-1925 -254 -1926 0
1925 -254 1926 0
-1925 254 1926 0
1926 255 -1927 0
-1926 -255 -1927 0
1926 -255 1927 0
-1926 255 1927 0
1927 257 -1928 0
-1927 -257 -1928 0
1927 -257 1928 0
-1927 257 1928 0
1928 258 -1929 0
-1928 -258 -1929 0
1928 -258 1929 0
-1928 258 1929 0
1929 259 -1930 0
-1929 -259 -1930 0
1929 -259 1930 0
-1929 259 1930 0
1930 260 -1931 0
-1930 -260 -1931 0
1930 -260 1931 0
-1930 260 1931 0
1931 262 -1932 0
-1931 -262 -1932 0
1931 -262 1932 0
-1931 262 1932 0
1932 263 -1933 0
-1932 -263 -1933 0
1932 -263 1933 0
-1932 263 1933 0
1933 264 -1934 0
-1933 -264 -1934 0
1933 -264 1934 0
-1933 264 1934 0
1934 265 -1935 0
-1934 -265 -1935 0
1934 -265 1935 0
-1934 265 1935 0
1935 267 -1936 0
-1935 -267 -1936 0
1935 -267 1936 0
-1935 267 1936 0
1936 268 -1937 0
-1936 -268 -1937 0
1936 -268 1937 0
-1936 268 1937 0
1937 269 -1938 0
-1937 -269 -1938 0
1937 -269 1938 0
-1937 269 1938 0
1938 270 -1939 0
-1938 -270 -1939 0
1938 -270 1939 0
-1938 270 1939 0
1939 272 -1940 0
-1939 -272 -1940 0
1939 -272 1940 0
-1939 272 1940 0
1940 273 -1941 0
-1940 -273 -1941 0
1940 -273 1941 0
-1940 273 1941 0
1941 274 -1942 0
-1941 -274 -1942 0
1941 -274 1942 0
-1941 274 1942 0
1942 275 -1943 0
-1942 -275 -1943 0
1942 -275 1943 0
-1942 275 1943 0
1943 277 -1944 0
-1943 -277 -1944 0
1943 -277 1944 0
-1943 277 1944 0
1944 278 -1945 0
-1944 -278 -1945 0
1944 -278 1945 0
-1944 278 1945 0
1945 279 -1946 0
-1945 -279 -1946 0
1945 -279 1946 0
-1945 279 1946 0
1946 280 -1947 0
-1946 -280 -1947 0
1946 -280 1947 0
-1946 280 1947 0
1947 282 -1948 0
-1947 -282 -1948 0
1947 -282 1948 0
-1947 282 1948 0
1948 283 -1949 0
-1948 -283 -1949 0
1948 -283 1949 0
-1948 283 1949 0
1949 284 -1950 0
-1949 -284 -1950 0
1949 -284 1950 0
-1949 284 1950 0
1950 285 -1951 0
-1950 -285 -1951 0
1950 -285 1951 0
-1950 285 1951 0
1951 287 -1952 0
-1951 -287 -1952 0
1951 -287 1952 0
-1951 287 1952 0
1952 288 -1953 0
-1952 -288 -1953 0
1952 -288 1953 0
-1952 288 1953 0
1953 289 -1954 0
-1953 -289 -1954 0
1953 -289 1954 0
-1953 289 1954 0
1954 290 -1955 0
-1954 -290 -1955 0
1954 -290 1955 0
-1954 290 1955 0
1955 292 -1956 0
-1955 -292 -1956 0
1955 -292 1956 0
-1955 292 1956 0
1956 293 -1957 0
-1956 -293 -1957 0
1956 -293 1957 0
-1956 293 1957 0
1957 294 -1958 0
-1957 -294 -1958 0
1957 -294 1958 0
-1957 294 1958 0
1958 295 -1959 0
-1958 -295 -1959 0
1958 -295 1959 0
-1958 295 1959 0
1959 301 -1960 0
-1959 -301 -1960 0
1959 -301 1960 0
-1959 301 1960 0
1960 302 -1961 0
-1960 -302 -1961 0
1960 -302 1961 0
-1960 302 1961 0
1961 303 -1962 0
-1961 -303 -1962 0
1961 -303 1962 0
-1961 303 1962 0
1962 304 -1963 0
-1962 -304 -1963 0
1962 -304 1963 0
-1962 304 1963 0
1963 305 -1964 0
-1963 -305 -1964 0
1963 -305 1964 0
-1963 305 1964 0
1964 307 -1965 0
-1964 -307 -1965 0
1964 -307 1965 0
-1964 307 1965 0
1965 308 -1966 0
-1965 -308 -1966 0
1965 -308 1966 0
-1965 308 1966 0
1966 309 -1967 0
-1966 -309 -1967 0
1966 -309 1967 0
-1966 309 1967 0
1967 310 -1968 0
-1967 -310 -1968 0
1967 -310 1968 0
-1967 310 1968 0
11 162 -1969 0
-11 -162 -1969 0
11 -162 1969 0
-11 162 1969 0
1969 163 -1970 0
-1969 -163 -1970 0
1969 -163 1970 0
-1969 163 1970 0
1970 164 -1971 0
-1970 -164 -1971 0
1970 -164 1971 0
-1970 164 1971 0
1971 165 -1972 0
-1971 -165 -1972 0
1971 -165 1972 0
-1971 165 1972 0
1972 166 -1973 0
-1972 -166 -1973 0
1972 -166 1973 0
-1972 166 1973 0
1973 302 -1974 0
-1973 -302 -1974 0
1973 -302 1974 0
-1973 302 1974 0
1974 303 -1975 0
-1974 -303 -1975 0
1974 -303 1975 0
-1974 303 1975 0
1975 304 -1976 0
-1975 -304 -1976 0
1975 -304 1976 0
-1975 304 1976 0
1976 305 -1977 0
-1976 -305 -1977 0
1976 -305 1977 0
-1976 305 1977 0
1977 306 -1978 0
-1977 -306 -1978 0
1977 -306 1978 0
-1977 306 1978 0
12 163 -1979 0
-12 -163 -1979 0
12 -163 1979 0
-12 163 1979 0
1979 164 -1980 0
-1979 -164 -1980 0
1979 -164 1980 0
-1979 164 1980 0
1980 165 -1981 0
-1980 -165 -1981 0
1980 -165 1981 0
-1980 165 1981 0
1981 166 -1982 0
-1981 -166 -1982 0
1981 -166 1982 0
-1981 166 1982 0
1982 167 -1983 0
-1982 -167 -1983 0
1982 -167 1983 0
-1982 167 1983 0
1983 303 -1984 0
-1983 -303 -1984 0
1983 -303 1984 0
-1983 303 1984 0
1984 304 -1985 0
-1984 -304 -1985 0
1984 -304 1985 0
-1984 304 1985 0
1985 305 -1986 0
-1985 -305 -1986 0
1985 -305 1986 0
-1985 305 1986 0
1986 306 -1987 0
-1986 -306 -1987 0
1986 -306 1987 0
-1986 306 1987 0
1987 307 -1988 0
-1987 -307 -1988 0
1987 -307 1988 0
-1987 307 1988 0
13 164 -1989 0
-13 -164 -1989 0
13 -164 1989 0
-13 164 1989 0
1989 165 -1990 0
-1989 -165 -1990 0
1989 -165 1990 0
-1989 165 1990 0
1990 166 -1991 0
-1990 -166 -1991 0
1990 -166 1991 0
-1990 166 1991 0
1991 167 -1992 0
-1991 -167 -1992 0
1991 -167 1992 0
-1991 167 1992 0
1992 168 -1993 0
-1992 -168 -1993 0
1992 -168 1993 0
-1992 168 1993 0
1993 304 -1994 0
-1993 -304 -1994 0
1993 -304 1994 0
-1993 304 1994 0
1994 305 -1995 0
-1994 -305 -1995 0
1994 -305 1995 0
-1994 305 1995 0
1995 306 -1996 0
-1995 -306 -1996 0
1995 -306 1996 0
-1995 306 1996 0
1996 307 -1997 0
-1996 -307 -1997 0
1996 -307 1997 0
-1996 307 1997 0
1997 308 -1998 0
-1997 -308 -1998 0
1997 -308 1998 0
-1997 308 1998 0
14 165 -1999 0
-14 -165 -1999 0
14 -165 1999 0
-14 165 1999 0
1999 166 -2000 0
-1999 -166 -2000 0
1999 -166 2000 0
-1999 166 2000 0
2000 167 -2001 0
-2000 -167 -2001 0
2000 -167 2001 0
-2000 167 2001 0
2001 168 -2002 0
-2001 -168 -2002 0
2001 -168 2002 0
-2001 168 2002 0
2002 169 -2003 0
-2002 -169 -2003 0
2002 -169 2003 0
-2002 169 2003 0
2003 305 -2004 0
-2003 -305 -2004 0
2003 -305 2004 0
-2003 305 2004 0
2004 306 -2005 0
-2004 -306 -2005 0
2004 -306 2005 0
-2004 306 2005 0
2005 307 -2006 0
-2005 -307 -2006 0
2005 -307 2006 0
-2005 307 2006 0
2006 308 -2007 0
-2006 -308 -2007 0
2006 -308 2007 0
-2006 308 2007 0
2007 309 -2008 0
-2007 -309 -2008 0
2007 -309 2008 0
-2007 309 2008 0
1432 1496 1587 1705 1850 1968 1978 1988 1998 2008 0
-1 0
-2 0
-3 0
-4 0
-5 0
-6 0
-7 0
-8 0
-9 0
-10 0
-11 0
-12 0
-13 0
-14 0
-15 0
-16 0
-17 0
-18 0
-19 0
-20 0
-21 0
-22 0
-23 0
-24 0
-25 0
-26 0
-27 0
-28 0
-29 0
-30 0
-31 0
-32 0
-33 0
-34 0
-35 0
-36 0
-37 0
-38 0
-39 0
-40 0
-41 0
-42 0
-43 0
-44 0
-45 0
-46 0
-47 0
-48 0
-49 0
-50 0
-51 0
-52 0
-53 0
-54 0
-55 0
-56 0
-57 0
-58 0
-59 0
-60 0
-61 0
-62 0
-63 0
-64 0
-65 0
-66 0
-67 0
-68 0
-69 0
-70 0
-71 0
-72 0
-73 0
-74 0
-75 0
-76 0
-77 0
-78 0
-79 0
-80 0
-81 0
-82 0
-83 0
-84 0
-85 0
-86 0
-87 0
-88 0
-89 0
-90 0
-91 0
-92 0
-93 0
-94 0
-95 0
-96 0
-97 0
-98 0
-99 0
-100 0
-101 0
-102 0
-103 0
-104 0
-105 0
-106 0
-107 0
-108 0
-109 0
-110 0
-111 0
-112 0
-113 0
-114 0
-115 0
-116 0
-117 0
-118 0
-119 0
-120 0
-121 0
-122 0
-123 0
-124 0
-125 0
-126 0
-127 0
-128 0
-129 0
-130 0
-131 0
-132 0
-133 0
-134 0
-135 0
-136 0
-137 0
-138 0
-139 0
-140 0
-141 0
-142 0
-143 0
-144 0
-145 0
-146 0
-147 0
-148 0
-149 0
-150 0
-151 0
-152 0
-153 0
-154 0
-155 0
156 0
-2017 2011 2018 0
-2014 2011 2018 0
-2014 -2017 2018 0
-2018 2009 0
-2015 2009 0
-2018 -2015 2010 0
-2016 2010 0
-2018 -2016 0
-2012 2009 0
-2018 -2012 2010 0
-2013 2010 0
-2018 -2013 0
-2012 -2015 2010 0
-2018 -2012 -2015 0
-2012 -2016 0
-2018 -2012 -2016 0
-2013 -2015 0
-2018 -2013 -2015 0
-2013 -2016 0
-2018 -2013 -2016 0
-2024 2017 2025 0
-2021 2017 2025 0
-2021 -2024 2025 0
-2025 2015 0
-2022 2015 0
-2025 -2022 2016 0
-2023 2016 0
-2025 -2023 0
-2019 2015 0
-2025 -2019 2016 0
-2020 2016 0
-2025 -2020 0
-2019 -2022 2016 0
-2025 -2019 -2022 0
-2019 -2023 0
-2025 -2019 -2023 0
-2020 -2022 0
-2025 -2020 -2022 0
-2020 -2023 0
-2025 -2020 -2023 0
-2031 2024 2032 0
-2028 2024 2032 0
-2028 -2031 2032 0
-2032 2022 0
-2029 2022 0
-2032 -2029 2023 0
-2030 2023 0
-2032 -2030 0
-2026 2022 0
-2032 -2026 2023 0
-2027 2023 0
-2032 -2027 0
-2026 -2029 2023 0
-2032 -2026 -2029 0
-2026 -2030 0
-2032 -2026 -2030 0
-2027 -2029 0
-2032 -2027 -2029 0
-2027 -2030 0
-2032 -2027 -2030 0
-2038 2031 2039 0
-2035 2031 2039 0
-2035 -2038 2039 0
-2039 2029 0
-2036 2029 0
-2039 -2036 2030 0
-2037 2030 0
-2039 -2037 0
-2033 2029 0
-2039 -2033 2030 0
-2034 2030 0
-2039 -2034 0
-2033 -2036 2030 0
-2039 -2033 -2036 0
-2033 -2037 0
-2039 -2033 -2037 0
-2034 -2036 0
-2039 -2034 -2036 0
-2034 -2037 0
-2039 -2034 -2037 0
-2045 2038 2046 0
-2042 2038 2046 0
-2042 -2045 2046 0
-2046 2036 0
-2043 2036 0
-2046 -2043 2037 0
-2044 2037 0
-2046 -2044 0
-2040 2036 0
-2046 -2040 2037 0
-2041 2037 0
-2046 -2041 0
-2040 -2043 2037 0
-2046 -2040 -2043 0
-2040 -2044 0
-2046 -2040 -2044 0
-2041 -2043 0
-2046 -2041 -2043 0
-2041 -2044 0
-2046 -2041 -2044 0
-2052 2045 2053 0
-2049 2045 2053 0
-2049 -2052 2053 0
-2053 2043 0
-2050 2043 0
-2053 -2050 2044 0
-2051 2044 0
-2053 -2051 0
-2047 2043 0
-2053 -2047 2044 0
-2048 2044 0
-2053 -2048 0
-2047 -2050 2044 0
-2053 -2047 -2050 0
-2047 -2051 0
-2053 -2047 -2051 0
-2048 -2050 0
-2053 -2048 -2050 0
-2048 -2051 0
-2053 -2048 -2051 0
-2057 2052 2058 0
-2055 2052 2058 0
-2055 -2057 2058 0
-2058 2050 0
-2056 2050 0
-2058 -2056 2051 0
-2054 2050 0
-2058 -2054 2051 0
-2054 -2056 2051 0
-2058 -2054 -2056 0
-310 2057 2059 0
-309 2057 2059 0
-309 -310 2059 0
-2059 2056 0
-308 2055 2060 0
-307 2055 2060 0
-307 -308 2060 0
-2060 2054 0
-2064 2049 2065 0
-2062 2049 2065 0
-2062 -2064 2065 0
-2065 2047 0
-2063 2047 0
-2065 -2063 2048 0
-2061 2047 0
-2065 -2061 2048 0
-2061 -2063 2048 0
-2065 -2061 -2063 0
-306 2064 2066 0
-305 2064 2066 0
-305 -306 2066 0
-2066 2063 0
-304 2062 2069 0
-2068 2062 2069 0
-2068 -304 2069 0
-2069 2061 0
-2067 2061 0
-2069 -2067 0
-303 2068 2070 0
-302 2068 2070 0
-302 -303 2070 0
-2070 2067 0
-2076 2042 2077 0
-2073 2042 2077 0
-2073 -2076 2077 0
-2077 2040 0
-2074 2040 0
-2077 -2074 2041 0
-2075 2041 0
-2077 -2075 0
-2071 2040 0
-2077 -2071 2041 0
-2072 2041 0
-2077 -2072 0
-2071 -2074 2041 0
-2077 -2071 -2074 0
-2071 -2075 0
-2077 -2071 -2075 0
-2072 -2074 0
-2077 -2072 -2074 0
-2072 -2075 0
-2077 -2072 -2075 0
-2081 2076 2082 0
-2079 2076 2082 0
-2079 -2081 2082 0
-2082 2074 0
-2080 2074 0
-2082 -2080 2075 0
-2078 2074 0
-2082 -2078 2075 0
-2078 -2080 2075 0
-2082 -2078 -2080 0
-301 2081 2083 0
-300 2081 2083 0
-300 -301 2083 0
-2083 2080 0
-299 2079 2086 0
-2085 2079 2086 0
-2085 -299 2086 0
-2086 2078 0
-2084 2078 0
-2086 -2084 0
-298 2085 2087 0
-297 2085 2087 0
-297 -298 2087 0
-2087 2084 0
-2091 2073 2092 0
-2089 2073 2092 0
-2089 -2091 2092 0
-2092 2071 0
-2090 2071 0
-2092 -2090 2072 0
-2088 2071 0
-2092 -2088 2072 0
-2088 -2090 2072 0
-2092 -2088 -2090 0
-296 2091 2093 0
-295 2091 2093 0
-295 -296 2093 0
-2093 2090 0
-294 2089 2096 0
-2095 2089 2096 0
-2095 -294 2096 0
-2096 2088 0
-2094 2088 0
-2096 -2094 0
-293 2095 2097 0
-292 2095 2097 0
-292 -293 2097 0
-2097 2094 0
-2103 2035 2104 0
-2100 2035 2104 0
-2100 -2103 2104 0
-2104 2033 0
-2101 2033 0
-2104 -2101 2034 0
-2102 2034 0
-2104 -2102 0
-2098 2033 0
-2104 -2098 2034 0
-2099 2034 0
-2104 -2099 0
-2098 -2101 2034 0
-2104 -2098 -2101 0
-2098 -2102 0
-2104 -2098 -2102 0
-2099 -2101 0
-2104 -2099 -2101 0
-2099 -2102 0
-2104 -2099 -2102 0
-2110 2103 2111 0
-2107 2103 2111 0
-2107 -2110 2111 0
-2111 2101 0
-2108 2101 0
-2111 -2108 2102 0
-2109 2102 0
-2111 -2109 0
-2105 2101 0
-2111 -2105 2102 0
-2106 2102 0
-2111 -2106 0
-2105 -2108 2102 0
-2111 -2105 -2108 0
-2105 -2109 0
-2111 -2105 -2109 0
-2106 -2108 0
-2111 -2106 -2108 0
-2106 -2109 0
-2111 -2106 -2109 0
-2115 2110 2116 0
-2113 2110 2116 0
-2113 -2115 2116 0
-2116 2108 0
-2114 2108 0
-2116 -2114 2109 0
-2112 2108 0
-2116 -2112 2109 0
-2112 -2114 2109 0
-2116 -2112 -2114 0
-291 2115 2117 0
-290 2115 2117 0
-290 -291 2117 0
-2117 2114 0
-289 2113 2118 0
-288 2113 2118 0
-288 -289 2118 0
-2118 2112 0
-2122 2107 2123 0
-2120 2107 2123 0
-2120 -2122 2123 0
-2123 2105 0
-2121 2105 0
-2123 -2121 2106 0
-2119 2105 0
-2123 -2119 2106 0
-2119 -2121 2106 0
-2123 -2119 -2121 0
-287 2122 2124 0
-286 2122 2124 0
-286 -287 2124 0
-2124 2121 0
-285 2120 2127 0
-2126 2120 2127 0
-2126 -285 2127 0
-2127 2119 0
-2125 2119 0
-2127 -2125 0
-284 2126 2128 0
-283 2126 2128 0
-283 -284 2128 0
-2128 2125 0
-2134 2100 2135 0
-2131 2100 2135 0
-2131 -2134 2135 0
-2135 2098 0
-2132 2098 0
-2135 -2132 2099 0
-2133 2099 0
-2135 -2133 0
-2129 2098 0
-2135 -2129 2099 0
-2130 2099 0
-2135 -2130 0
-2129 -2132 2099 0
-2135 -2129 -2132 0
-2129 -2133 0
-2135 -2129 -2133 0
-2130 -2132 0
-2135 -2130 -2132 0
-2130 -2133 0
-2135 -2130 -2133 0
-2139 2134 2140 0
-2137 2134 2140 0
-2137 -2139 2140 0
-2140 2132 0
-2138 2132 0
-2140 -2138 2133 0
-2136 2132 0
-2140 -2136 2133 0
-2136 -2138 2133 0
-2140 -2136 -2138 0
-282 2139 2141 0
-281 2139 2141 0
-281 -282 2141 0
-2141 2138 0
-280 2137 2144 0
-2143 2137 2144 0
-2143 -280 2144 0
-2144 2136 0
-2142 2136 0
-2144 -2142 0
-279 2143 2145 0
-278 2143 2145 0
-278 -279 2145 0
-2145 2142 0
-2149 2131 2150 0
-2147 2131 2150 0
-2147 -2149 2150 0
-2150 2129 0
-2148 2129 0
-2150 -2148 2130 0
-2146 2129 0
-2150 -2146 2130 0
-2146 -2148 2130 0
-2150 -2146 -2148 0
-277 2149 2151 0
-276 2149 2151 0
-276 -277 2151 0
-2151 2148 0
-275 2147 2154 0
-2153 2147 2154 0
-2153 -275 2154 0
-2154 2146 0
-2152 2146 0
-2154 -2152 0
-274 2153 2155 0
-273 2153 2155 0
-273 -274 2155 0
-2155 2152 0
-2161 2028 2162 0
-2158 2028 2162 0
-2158 -2161 2162 0
-2162 2026 0
-2159 2026 0
-2162 -2159 2027 0
-2160 2027 0
-2162 -2160 0
-2156 2026 0
-2162 -2156 2027 0
-2157 2027 0
-2162 -2157 0
-2156 -2159 2027 0
-2162 -2156 -2159 0
-2156 -2160 0
-2162 -2156 -2160 0
-2157 -2159 0
-2162 -2157 -2159 0
-2157 -2160 0
-2162 -2157 -2160 0
-2168 2161 2169 0
-2165 2161 2169 0
-2165 -2168 2169 0
-2169 2159 0
-2166 2159 0
-2169 -2166 2160 0
-2167 2160 0
-2169 -2167 0
-2163 2159 0
-2169 -2163 2160 0
-2164 2160 0
-2169 -2164 0
-2163 -2166 2160 0
-2169 -2163 -2166 0
-2163 -2167 0
-2169 -2163 -2167 0
-2164 -2166 0
-2169 -2164 -2166 0
-2164 -2167 0
-2169 -2164 -2167 0
-2175 2168 2176 0
-2172 2168 2176 0
-2172 -2175 2176 0
-2176 2166 0
-2173 2166 0
-2176 -2173 2167 0
-2174 2167 0
-2176 -2174 0
-2170 2166 0
-2176 -2170 2167 0
-2171 2167 0
-2176 -2171 0
-2170 -2173 2167 0
-2176 -2170 -2173 0
-2170 -2174 0
-2176 -2170 -2174 0
-2171 -2173 0
-2176 -2171 -2173 0
-2171 -2174 0
-2176 -2171 -2174 0
-2180 2175 2181 0
-2178 2175 2181 0
-2178 -2180 2181 0
-2181 2173 0
-2179 2173 0
-2181 -2179 2174 0
-2177 2173 0
-2181 -2177 2174 0
-2177 -2179 2174 0
-2181 -2177 -2179 0
-272 2180 2182 0
-271 2180 2182 0
-271 -272 2182 0
-2182 2179 0
-270 2178 2183 0
-269 2178 2183 0
-269 -270 2183 0
-2183 2177 0
-2187 2172 2188 0
-2185 2172 2188 0
-2185 -2187 2188 0
-2188 2170 0
-2186 2170 0
-2188 -2186 2171 0
-2184 2170 0
-2188 -2184 2171 0
-2184 -2186 2171 0
-2188 -2184 -2186 0
-268 2187 2189 0
-267 2187 2189 0
-267 -268 2189 0
-2189 2186 0
-266 2185 2192 0
-2191 2185 2192 0
-2191 -266 2192 0
-2192 2184 0
-2190 2184 0
-2192 -2190 0
-265 2191 2193 0
-264 2191 2193 0
-264 -265 2193 0
-2193 2190 0
-2199 2165 2200 0
-2196 2165 2200 0
-2196 -2199 2200 0
-2200 2163 0
-2197 2163 0
-2200 -2197 2164 0
-2198 2164 0
-2200 -2198 0
-2194 2163 0
-2200 -2194 2164 0
-2195 2164 0
-2200 -2195 0
-2194 -2197 2164 0
-2200 -2194 -2197 0
-2194 -2198 0
-2200 -2194 -2198 0
-2195 -2197 0
-2200 -2195 -2197 0
-2195 -2198 0
-2200 -2195 -2198 0
-2204 2199 2205 0
-2202 2199 2205 0
-2202 -2204 2205 0
-2205 2197 0
-2203 2197 0
-2205 -2203 2198 0
-2201 2197 0
-2205 -2201 2198 0
-2201 -2203 2198 0
-2205 -2201 -2203 0
-263 2204 2206 0
-262 2204 2206 0
-262 -263 2206 0
-2206 2203 0
-261 2202 2209 0
-2208 2202 2209 0
-2208 -261 2209 0
-2209 2201 0
-2207 2201 0
-2209 -2207 0
-260 2208 2210 0
-259 2208 2210 0
-259 -260 2210 0
-2210 2207 0
-2214 2196 2215 0
-2212 2196 2215 0
-2212 -2214 2215 0
-2215 2194 0
-2213 2194 0
-2215 -2213 2195 0
-2211 2194 0
-2215 -2211 2195 0
-2211 -2213 2195 0
-2215 -2211 -2213 0
-258 2214 2216 0
-257 2214 2216 0
-257 -258 2216 0
-2216 2213 0
-256 2212 2219 0
-2218 2212 2219 0
-2218 -256 2219 0
-2219 2211 0
-2217 2211 0
-2219 -2217 0
-255 2218 2220 0
-254 2218 2220 0
-254 -255 2220 0
-2220 2217 0
-2226 2158 2227 0
-2223 2158 2227 0
-2223 -2226 2227 0
-2227 2156 0
-2224 2156 0
-2227 -2224 2157 0
-2225 2157 0
-2227 -2225 0
-2221 2156 0
-2227 -2221 2157 0
-2222 2157 0
-2227 -2222 0
-2221 -2224 2157 0
-2227 -2221 -2224 0
-2221 -2225 0
-2227 -2221 -2225 0
-2222 -2224 0
-2227 -2222 -2224 0
-2222 -2225 0
-2227 -2222 -2225 0
-2233 2226 2234 0
-2230 2226 2234 0
-2230 -2233 2234 0
-2234 2224 0
-2231 2224 0
-2234 -2231 2225 0
-2232 2225 0
-2234 -2232 0
-2228 2224 0
-2234 -2228 2225 0
-2229 2225 0
-2234 -2229 0
-2228 -2231 2225 0
-2234 -2228 -2231 0
-2228 -2232 0
-2234 -2228 -2232 0
-2229 -2231 0
-2234 -2229 -2231 0
-2229 -2232 0
-2234 -2229 -2232 0
-2238 2233 2239 0
-2236 2233 2239 0
-2236 -2238 2239 0
-2239 2231 0
-2237 2231 0
-2239 -2237 2232 0
-2235 2231 0
-2239 -2235 2232 0
-2235 -2237 2232 0
-2239 -2235 -2237 0
-253 2238 2240 0
-252 2238 2240 0
-252 -253 2240 0
-2240 2237 0
-251 2236 2243 0
-2242 2236 2243 0
-2242 -251 2243 0
-2243 2235 0
-2241 2235 0
-2243 -2241 0
-250 2242 2244 0
-249 2242 2244 0
-249 -250 2244 0
-2244 2241 0
-2248 2230 2249 0
-2246 2230 2249 0
-2246 -2248 2249 0
-2249 2228 0
-2247 2228 0
-2249 -2247 2229 0
-2245 2228 0
-2249 -2245 2229 0
-2245 -2247 2229 0
-2249 -2245 -2247 0
-248 2248 2250 0
-247 2248 2250 0
-247 -248 2250 0
-2250 2247 0
-246 2246 2253 0
-2252 2246 2253 0
-2252 -246 2253 0
-2253 2245 0
-2251 2245 0
-2253 -2251 0
-245 2252 2254 0
-244 2252 2254 0
-244 -245 2254 0
-2254 2251 0
-2260 2223 2261 0
-2257 2223 2261 0
-2257 -2260 2261 0
-2261 2221 0
-2258 2221 0
-2261 -2258 2222 0
-2259 2222 0
-2261 -2259 0
-2255 2221 0
-2261 -2255 2222 0
-2256 2222 0
-2261 -2256 0
-2255 -2258 2222 0
-2261 -2255 -2258 0
-2255 -2259 0
-2261 -2255 -2259 0
-2256 -2258 0
-2261 -2256 -2258 0
-2256 -2259 0
-2261 -2256 -2259 0
-2265 2260 2266 0
-2263 2260 2266 0
-2263 -2265 2266 0
-2266 2258 0
-2264 2258 0
-2266 -2264 2259 0
-2262 2258 0
-2266 -2262 2259 0
-2262 -2264 2259 0
-2266 -2262 -2264 0
-243 2265 2267 0
-242 2265 2267 0
-242 -243 2267 0
-2267 2264 0
-241 2263 2270 0
-2269 2263 2270 0
-2269 -241 2270 0
-2270 2262 0
-2268 2262 0
-2270 -2268 0
-240 2269 2271 0
-239 2269 2271 0
-239 -240 2271 0
-2271 2268 0
-2275 2257 2276 0
-2273 2257 2276 0
-2273 -2275 2276 0
-2276 2255 0
-2274 2255 0
-2276 -2274 2256 0
-2272 2255 0
-2276 -2272 2256 0
-2272 -2274 2256 0
-2276 -2272 -2274 0
-238 2275 2277 0
-237 2275 2277 0
-237 -238 2277 0
-2277 2274 0
-236 2273 2280 0
-2279 2273 2280 0
-2279 -236 2280 0
-2280 2272 0
-2278 2272 0
-2280 -2278 0
-235 2279 2281 0
-234 2279 2281 0
-234 -235 2281 0
-2281 2278 0
-2287 2021 2288 0
-2284 2021 2288 0
-2284 -2287 2288 0
-2288 2019 0
-2285 2019 0
-2288 -2285 2020 0
-2286 2020 0
-2288 -2286 0
-2282 2019 0
-2288 -2282 2020 0
-2283 2020 0
-2288 -2283 0
-2282 -2285 2020 0
-2288 -2282 -2285 0
-2282 -2286 0
-2288 -2282 -2286 0
-2283 -2285 0
-2288 -2283 -2285 0
-2283 -2286 0
-2288 -2283 -2286 0
-2294 2287 2295 0
-2291 2287 2295 0
-2291 -2294 2295 0
-2295 2285 0
-2292 2285 0
-2295 -2292 2286 0
-2293 2286 0
-2295 -2293 0
-2289 2285 0
-2295 -2289 2286 0
-2290 2286 0
-2295 -2290 0
-2289 -2292 2286 0
-2295 -2289 -2292 0
-2289 -2293 0
-2295 -2289 -2293 0
-2290 -2292 0
-2295 -2290 -2292 0
-2290 -2293 0
-2295 -2290 -2293 0
-2301 2294 2302 0
-2298 2294 2302 0
-2298 -2301 2302 0
-2302 2292 0
-2299 2292 0
-2302 -2299 2293 0
-2300 2293 0
-2302 -2300 0
-2296 2292 0
-2302 -2296 2293 0
-2297 2293 0
-2302 -2297 0
-2296 -2299 2293 0
-2302 -2296 -2299 0
-2296 -2300 0
-2302 -2296 -2300 0
-2297 -2299 0
-2302 -2297 -2299 0
-2297 -2300 0
-2302 -2297 -2300 0
-2308 2301 2309 0
-2305 2301 2309 0
-2305 -2308 2309 0
-2309 2299 0
-2306 2299 0
-2309 -2306 2300 0
-2307 2300 0
-2309 -2307 0
-2303 2299 0
-2309 -2303 2300 0
-2304 2300 0
-2309 -2304 0
-2303 -2306 2300 0
-2309 -2303 -2306 0
-2303 -2307 0
-2309 -2303 -2307 0
-2304 -2306 0
-2309 -2304 -2306 0
-2304 -2307 0
-2309 -2304 -2307 0
-2313 2308 2314 0
-2311 2308 2314 0
-2311 -2313 2314 0
-2314 2306 0
-2312 2306 0
-2314 -2312 2307 0
-2310 2306 0
-2314 -2310 2307 0
-2310 -2312 2307 0
-2314 -2310 -2312 0
-233 2313 2315 0
-232 2313 2315 0
-232 -233 2315 0
-2315 2312 0
-231 2311 2316 0
-230 2311 2316 0
-230 -231 2316 0
-2316 2310 0
-2320 2305 2321 0
-2318 2305 2321 0
-2318 -2320 2321 0
-2321 2303 0
-2319 2303 0
-2321 -2319 2304 0
-2317 2303 0
-2321 -2317 2304 0
-2317 -2319 2304 0
-2321 -2317 -2319 0
-229 2320 2322 0
-228 2320 2322 0
-228 -229 2322 0
-2322 2319 0
-227 2318 2325 0
-2324 2318 2325 0
-2324 -227 2325 0
-2325 2317 0
-2323 2317 0
-2325 -2323 0
-226 2324 2326 0
-225 2324 2326 0
-225 -226 2326 0
-2326 2323 0
-2332 2298 2333 0
-2329 2298 2333 0
-2329 -2332 2333 0
-2333 2296 0
-2330 2296 0
-2333 -2330 2297 0
-2331 2297 0
-2333 -2331 0
-2327 2296 0
-2333 -2327 2297 0
-2328 2297 0
-2333 -2328 0
-2327 -2330 2297 0
-2333 -2327 -2330 0
-2327 -2331 0
-2333 -2327 -2331 0
-2328 -2330 0
-2333 -2328 -2330 0
-2328 -2331 0
-2333 -2328 -2331 0
-2337 2332 2338 0
-2335 2332 2338 0
-2335 -2337 2338 0
-2338 2330 0
-2336 2330 0
-2338 -2336 2331 0
-2334 2330 0
-2338 -2334 2331 0
-2334 -2336 2331 0
-2338 -2334 -2336 0
-224 2337 2339 0
-223 2337 2339 0
-223 -224 2339 0
-2339 2336 0
-222 2335 2342 0
-2341 2335 2342 0
-2341 -222 2342 0
-2342 2334 0
-2340 2334 0
-2342 -2340 0
-221 2341 2343 0
-220 2341 2343 0
-220 -221 2343 0
-2343 2340 0
-2347 2329 2348 0
-2345 2329 2348 0
-2345 -2347 2348 0
-2348 2327 0
-2346 2327 0
-2348 -2346 2328 0
-2344 2327 0
-2348 -2344 2328 0
-2344 -2346 2328 0
-2348 -2344 -2346 0
-219 2347 2349 0
-218 2347 2349 0
-218 -219 2349 0
-2349 2346 0
-217 2345 2352 0
-2351 2345 2352 0
-2351 -217 2352 0
-2352 2344 0
-2350 2344 0
-2352 -2350 0
-216 2351 2353 0
-215 2351 2353 0
-215 -216 2353 0
-2353 2350 0
-2359 2291 2360 0
-2356 2291 2360 0
-2356 -2359 2360 0
-2360 2289 0
-2357 2289 0
-2360 -2357 2290 0
-2358 2290 0
-2360 -2358 0
-2354 2289 0
-2360 -2354 2290 0
-2355 2290 0
-2360 -2355 0
-2354 -2357 2290 0
-2360 -2354 -2357 0
-2354 -2358 0
-2360 -2354 -2358 0
-2355 -2357 0
-2360 -2355 -2357 0
-2355 -2358 0
-2360 -2355 -2358 0
-2366 2359 2367 0
-2363 2359 2367 0
-2363 -2366 2367 0
-2367 2357 0
-2364 2357 0
-2367 -2364 2358 0
-2365 2358 0
-2367 -2365 0
-2361 2357 0
-2367 -2361 2358 0
-2362 2358 0
-2367 -2362 0
-2361 -2364 2358 0
-2367 -2361 -2364 0
-2361 -2365 0
-2367 -2361 -2365 0
-2362 -2364 0
-2367 -2362 -2364 0
-2362 -2365 0
-2367 -2362 -2365 0
-2371 2366 2372 0
-2369 2366 2372 0
-2369 -2371 2372 0
-2372 2364 0
-2370 2364 0
-2372 -2370 2365 0
-2368 2364 0
-2372 -2368 2365 0
-2368 -2370 2365 0
-2372 -2368 -2370 0
-214 2371 2373 0
-213 2371 2373 0
-213 -214 2373 0
-2373 2370 0
-212 2369 2376 0
-2375 2369 2376 0
-2375 -212 2376 0
-2376 2368 0
-2374 2368 0
-2376 -2374 0
-211 2375 2377 0
-210 2375 2377 0
-210 -211 2377 0
-2377 2374 0
-2381 2363 2382 0
-2379 2363 2382 0
-2379 -2381 2382 0
-2382 2361 0
-2380 2361 0
-2382 -2380 2362 0
-2378 2361 0
-2382 -2378 2362 0
-2378 -2380 2362 0
-2382 -2378 -2380 0
-209 2381 2383 0
-208 2381 2383 0
-208 -209 2383 0
-2383 2380 0
-207 2379 2386 0
-2385 2379 2386 0
-2385 -207 2386 0
-2386 2378 0
-2384 2378 0
-2386 -2384 0
-206 2385 2387 0
-205 2385 2387 0
-205 -206 2387 0
-2387 2384 0
-2393 2356 2394 0
-2390 2356 2394 0
-2390 -2393 2394 0
-2394 2354 0
-2391 2354 0
-2394 -2391 2355 0
-2392 2355 0
-2394 -2392 0
-2388 2354 0
-2394 -2388 2355 0
-2389 2355 0
-2394 -2389 0
-2388 -2391 2355 0
-2394 -2388 -2391 0
-2388 -2392 0
-2394 -2388 -2392 0
-2389 -2391 0
-2394 -2389 -2391 0
-2389 -2392 0
-2394 -2389 -2392 0
-2398 2393 2399 0
-2396 2393 2399 0
-2396 -2398 2399 0
-2399 2391 0
-2397 2391 0
-2399 -2397 2392 0
-2395 2391 0
-2399 -2395 2392 0
-2395 -2397 2392 0
-2399 -2395 -2397 0
-204 2398 2400 0
-203 2398 2400 0
-203 -204 2400 0
-2400 2397 0
-202 2396 2403 0
-2402 2396 2403 0
-2402 -202 2403 0
-2403 2395 0
-2401 2395 0
-2403 -2401 0
-201 2402 2404 0
-200 2402 2404 0
-200 -201 2404 0
-2404 2401 0
-2408 2390 2409 0
-2406 2390 2409 0
-2406 -2408 2409 0
-2409 2388 0
-2407 2388 0
-2409 -2407 2389 0
-2405 2388 0
-2409 -2405 2389 0
-2405 -2407 2389 0
-2409 -2405 -2407 0
-199 2408 2410 0
-198 2408 2410 0
-198 -199 2410 0
-2410 2407 0
-197 2406 2413 0
-2412 2406 2413 0
-2412 -197 2413 0
-2413 2405 0
-2411 2405 0
-2413 -2411 0
-196 2412 2414 0
-195 2412 2414 0
-195 -196 2414 0
-2414 2411 0
-2420 2284 2421 0
-2417 2284 2421 0
-2417 -2420 2421 0
-2421 2282 0
-2418 2282 0
-2421 -2418 2283 0
-2419 2283 0
-2421 -2419 0
-2415 2282 0
-2421 -2415 2283 0
-2416 2283 0
-2421 -2416 0
-2415 -2418 2283 0
-2421 -2415 -2418 0
-2415 -2419 0
-2421 -2415 -2419 0
-2416 -2418 0
-2421 -2416 -2418 0
-2416 -2419 0
-2421 -2416 -2419 0
-2427 2420 2428 0
-2424 2420 2428 0
-2424 -2427 2428 0
-2428 2418 0
-2425 2418 0
-2428 -2425 2419 0
-2426 2419 0
-2428 -2426 0
-2422 2418 0
-2428 -2422 2419 0
-2423 2419 0
-2428 -2423 0
-2422 -2425 2419 0
-2428 -2422 -2425 0
-2422 -2426 0
-2428 -2422 -2426 0
-2423 -2425 0
-2428 -2423 -2425 0
-2423 -2426 0
-2428 -2423 -2426 0
-2434 2427 2435 0
-2431 2427 2435 0
-2431 -2434 2435 0
-2435 2425 0
-2432 2425 0
-2435 -2432 2426 0
-2433 2426 0
-2435 -2433 0
-2429 2425 0
-2435 -2429 2426 0
-2430 2426 0
-2435 -2430 0
-2429 -2432 2426 0
-2435 -2429 -2432 0
-2429 -2433 0
-2435 -2429 -2433 0
-2430 -2432 0
-2435 -2430 -2432 0
-2430 -2433 0
-2435 -2430 -2433 0
-2439 2434 2440 0
-2437 2434 2440 0
-2437 -2439 2440 0
-2440 2432 0
-2438 2432 0
-2440 -2438 2433 0
-2436 2432 0
-2440 -2436 2433 0
-2436 -2438 2433 0
-2440 -2436 -2438 0
-194 2439 2441 0
-193 2439 2441 0
-193 -194 2441 0
-2441 2438 0
-192 2437 2442 0
-191 2437 2442 0
-191 -192 2442 0
-2442 2436 0
-2446 2431 2447 0
-2444 2431 2447 0
-2444 -2446 2447 0
-2447 2429 0
-2445 2429 0
-2447 -2445 2430 0
-2443 2429 0
-2447 -2443 2430 0
-2443 -2445 2430 0
-2447 -2443 -2445 0
-190 2446 2448 0
-189 2446 2448 0
-189 -190 2448 0
-2448 2445 0
-188 2444 2451 0
-2450 2444 2451 0
-2450 -188 2451 0
-2451 2443 0
-2449 2443 0
-2451 -2449 0
-187 2450 2452 0
-186 2450 2452 0
-186 -187 2452 0
-2452 2449 0
-2458 2424 2459 0
-2455 2424 2459 0
-2455 -2458 2459 0
-2459 2422 0
-2456 2422 0
-2459 -2456 2423 0
-2457 2423 0
-2459 -2457 0
-2453 2422 0
-2459 -2453 2423 0
-2454 2423 0
-2459 -2454 0
-2453 -2456 2423 0
-2459 -2453 -2456 0
-2453 -2457 0
-2459 -2453 -2457 0
-2454 -2456 0
-2459 -2454 -2456 0
-2454 -2457 0
-2459 -2454 -2457 0
-2463 2458 2464 0
-2461 2458 2464 0
-2461 -2463 2464 0
-2464 2456 0
-2462 2456 0
-2464 -2462 2457 0
-2460 2456 0
-2464 -2460 2457 0
-2460 -2462 2457 0
-2464 -2460 -2462 0
-185 2463 2465 0
-184 2463 2465 0
-184 -185 2465 0
-2465 2462 0
-183 2461 2468 0
-2467 2461 2468 0
-2467 -183 2468 0
-2468 2460 0
-2466 2460 0
-2468 -2466 0
-182 2467 2469 0
-181 2467 2469 0
-181 -182 2469 0
-2469 2466 0
-2473 2455 2474 0
-2471 2455 2474 0
-2471 -2473 2474 0
-2474 2453 0
-2472 2453 0
-2474 -2472 2454 0
-2470 2453 0
-2474 -2470 2454 0
-2470 -2472 2454 0
-2474 -2470 -2472 0
-180 2473 2475 0
-179 2473 2475 0
-179 -180 2475 0
-2475 2472 0
-178 2471 2478 0
-2477 2471 2478 0
-2477 -178 2478 0
-2478 2470 0
-2476 2470 0
-2478 -2476 0
-177 2477 2479 0
-176 2477 2479 0
-176 -177 2479 0
-2479 2476 0
-2485 2417 2486 0
-2482 2417 2486 0
-2482 -2485 2486 0
-2486 2415 0
-2483 2415 0
-2486 -2483 2416 0
-2484 2416 0
-2486 -2484 0
-2480 2415 0
-2486 -2480 2416 0
-2481 2416 0
-2486 -2481 0
-2480 -2483 2416 0
-2486 -2480 -2483 0
-2480 -2484 0
-2486 -2480 -2484 0
-2481 -2483 0
-2486 -2481 -2483 0
-2481 -2484 0
-2486 -2481 -2484 0
-2492 2485 2493 0
-2489 2485 2493 0
-2489 -2492 2493 0
-2493 2483 0
-2490 2483 0
-2493 -2490 2484 0
-2491 2484 0
-2493 -2491 0
-2487 2483 0
-2493 -2487 2484 0
-2488 2484 0
-2493 -2488 0
-2487 -2490 2484 0
-2493 -2487 -2490 0
-2487 -2491 0
-2493 -2487 -2491 0
-2488 -2490 0
-2493 -2488 -2490 0
-2488 -2491 0
-2493 -2488 -2491 0
-2497 2492 2498 0
-2495 2492 2498 0
-2495 -2497 2498 0
-2498 2490 0
-2496 2490 0
-2498 -2496 2491 0
-2494 2490 0
-2498 -2494 2491 0
-2494 -2496 2491 0
-2498 -2494 -2496 0
-175 2497 2499 0
-174 2497 2499 0
-174 -175 2499 0
-2499 2496 0
-173 2495 2502 0
-2501 2495 2502 0
-2501 -173 2502 0
-2502 2494 0
-2500 2494 0
-2502 -2500 0
-172 2501 2503 0
-171 2501 2503 0
-171 -172 2503 0
-2503 2500 0
-2507 2489 2508 0
-2505 2489 2508 0
-2505 -2507 2508 0
-2508 2487 0
-2506 2487 0
-2508 -2506 2488 0
-2504 2487 0
-2508 -2504 2488 0
-2504 -2506 2488 0
-2508 -2504 -2506 0
-170 2507 2509 0
-169 2507 2509 0
-169 -170 2509 0
-2509 2506 0
-168 2505 2512 0
-2511 2505 2512 0
-2511 -168 2512 0
-2512 2504 0
-2510 2504 0
-2512 -2510 0
-167 2511 2513 0
-166 2511 2513 0
-166 -167 2513 0
-2513 2510 0
-2519 2482 2520 0
-2516 2482 2520 0
-2516 -2519 2520 0
-2520 2480 0
-2517 2480 0
-2520 -2517 2481 0
-2518 2481 0
-2520 -2518 0
-2514 2480 0
-2520 -2514 2481 0
-2515 2481 0
-2520 -2515 0
-2514 -2517 2481 0
-2520 -2514 -2517 0
-2514 -2518 0
-2520 -2514 -2518 0
-2515 -2517 0
-2520 -2515 -2517 0
-2515 -2518 0
-2520 -2515 -2518 0
-2524 2519 2525 0
-2522 2519 2525 0
-2522 -2524 2525 0
-2525 2517 0
-2523 2517 0
-2525 -2523 2518 0
-2521 2517 0
-2525 -2521 2518 0
-2521 -2523 2518 0
-2525 -2521 -2523 0
-165 2524 2526 0
-164 2524 2526 0
-164 -165 2526 0
-2526 2523 0
-163 2522 2529 0
-2528 2522 2529 0
-2528 -163 2529 0
-2529 2521 0
-2527 2521 0
-2529 -2527 0
-162 2528 2530 0
-161 2528 2530 0
-161 -162 2530 0
-2530 2527 0
-2534 2516 2535 0
-2532 2516 2535 0
-2532 -2534 2535 0
-2535 2514 0
-2533 2514 0
-2535 -2533 2515 0
-2531 2514 0
-2535 -2531 2515 0
-2531 -2533 2515 0
-2535 -2531 -2533 0
-160 2534 2536 0
-159 2534 2536 0
-159 -160 2536 0
-2536 2533 0
-158 2532 2539 0
-2538 2532 2539 0
-2538 -158 2539 0
-2539 2531 0
-2537 2531 0
-2539 -2537 0
-157 2538 2540 0
-156 2538 2540 0
-156 -157 2540 0
-2540 2537 0
-2546 2014 2547 0
-2543 2014 2547 0
-2543 -2546 2547 0
-2547 2012 0
-2544 2012 0
-2547 -2544 2013 0
-2545 2013 0
-2547 -2545 0
-2541 2012 0
-2547 -2541 2013 0
-2542 2013 0
-2547 -2542 0
-2541 -2544 2013 0
-2547 -2541 -2544 0
-2541 -2545 0
-2547 -2541 -2545 0
-2542 -2544 0
-2547 -2542 -2544 0
-2542 -2545 0
-2547 -2542 -2545 0
-2553 2546 2554 0
-2550 2546 2554 0
-2550 -2553 2554 0
-2554 2544 0
-2551 2544 0
-2554 -2551 2545 0
-2552 2545 0
-2554 -2552 0
-2548 2544 0
-2554 -2548 2545 0
-2549 2545 0
-2554 -2549 0
-2548 -2551 2545 0
-2554 -2548 -2551 0
-2548 -2552 0
-2554 -2548 -2552 0
-2549 -2551 0
-2554 -2549 -2551 0
-2549 -2552 0
-2554 -2549 -2552 0
-2560 2553 2561 0
-2557 2553 2561 0
-2557 -2560 2561 0
-2561 2551 0
-2558 2551 0
-2561 -2558 2552 0
-2559 2552 0
-2561 -2559 0
-2555 2551 0
-2561 -2555 2552 0
-2556 2552 0
-2561 -2556 0
-2555 -2558 2552 0
-2561 -2555 -2558 0
-2555 -2559 0
-2561 -2555 -2559 0
-2556 -2558 0
-2561 -2556 -2558 0
-2556 -2559 0
-2561 -2556 -2559 0
-2567 2560 2568 0
-2564 2560 2568 0
-2564 -2567 2568 0
-2568 2558 0
-2565 2558 0
-2568 -2565 2559 0
-2566 2559 0
-2568 -2566 0
-2562 2558 0
-2568 -2562 2559 0
-2563 2559 0
-2568 -2563 0
-2562 -2565 2559 0
-2568 -2562 -2565 0
-2562 -2566 0
-2568 -2562 -2566 0
-2563 -2565 0
-2568 -2563 -2565 0
-2563 -2566 0
-2568 -2563 -2566 0
-2574 2567 2575 0
-2571 2567 2575 0
-2571 -2574 2575 0
-2575 2565 0
-2572 2565 0
-2575 -2572 2566 0
-2573 2566 0
-2575 -2573 0
-2569 2565 0
-2575 -2569 2566 0
-2570 2566 0
-2575 -2570 0
-2569 -2572 2566 0
-2575 -2569 -2572 0
-2569 -2573 0
-2575 -2569 -2573 0
-2570 -2572 0
-2575 -2570 -2572 0
-2570 -2573 0
-2575 -2570 -2573 0
-2579 2574 2580 0
-2577 2574 2580 0
-2577 -2579 2580 0
-2580 2572 0
-2578 2572 0
-2580 -2578 2573 0
-2576 2572 0
-2580 -2576 2573 0
-2576 -2578 2573 0
-2580 -2576 -2578 0
-155 2579 2581 0
-154 2579 2581 0
-154 -155 2581 0
-2581 2578 0
-153 2577 2582 0
-152 2577 2582 0
-152 -153 2582 0
-2582 2576 0
-2586 2571 2587 0
-2584 2571 2587 0
-2584 -2586 2587 0
-2587 2569 0
-2585 2569 0
-2587 -2585 2570 0
-2583 2569 0
-2587 -2583 2570 0
-2583 -2585 2570 0
-2587 -2583 -2585 0
-151 2586 2588 0
-150 2586 2588 0
-150 -151 2588 0
-2588 2585 0
-149 2584 2591 0
-2590 2584 2591 0
-2590 -149 2591 0
-2591 2583 0
-2589 2583 0
-2591 -2589 0
-148 2590 2592 0
-147 2590 2592 0
-147 -148 2592 0
-2592 2589 0
-2598 2564 2599 0
-2595 2564 2599 0
-2595 -2598 2599 0
-2599 2562 0
-2596 2562 0
-2599 -2596 2563 0
-2597 2563 0
-2599 -2597 0
-2593 2562 0
-2599 -2593 2563 0
-2594 2563 0
-2599 -2594 0
-2593 -2596 2563 0
-2599 -2593 -2596 0
-2593 -2597 0
-2599 -2593 -2597 0
-2594 -2596 0
-2599 -2594 -2596 0
-2594 -2597 0
-2599 -2594 -2597 0
-2603 2598 2604 0
-2601 2598 2604 0
-2601 -2603 2604 0
-2604 2596 0
-2602 2596 0
-2604 -2602 2597 0
-2600 2596 0
-2604 -2600 2597 0
-2600 -2602 2597 0
-2604 -2600 -2602 0
-146 2603 2605 0
-145 2603 2605 0
-145 -146 2605 0
-2605 2602 0
-144 2601 2608 0
-2607 2601 2608 0
-2607 -144 2608 0
-2608 2600 0
-2606 2600 0
-2608 -2606 0
-143 2607 2609 0
-142 2607 2609 0
-142 -143 2609 0
-2609 2606 0
-2613 2595 2614 0
-2611 2595 2614 0
-2611 -2613 2614 0
-2614 2593 0
-2612 2593 0
-2614 -2612 2594 0
-2610 2593 0
-2614 -2610 2594 0
-2610 -2612 2594 0
-2614 -2610 -2612 0
-141 2613 2615 0
-140 2613 2615 0
-140 -141 2615 0
-2615 2612 0
-139 2611 2618 0
-2617 2611 2618 0
-2617 -139 2618 0
-2618 2610 0
-2616 2610 0
-2618 -2616 0
-138 2617 2619 0
-137 2617 2619 0
-137 -138 2619 0
-2619 2616 0
-2625 2557 2626 0
-2622 2557 2626 0
-2622 -2625 2626 0
-2626 2555 0
-2623 2555 0
-2626 -2623 2556 0
-2624 2556 0
-2626 -2624 0
-2620 2555 0
-2626 -2620 2556 0
-2621 2556 0
-2626 -2621 0
-2620 -2623 2556 0
-2626 -2620 -2623 0
-2620 -2624 0
-2626 -2620 -2624 0
-2621 -2623 0
-2626 -2621 -2623 0
-2621 -2624 0
-2626 -2621 -2624 0
-2632 2625 2633 0
-2629 2625 2633 0
-2629 -2632 2633 0
-2633 2623 0
-2630 2623 0
-2633 -2630 2624 0
-2631 2624 0
-2633 -2631 0
-2627 2623 0
-2633 -2627 2624 0
-2628 2624 0
-2633 -2628 0
-2627 -2630 2624 0
-2633 -2627 -2630 0
-2627 -2631 0
-2633 -2627 -2631 0
-2628 -2630 0
-2633 -2628 -2630 0
-2628 -2631 0
-2633 -2628 -2631 0
-2637 2632 2638 0
-2635 2632 2638 0
-2635 -2637 2638 0
-2638 2630 0
-2636 2630 0
-2638 -2636 2631 0
-2634 2630 0
-2638 -2634 2631 0
-2634 -2636 2631 0
-2638 -2634 -2636 0
-136 2637 2639 0
-135 2637 2639 0
-135 -136 2639 0
-2639 2636 0
-134 2635 2640 0
-133 2635 2640 0
-133 -134 2640 0
-2640 2634 0
-2644 2629 2645 0
-2642 2629 2645 0
-2642 -2644 2645 0
-2645 2627 0
-2643 2627 0
-2645 -2643 2628 0
-2641 2627 0
-2645 -2641 2628 0
-2641 -2643 2628 0
-2645 -2641 -2643 0
-132 2644 2646 0
-131 2644 2646 0
-131 -132 2646 0
-2646 2643 0
-130 2642 2649 0
-2648 2642 2649 0
-2648 -130 2649 0
-2649 2641 0
-2647 2641 0
-2649 -2647 0
-129 2648 2650 0
-128 2648 2650 0
-128 -129 2650 0
-2650 2647 0
-2656 2622 2657 0
-2653 2622 2657 0
-2653 -2656 2657 0
-2657 2620 0
-2654 2620 0
-2657 -2654 2621 0
-2655 2621 0
-2657 -2655 0
-2651 2620 0
-2657 -2651 2621 0
-2652 2621 0
-2657 -2652 0
-2651 -2654 2621 0
-2657 -2651 -2654 0
-2651 -2655 0
-2657 -2651 -2655 0
-2652 -2654 0
-2657 -2652 -2654 0
-2652 -2655 0
-2657 -2652 -2655 0
-2661 2656 2662 0
-2659 2656 2662 0
-2659 -2661 2662 0
-2662 2654 0
-2660 2654 0
-2662 -2660 2655 0
-2658 2654 0
-2662 -2658 2655 0
-2658 -2660 2655 0
-2662 -2658 -2660 0
-127 2661 2663 0
-126 2661 2663 0
-126 -127 2663 0
-2663 2660 0
-125 2659 2666 0
-2665 2659 2666 0
-2665 -125 2666 0
-2666 2658 0
-2664 2658 0
-2666 -2664 0
-124 2665 2667 0
-123 2665 2667 0
-123 -124 2667 0
-2667 2664 0
-2671 2653 2672 0
-2669 2653 2672 0
-2669 -2671 2672 0
-2672 2651 0
-2670 2651 0
-2672 -2670 2652 0
-2668 2651 0
-2672 -2668 2652 0
-2668 -2670 2652 0
-2672 -2668 -2670 0
-122 2671 2673 0
-121 2671 2673 0
-121 -122 2673 0
-2673 2670 0
-120 2669 2676 0
-2675 2669 2676 0
-2675 -120 2676 0
-2676 2668 0
-2674 2668 0
-2676 -2674 0
-119 2675 2677 0
-118 2675 2677 0
-118 -119 2677 0
-2677 2674 0
-2683 2550 2684 0
-2680 2550 2684 0
-2680 -2683 2684 0
-2684 2548 0
-2681 2548 0
-2684 -2681 2549 0
-2682 2549 0
-2684 -2682 0
-2678 2548 0
-2684 -2678 2549 0
-2679 2549 0
-2684 -2679 0
-2678 -2681 2549 0
-2684 -2678 -2681 0
-2678 -2682 0
-2684 -2678 -2682 0
-2679 -2681 0
-2684 -2679 -2681 0
-2679 -2682 0
-2684 -2679 -2682 0
-2690 2683 2691 0
-2687 2683 2691 0
-2687 -2690 2691 0
-2691 2681 0
-2688 2681 0
-2691 -2688 2682 0
-2689 2682 0
-2691 -2689 0
-2685 2681 0
-2691 -2685 2682 0
-2686 2682 0
-2691 -2686 0
-2685 -2688 2682 0
-2691 -2685 -2688 0
-2685 -2689 0
-2691 -2685 -2689 0
-2686 -2688 0
-2691 -2686 -2688 0
-2686 -2689 0
-2691 -2686 -2689 0
-2697 2690 2698 0
-2694 2690 2698 0
-2694 -2697 2698 0
-2698 2688 0
-2695 2688 0
-2698 -2695 2689 0
-2696 2689 0
-2698 -2696 0
-2692 2688 0
-2698 -2692 2689 0
-2693 2689 0
-2698 -2693 0
-2692 -2695 2689 0
-2698 -2692 -2695 0
-2692 -2696 0
-2698 -2692 -2696 0
-2693 -2695 0
-2698 -2693 -2695 0
-2693 -2696 0
-2698 -2693 -2696 0
-2702 2697 2703 0
-2700 2697 2703 0
-2700 -2702 2703 0
-2703 2695 0
-2701 2695 0
-2703 -2701 2696 0
-2699 2695 0
-2703 -2699 2696 0
-2699 -2701 2696 0
-2703 -2699 -2701 0
-117 2702 2704 0
-116 2702 2704 0
-116 -117 2704 0
-2704 2701 0
-115 2700 2705 0
-114 2700 2705 0
-114 -115 2705 0
-2705 2699 0
-2709 2694 2710 0
-2707 2694 2710 0
-2707 -2709 2710 0
-2710 2692 0
-2708 2692 0
-2710 -2708 2693 0
-2706 2692 0
-2710 -2706 2693 0
-2706 -2708 2693 0
-2710 -2706 -2708 0
-113 2709 2711 0
-112 2709 2711 0
-112 -113 2711 0
-2711 2708 0
-111 2707 2714 0
-2713 2707 2714 0
-2713 -111 2714 0
-2714 2706 0
-2712 2706 0
-2714 -2712 0
-110 2713 2715 0
-109 2713 2715 0
-109 -110 2715 0
-2715 2712 0
-2721 2687 2722 0
-2718 2687 2722 0
-2718 -2721 2722 0
-2722 2685 0
-2719 2685 0
-2722 -2719 2686 0
-2720 2686 0
-2722 -2720 0
-2716 2685 0
-2722 -2716 2686 0
-2717 2686 0
-2722 -2717 0
-2716 -2719 2686 0
-2722 -2716 -2719 0
-2716 -2720 0
-2722 -2716 -2720 0
-2717 -2719 0
-2722 -2717 -2719 0
-2717 -2720 0
-2722 -2717 -2720 0
-2726 2721 2727 0
-2724 2721 2727 0
-2724 -2726 2727 0
-2727 2719 0
-2725 2719 0
-2727 -2725 2720 0
-2723 2719 0
-2727 -2723 2720 0
-2723 -2725 2720 0
-2727 -2723 -2725 0
-108 2726 2728 0
-107 2726 2728 0
-107 -108 2728 0
-2728 2725 0
-106 2724 2731 0
-2730 2724 2731 0
-2730 -106 2731 0
-2731 2723 0
-2729 2723 0
-2731 -2729 0
-105 2730 2732 0
-104 2730 2732 0
-104 -105 2732 0
-2732 2729 0
-2736 2718 2737 0
-2734 2718 2737 0
-2734 -2736 2737 0
-2737 2716 0
-2735 2716 0
-2737 -2735 2717 0
-2733 2716 0
-2737 -2733 2717 0
-2733 -2735 2717 0
-2737 -2733 -2735 0
-103 2736 2738 0
-102 2736 2738 0
-102 -103 2738 0
-2738 2735 0
-101 2734 2741 0
-2740 2734 2741 0
-2740 -101 2741 0
-2741 2733 0
-2739 2733 0
-2741 -2739 0
-100 2740 2742 0
-99 2740 2742 0
-99 -100 2742 0
-2742 2739 0
-2748 2680 2749 0
-2745 2680 2749 0
-2745 -2748 2749 0
-2749 2678 0
-2746 2678 0
-2749 -2746 2679 0
-2747 2679 0
-2749 -2747 0
-2743 2678 0
-2749 -2743 2679 0
-2744 2679 0
-2749 -2744 0
-2743 -2746 2679 0
-2749 -2743 -2746 0
-2743 -2747 0
-2749 -2743 -2747 0
-2744 -2746 0
-2749 -2744 -2746 0
-2744 -2747 0
-2749 -2744 -2747 0
-2755 2748 2756 0
-2752 2748 2756 0
-2752 -2755 2756 0
-2756 2746 0
-2753 2746 0
-2756 -2753 2747 0
-2754 2747 0
-2756 -2754 0
-2750 2746 0
-2756 -2750 2747 0
-2751 2747 0
-2756 -2751 0
-2750 -2753 2747 0
-2756 -2750 -2753 0
-2750 -2754 0
-2756 -2750 -2754 0
-2751 -2753 0
-2756 -2751 -2753 0
-2751 -2754 0
-2756 -2751 -2754 0
-2760 2755 2761 0
-2758 2755 2761 0
-2758 -2760 2761 0
-2761 2753 0
-2759 2753 0
-2761 -2759 2754 0
-2757 2753 0
-2761 -2757 2754 0
-2757 -2759 2754 0
-2761 -2757 -2759 0
-98 2760 2762 0
-97 2760 2762 0
-97 -98 2762 0
-2762 2759 0
-96 2758 2765 0
-2764 2758 2765 0
-2764 -96 2765 0
-2765 2757 0
-2763 2757 0
-2765 -2763 0
-95 2764 2766 0
-94 2764 2766 0
-94 -95 2766 0
-2766 2763 0
-2770 2752 2771 0
-2768 2752 2771 0
-2768 -2770 2771 0
-2771 2750 0
-2769 2750 0
-2771 -2769 2751 0
-2767 2750 0
-2771 -2767 2751 0
-2767 -2769 2751 0
-2771 -2767 -2769 0
-93 2770 2772 0
-92 2770 2772 0
-92 -93 2772 0
-2772 2769 0
-91 2768 2775 0
-2774 2768 2775 0
-2774 -91 2775 0
-2775 2767 0
-2773 2767 0
-2775 -2773 0
-90 2774 2776 0
-89 2774 2776 0
-89 -90 2776 0
-2776 2773 0
-2782 2745 2783 0
-2779 2745 2783 0
-2779 -2782 2783 0
-2783 2743 0
-2780 2743 0
-2783 -2780 2744 0
-2781 2744 0
-2783 -2781 0
-2777 2743 0
-2783 -2777 2744 0
-2778 2744 0
-2783 -2778 0
-2777 -2780 2744 0
-2783 -2777 -2780 0
-2777 -2781 0
-2783 -2777 -2781 0
-2778 -2780 0
-2783 -2778 -2780 0
-2778 -2781 0
-2783 -2778 -2781 0
-2787 2782 2788 0
-2785 2782 2788 0
-2785 -2787 2788 0
-2788 2780 0
-2786 2780 0
-2788 -2786 2781 0
-2784 2780 0
-2788 -2784 2781 0
-2784 -2786 2781 0
-2788 -2784 -2786 0
-88 2787 2789 0
-87 2787 2789 0
-87 -88 2789 0
-2789 2786 0
-86 2785 2792 0
-2791 2785 2792 0
-2791 -86 2792 0
-2792 2784 0
-2790 2784 0
-2792 -2790 0
-85 2791 2793 0
-84 2791 2793 0
-84 -85 2793 0
-2793 2790 0
-2797 2779 2798 0
-2795 2779 2798 0
-2795 -2797 2798 0
-2798 2777 0
-2796 2777 0
-2798 -2796 2778 0
-2794 2777 0
-2798 -2794 2778 0
-2794 -2796 2778 0
-2798 -2794 -2796 0
-83 2797 2799 0
-82 2797 2799 0
-82 -83 2799 0
-2799 2796 0
-81 2795 2802 0
-2801 2795 2802 0
-2801 -81 2802 0
-2802 2794 0
-2800 2794 0
-2802 -2800 0
-80 2801 2803 0
-79 2801 2803 0
-79 -80 2803 0
-2803 2800 0
-2809 2543 2810 0
-2806 2543 2810 0
-2806 -2809 2810 0
-2810 2541 0
-2807 2541 0
-2810 -2807 2542 0
-2808 2542 0
-2810 -2808 0
-2804 2541 0
-2810 -2804 2542 0
-2805 2542 0
-2810 -2805 0
-2804 -2807 2542 0
-2810 -2804 -2807 0
-2804 -2808 0
-2810 -2804 -2808 0
-2805 -2807 0
-2810 -2805 -2807 0
-2805 -2808 0
-2810 -2805 -2808 0
-2816 2809 2817 0
-2813 2809 2817 0
-2813 -2816 2817 0
-2817 2807 0
-2814 2807 0
-2817 -2814 2808 0
-2815 2808 0
-2817 -2815 0
-2811 2807 0
-2817 -2811 2808 0
-2812 2808 0
-2817 -2812 0
-2811 -2814 2808 0
-2817 -2811 -2814 0
-2811 -2815 0
-2817 -2811 -2815 0
-2812 -2814 0
-2817 -2812 -2814 0
-2812 -2815 0
-2817 -2812 -2815 0
-2823 2816 2824 0
-2820 2816 2824 0
-2820 -2823 2824 0
-2824 2814 0
-2821 2814 0
-2824 -2821 2815 0
-2822 2815 0
-2824 -2822 0
-2818 2814 0
-2824 -2818 2815 0
-2819 2815 0
-2824 -2819 0
-2818 -2821 2815 0
-2824 -2818 -2821 0
-2818 -2822 0
-2824 -2818 -2822 0
-2819 -2821 0
-2824 -2819 -2821 0
-2819 -2822 0
-2824 -2819 -2822 0
-2830 2823 2831 0
-2827 2823 2831 0
-2827 -2830 2831 0
-2831 2821 0
-2828 2821 0
-2831 -2828 2822 0
-2829 2822 0
-2831 -2829 0
-2825 2821 0
-2831 -2825 2822 0
-2826 2822 0
-2831 -2826 0
-2825 -2828 2822 0
-2831 -2825 -2828 0
-2825 -2829 0
-2831 -2825 -2829 0
-2826 -2828 0
-2831 -2826 -2828 0
-2826 -2829 0
-2831 -2826 -2829 0
-2835 2830 2836 0
-2833 2830 2836 0
-2833 -2835 2836 0
-2836 2828 0
-2834 2828 0
-2836 -2834 2829 0
-2832 2828 0
-2836 -2832 2829 0
-2832 -2834 2829 0
-2836 -2832 -2834 0
-78 2835 2837 0
-77 2835 2837 0
-77 -78 2837 0
-2837 2834 0
-76 2833 2838 0
-75 2833 2838 0
-75 -76 2838 0
-2838 2832 0
-2842 2827 2843 0
-2840 2827 2843 0
-2840 -2842 2843 0
-2843 2825 0
-2841 2825 0
-2843 -2841 2826 0
-2839 2825 0
-2843 -2839 2826 0
-2839 -2841 2826 0
-2843 -2839 -2841 0
-74 2842 2844 0
-73 2842 2844 0
-73 -74 2844 0
-2844 2841 0
-72 2840 2847 0
-2846 2840 2847 0
-2846 -72 2847 0
-2847 2839 0
-2845 2839 0
-2847 -2845 0
-71 2846 2848 0
-70 2846 2848 0
-70 -71 2848 0
-2848 2845 0
-2854 2820 2855 0
-2851 2820 2855 0
-2851 -2854 2855 0
-2855 2818 0
-2852 2818 0
-2855 -2852 2819 0
-2853 2819 0
-2855 -2853 0
-2849 2818 0
-2855 -2849 2819 0
-2850 2819 0
-2855 -2850 0
-2849 -2852 2819 0
-2855 -2849 -2852 0
-2849 -2853 0
-2855 -2849 -2853 0
-2850 -2852 0
-2855 -2850 -2852 0
-2850 -2853 0
-2855 -2850 -2853 0
-2859 2854 2860 0
-2857 2854 2860 0
-2857 -2859 2860 0
-2860 2852 0
-2858 2852 0
-2860 -2858 2853 0
-2856 2852 0
-2860 -2856 2853 0
-2856 -2858 2853 0
-2860 -2856 -2858 0
-69 2859 2861 0
-68 2859 2861 0
-68 -69 2861 0
-2861 2858 0
-67 2857 2864 0
-2863 2857 2864 0
-2863 -67 2864 0
-2864 2856 0
-2862 2856 0
-2864 -2862 0
-66 2863 2865 0
-65 2863 2865 0
-65 -66 2865 0
-2865 2862 0
-2869 2851 2870 0
-2867 2851 2870 0
-2867 -2869 2870 0
-2870 2849 0
-2868 2849 0
-2870 -2868 2850 0
-2866 2849 0
-2870 -2866 2850 0
-2866 -2868 2850 0
-2870 -2866 -2868 0
-64 2869 2871 0
-63 2869 2871 0
-63 -64 2871 0
-2871 2868 0
-62 2867 2874 0
-2873 2867 2874 0
-2873 -62 2874 0
-2874 2866 0
-2872 2866 0
-2874 -2872 0
-61 2873 2875 0
-60 2873 2875 0
-60 -61 2875 0
-2875 2872 0
-2881 2813 2882 0
-2878 2813 2882 0
-2878 -2881 2882 0
-2882 2811 0
-2879 2811 0
-2882 -2879 2812 0
-2880 2812 0
-2882 -2880 0
-2876 2811 0
-2882 -2876 2812 0
-2877 2812 0
-2882 -2877 0
-2876 -2879 2812 0
-2882 -2876 -2879 0
-2876 -2880 0
-2882 -2876 -2880 0
-2877 -2879 0
-2882 -2877 -2879 0
-2877 -2880 0
-2882 -2877 -2880 0
-2888 2881 2889 0
-2885 2881 2889 0
-2885 -2888 2889 0
-2889 2879 0
-2886 2879 0
-2889 -2886 2880 0
-2887 2880 0
-2889 -2887 0
-2883 2879 0
-2889 -2883 2880 0
-2884 2880 0
-2889 -2884 0
-2883 -2886 2880 0
-2889 -2883 -2886 0
-2883 -2887 0
-2889 -2883 -2887 0
-2884 -2886 0
-2889 -2884 -2886 0
-2884 -2887 0
-2889 -2884 -2887 0
-2893 2888 2894 0
-2891 2888 2894 0
-2891 -2893 2894 0
-2894 2886 0
-2892 2886 0
-2894 -2892 2887 0
-2890 2886 0
-2894 -2890 2887 0
-2890 -2892 2887 0
-2894 -2890 -2892 0
-59 2893 2895 0
-58 2893 2895 0
-58 -59 2895 0
-2895 2892 0
-57 2891 2898 0
-2897 2891 2898 0
-2897 -57 2898 0
-2898 2890 0
-2896 2890 0
-2898 -2896 0
-56 2897 2899 0
-55 2897 2899 0
-55 -56 2899 0
-2899 2896 0
-2903 2885 2904 0
-2901 2885 2904 0
-2901 -2903 2904 0
-2904 2883 0
-2902 2883 0
-2904 -2902 2884 0
-2900 2883 0
-2904 -2900 2884 0
-2900 -2902 2884 0
-2904 -2900 -2902 0
-54 2903 2905 0
-53 2903 2905 0
-53 -54 2905 0
-2905 2902 0
-52 2901 2908 0
-2907 2901 2908 0
-2907 -52 2908 0
-2908 2900 0
-2906 2900 0
-2908 -2906 0
-51 2907 2909 0
-50 2907 2909 0
-50 -51 2909 0
-2909 2906 0
-2915 2878 2916 0
-2912 2878 2916 0
-2912 -2915 2916 0
-2916 2876 0
-2913 2876 0
-2916 -2913 2877 0
-2914 2877 0
-2916 -2914 0
-2910 2876 0
-2916 -2910 2877 0
-2911 2877 0
-2916 -2911 0
-2910 -2913 2877 0
-2916 -2910 -2913 0
-2910 -2914 0
-2916 -2910 -2914 0
-2911 -2913 0
-2916 -2911 -2913 0
-2911 -2914 0
-2916 -2911 -2914 0
-2920 2915 2921 0
-2918 2915 2921 0
-2918 -2920 2921 0
-2921 2913 0
-2919 2913 0
-2921 -2919 2914 0
-2917 2913 0
-2921 -2917 2914 0
-2917 -2919 2914 0
-2921 -2917 -2919 0
-49 2920 2922 0
-48 2920 2922 0
-48 -49 2922 0
-2922 2919 0
-47 2918 2925 0
-2924 2918 2925 0
-2924 -47 2925 0
-2925 2917 0
-2923 2917 0
-2925 -2923 0
-46 2924 2926 0
-45 2924 2926 0
-45 -46 2926 0
-2926 2923 0
-2930 2912 2931 0
-2928 2912 2931 0
-2928 -2930 2931 0
-2931 2910 0
-2929 2910 0
-2931 -2929 2911 0
-2927 2910 0
-2931 -2927 2911 0
-2927 -2929 2911 0
-2931 -2927 -2929 0
-44 2930 2932 0
-43 2930 2932 0
-43 -44 2932 0
-2932 2929 0
-42 2928 2935 0
-2934 2928 2935 0
-2934 -42 2935 0
-2935 2927 0
-2933 2927 0
-2935 -2933 0
-41 2934 2936 0
-40 2934 2936 0
-40 -41 2936 0
-2936 2933 0
-2942 2806 2943 0
-2939 2806 2943 0
-2939 -2942 2943 0
-2943 2804 0
-2940 2804 0
-2943 -2940 2805 0
-2941 2805 0
-2943 -2941 0
-2937 2804 0
-2943 -2937 2805 0
-2938 2805 0
-2943 -2938 0
-2937 -2940 2805 0
-2943 -2937 -2940 0
-2937 -2941 0
-2943 -2937 -2941 0
-2938 -2940 0
-2943 -2938 -2940 0
-2938 -2941 0
-2943 -2938 -2941 0
-2949 2942 2950 0
-2946 2942 2950 0
-2946 -2949 2950 0
-2950 2940 0
-2947 2940 0
-2950 -2947 2941 0
-2948 2941 0
-2950 -2948 0
-2944 2940 0
-2950 -2944 2941 0
-2945 2941 0
-2950 -2945 0
-2944 -2947 2941 0
-2950 -2944 -2947 0
-2944 -2948 0
-2950 -2944 -2948 0
-2945 -2947 0
-2950 -2945 -2947 0
-2945 -2948 0
-2950 -2945 -2948 0
-2956 2949 2957 0
-2953 2949 2957 0
-2953 -2956 2957 0
-2957 2947 0
-2954 2947 0
-2957 -2954 2948 0
-2955 2948 0
-2957 -2955 0
-2951 2947 0
-2957 -2951 2948 0
-2952 2948 0
-2957 -2952 0
-2951 -2954 2948 0
-2957 -2951 -2954 0
-2951 -2955 0
-2957 -2951 -2955 0
-2952 -2954 0
-2957 -2952 -2954 0
-2952 -2955 0
-2957 -2952 -2955 0
-2961 2956 2962 0
-2959 2956 2962 0
-2959 -2961 2962 0
-2962 2954 0
-2960 2954 0
-2962 -2960 2955 0
-2958 2954 0
-2962 -2958 2955 0
-2958 -2960 2955 0
-2962 -2958 -2960 0
-39 2961 2963 0
-38 2961 2963 0
-38 -39 2963 0
-2963 2960 0
-37 2959 2964 0
-36 2959 2964 0
-36 -37 2964 0
-2964 2958 0
-2968 2953 2969 0
-2966 2953 2969 0
-2966 -2968 2969 0
-2969 2951 0
-2967 2951 0
-2969 -2967 2952 0
-2965 2951 0
-2969 -2965 2952 0
-2965 -2967 2952 0
-2969 -2965 -2967 0
-35 2968 2970 0
-34 2968 2970 0
-34 -35 2970 0
-2970 2967 0
-33 2966 2973 0
-2972 2966 2973 0
-2972 -33 2973 0
-2973 2965 0
-2971 2965 0
-2973 -2971 0
-32 2972 2974 0
-31 2972 2974 0
-31 -32 2974 0
-2974 2971 0
-2980 2946 2981 0
-2977 2946 2981 0
-2977 -2980 2981 0
-2981 2944 0
-2978 2944 0
-2981 -2978 2945 0
-2979 2945 0
-2981 -2979 0
-2975 2944 0
-2981 -2975 2945 0
-2976 2945 0
-2981 -2976 0
-2975 -2978 2945 0
-2981 -2975 -2978 0
-2975 -2979 0
-2981 -2975 -2979 0
-2976 -2978 0
-2981 -2976 -2978 0
-2976 -2979 0
-2981 -2976 -2979 0
-2985 2980 2986 0
-2983 2980 2986 0
-2983 -2985 2986 0
-2986 2978 0
-2984 2978 0
-2986 -2984 2979 0
-2982 2978 0
-2986 -2982 2979 0
-2982 -2984 2979 0
-2986 -2982 -2984 0
-30 2985 2987 0
-29 2985 2987 0
-29 -30 2987 0
-2987 2984 0
-28 2983 2990 0
-2989 2983 2990 0
-2989 -28 2990 0
-2990 2982 0
-2988 2982 0
-2990 -2988 0
-27 2989 2991 0
-26 2989 2991 0
-26 -27 2991 0
-2991 2988 0
-2995 2977 2996 0
-2993 2977 2996 0
-2993 -2995 2996 0
-2996 2975 0
-2994 2975 0
-2996 -2994 2976 0
-2992 2975 0
-2996 -2992 2976 0
-2992 -2994 2976 0
-2996 -2992 -2994 0
-25 2995 2997 0
-24 2995 2997 0
-24 -25 2997 0
-2997 2994 0
-23 2993 3000 0
-2999 2993 3000 0
-2999 -23 3000 0
-3000 2992 0
-2998 2992 0
-3000 -2998 0
-22 2999 3001 0
-21 2999 3001 0
-21 -22 3001 0
-3001 2998 0
-3007 2939 3008 0
-3004 2939 3008 0
-3004 -3007 3008 0
-3008 2937 0
-3005 2937 0
-3008 -3005 2938 0
-3006 2938 0
-3008 -3006 0
-3002 2937 0
-3008 -3002 2938 0
-3003 2938 0
-3008 -3003 0
-3002 -3005 2938 0
-3008 -3002 -3005 0
-3002 -3006 0
-3008 -3002 -3006 0
-3003 -3005 0
-3008 -3003 -3005 0
-3003 -3006 0
-3008 -3003 -3006 0
-3014 3007 3015 0
-3011 3007 3015 0
-3011 -3014 3015 0
-3015 3005 0
-3012 3005 0
-3015 -3012 3006 0
-3013 3006 0
-3015 -3013 0
-3009 3005 0
-3015 -3009 3006 0
-3010 3006 0
-3015 -3010 0
-3009 -3012 3006 0
-3015 -3009 -3012 0
-3009 -3013 0
-3015 -3009 -3013 0
-3010 -3012 0
-3015 -3010 -3012 0
-3010 -3013 0
-3015 -3010 -3013 0
-3019 3014 3020 0
-3017 3014 3020 0
-3017 -3019 3020 0
-3020 3012 0
-3018 3012 0
-3020 -3018 3013 0
-3016 3012 0
-3020 -3016 3013 0
-3016 -3018 3013 0
-3020 -3016 -3018 0
-20 3019 3021 0
-19 3019 3021 0
-19 -20 3021 0
-3021 3018 0
-18 3017 3024 0
-3023 3017 3024 0
-3023 -18 3024 0
-3024 3016 0
-3022 3016 0
-3024 -3022 0
-17 3023 3025 0
-16 3023 3025 0
-16 -17 3025 0
-3025 3022 0
-3029 3011 3030 0
-3027 3011 3030 0
-3027 -3029 3030 0
-3030 3009 0
-3028 3009 0
-3030 -3028 3010 0
-3026 3009 0
-3030 -3026 3010 0
-3026 -3028 3010 0
-3030 -3026 -3028 0
-15 3029 3031 0
-14 3029 3031 0
-14 -15 3031 0
-3031 3028 0
-13 3027 3034 0
-3033 3027 3034 0
-3033 -13 3034 0
-3034 3026 0
-3032 3026 0
-3034 -3032 0
-12 3033 3035 0
-11 3033 3035 0
-11 -12 3035 0
-3035 3032 0
-3041 3004 3042 0
-3038 3004 3042 0
-3038 -3041 3042 0
-3042 3002 0
-3039 3002 0
-3042 -3039 3003 0
-3040 3003 0
-3042 -3040 0
-3036 3002 0
-3042 -3036 3003 0
-3037 3003 0
-3042 -3037 0
-3036 -3039 3003 0
-3042 -3036 -3039 0
-3036 -3040 0
-3042 -3036 -3040 0
-3037 -3039 0
-3042 -3037 -3039 0
-3037 -3040 0
-3042 -3037 -3040 0
-3046 3041 3047 0
-3044 3041 3047 0
-3044 -3046 3047 0
-3047 3039 0
-3045 3039 0
-3047 -3045 3040 0
-3043 3039 0
-3047 -3043 3040 0
-3043 -3045 3040 0
-3047 -3043 -3045 0
-10 3046 3048 0
-9 3046 3048 0
-9 -10 3048 0
-3048 3045 0
-8 3044 3051 0
-3050 3044 3051 0
-3050 -8 3051 0
-3051 3043 0
-3049 3043 0
-3051 -3049 0
-7 3050 3052 0
-6 3050 3052 0
-6 -7 3052 0
-3052 3049 0
-3056 3038 3057 0
-3054 3038 3057 0
-3054 -3056 3057 0
-3057 3036 0
-3055 3036 0
-3057 -3055 3037 0
-3053 3036 0
-3057 -3053 3037 0
-3053 -3055 3037 0
-3057 -3053 -3055 0
-5 3056 3058 0
-4 3056 3058 0
-4 -5 3058 0
-3058 3055 0
-3 3054 3061 0
-3060 3054 3061 0
-3060 -3 3061 0
-3061 3053 0
-3059 3053 0
-3061 -3059 0
-2 3060 3062 0
-1 3060 3062 0
-1 -2 3062 0
-3062 3059 0
