p cnf 2067 6454
1 104 -217 0
-1 -104 -217 0
1 -104 217 0
-1 104 217 0
217 105 -218 0
-217 -105 -218 0
217 -105 218 0
-217 105 218 0
218 108 -219 0
-218 -108 -219 0
218 -108 219 0
-218 108 219 0
219 109 -220 0
-219 -109 -220 0
219 -109 220 0
-219 109 220 0
220 197 -221 0
-220 -197 -221 0
220 -197 221 0
-220 197 221 0
221 205 -222 0
-221 -205 -222 0
221 -205 222 0
-221 205 222 0
222 209 -223 0
-222 -209 -223 0
222 -209 223 0
-222 209 223 0
-223 0
1 2 -224 0
-1 -2 -224 0
1 -2 224 0
-1 2 224 0
224 105 -225 0
-224 -105 -225 0
224 -105 225 0
-224 105 225 0
225 106 -226 0
-225 -106 -226 0
225 -106 226 0
-225 106 226 0
226 110 -227 0
-226 -110 -227 0
226 -110 227 0
-226 110 227 0
227 198 -228 0
-227 -198 -228 0
227 -198 228 0
-227 198 228 0
228 206 -229 0
-228 -206 -229 0
228 -206 229 0
-228 206 229 0
229 210 -230 0
-229 -210 -230 0
229 -210 230 0
-229 210 230 0
-230 0
2 3 -231 0
-2 -3 -231 0
2 -3 231 0
-2 3 231 0
231 106 -232 0
-231 -106 -232 0
231 -106 232 0
-231 106 232 0
232 107 -233 0
-232 -107 -233 0
232 -107 233 0
-232 107 233 0
233 111 -234 0
-233 -111 -234 0
233 -111 234 0
-233 111 234 0
234 199 -235 0
-234 -199 -235 0
234 -199 235 0
-234 199 235 0
235 207 -236 0
-235 -207 -236 0
235 -207 236 0
-235 207 236 0
236 211 -237 0
-236 -211 -237 0
236 -211 237 0
-236 211 237 0
-237 0
3 4 -238 0
-3 -4 -238 0
3 -4 238 0
-3 4 238 0
238 107 -239 0
-238 -107 -239 0
238 -107 239 0
-238 107 239 0
239 108 -240 0
-239 -108 -240 0
239 -108 240 0
-239 108 240 0
240 112 -241 0
-240 -112 -241 0
240 -112 241 0
-240 112 241 0
241 200 -242 0
-241 -200 -242 0
241 -200 242 0
-241 200 242 0
242 208 -243 0
-242 -208 -243 0
242 -208 243 0
-242 208 243 0
243 212 -244 0
-243 -212 -244 0
243 -212 244 0
-243 212 244 0
-244 0
1 4 -245 0
-1 -4 -245 0
1 -4 245 0
-1 4 245 0
245 5 -246 0
-245 -5 -246 0
245 -5 246 0
-245 5 246 0
246 108 -247 0
-246 -108 -247 0
246 -108 247 0
-246 108 247 0
247 113 -248 0
-247 -113 -248 0
247 -113 248 0
-247 113 248 0
248 201 -249 0
-248 -201 -249 0
248 -201 249 0
-248 201 249 0
249 209 -250 0
-249 -209 -250 0
249 -209 250 0
-249 209 250 0
250 213 -251 0
-250 -213 -251 0
250 -213 251 0
-250 213 251 0
-251 0
1 2 -252 0
-1 -2 -252 0
1 -2 252 0
-1 2 252 0
252 5 -253 0
-252 -5 -253 0
252 -5 253 0
-252 5 253 0
253 6 -254 0
-253 -6 -254 0
253 -6 254 0
-253 6 254 0
254 114 -255 0
-254 -114 -255 0
254 -114 255 0
-254 114 255 0
255 202 -256 0
-255 -202 -256 0
255 -202 256 0
-255 202 256 0
256 210 -257 0
-256 -210 -257 0
256 -210 257 0
-256 210 257 0
257 214 -258 0
-257 -214 -258 0
257 -214 258 0
-257 214 258 0
-258 0
2 3 -259 0
-2 -3 -259 0
2 -3 259 0
-2 3 259 0
259 6 -260 0
-259 -6 -260 0
259 -6 260 0
-259 6 260 0
260 7 -261 0
-260 -7 -261 0
260 -7 261 0
-260 7 261 0
261 115 -262 0
-261 -115 -262 0
261 -115 262 0
-261 115 262 0
262 203 -263 0
-262 -203 -263 0
262 -203 263 0
-262 203 263 0
263 211 -264 0
-263 -211 -264 0
263 -211 264 0
-263 211 264 0
264 215 -265 0
-264 -215 -265 0
264 -215 265 0
-264 215 265 0
-265 0
3 4 -266 0
-3 -4 -266 0
3 -4 266 0
-3 4 266 0
266 7 -267 0
-266 -7 -267 0
266 -7 267 0
-266 7 267 0
267 8 -268 0
-267 -8 -268 0
267 -8 268 0
-267 8 268 0
268 116 -269 0
-268 -116 -269 0
268 -116 269 0
-268 116 269 0
269 204 -270 0
-269 -204 -270 0
269 -204 270 0
-269 204 270 0
270 212 -271 0
-270 -212 -271 0
270 -212 271 0
-270 212 271 0
271 216 -272 0
-271 -216 -272 0
271 -216 272 0
-271 216 272 0
-272 0
4 5 -273 0
-4 -5 -273 0
4 -5 273 0
-4 5 273 0
273 8 -274 0
-273 -8 -274 0
273 -8 274 0
-273 8 274 0
274 9 -275 0
-274 -9 -275 0
274 -9 275 0
-274 9 275 0
275 109 -276 0
-275 -109 -276 0
275 -109 276 0
-275 109 276 0
276 117 -277 0
-276 -117 -277 0
276 -117 277 0
-276 117 277 0
277 205 -278 0
-277 -205 -278 0
277 -205 278 0
-277 205 278 0
278 213 -279 0
-278 -213 -279 0
278 -213 279 0
-278 213 279 0
-279 0
5 6 -280 0
-5 -6 -280 0
5 -6 280 0
-5 6 280 0
280 9 -281 0
-280 -9 -281 0
280 -9 281 0
-280 9 281 0
281 10 -282 0
-281 -10 -282 0
281 -10 282 0
-281 10 282 0
282 110 -283 0
-282 -110 -283 0
282 -110 283 0
-282 110 283 0
283 118 -284 0
-283 -118 -284 0
283 -118 284 0
-283 118 284 0
284 206 -285 0
-284 -206 -285 0
284 -206 285 0
-284 206 285 0
285 214 -286 0
-285 -214 -286 0
285 -214 286 0
-285 214 286 0
-286 0
6 7 -287 0
-6 -7 -287 0
6 -7 287 0
-6 7 287 0
287 10 -288 0
-287 -10 -288 0
287 -10 288 0
-287 10 288 0
288 11 -289 0
-288 -11 -289 0
288 -11 289 0
-288 11 289 0
289 111 -290 0
-289 -111 -290 0
289 -111 290 0
-289 111 290 0
290 119 -291 0
-290 -119 -291 0
290 -119 291 0
-290 119 291 0
291 207 -292 0
-291 -207 -292 0
291 -207 292 0
-291 207 292 0
292 215 -293 0
-292 -215 -293 0
292 -215 293 0
-292 215 293 0
-293 0
7 8 -294 0
-7 -8 -294 0
7 -8 294 0
-7 8 294 0
294 11 -295 0
-294 -11 -295 0
294 -11 295 0
-294 11 295 0
295 12 -296 0
-295 -12 -296 0
295 -12 296 0
-295 12 296 0
296 112 -297 0
-296 -112 -297 0
296 -112 297 0
-296 112 297 0
297 120 -298 0
-297 -120 -298 0
297 -120 298 0
-297 120 298 0
298 208 -299 0
-298 -208 -299 0
298 -208 299 0
-298 208 299 0
299 216 -300 0
-299 -216 -300 0
299 -216 300 0
-299 216 300 0
-300 0
8 9 -301 0
-8 -9 -301 0
8 -9 301 0
-8 9 301 0
301 12 -302 0
-301 -12 -302 0
301 -12 302 0
-301 12 302 0
302 13 -303 0
-302 -13 -303 0
302 -13 303 0
-302 13 303 0
303 109 -304 0
-303 -109 -304 0
303 -109 304 0
-303 109 304 0
304 113 -305 0
-304 -113 -305 0
304 -113 305 0
-304 113 305 0
305 121 -306 0
-305 -121 -306 0
305 -121 306 0
-305 121 306 0
306 209 -307 0
-306 -209 -307 0
306 -209 307 0
-306 209 307 0
-307 0
9 10 -308 0
-9 -10 -308 0
9 -10 308 0
-9 10 308 0
308 13 -309 0
-308 -13 -309 0
308 -13 309 0
-308 13 309 0
309 14 -310 0
-309 -14 -310 0
309 -14 310 0
-309 14 310 0
310 110 -311 0
-310 -110 -311 0
310 -110 311 0
-310 110 311 0
311 114 -312 0
-311 -114 -312 0
311 -114 312 0
-311 114 312 0
312 122 -313 0
-312 -122 -313 0
312 -122 313 0
-312 122 313 0
313 210 -314 0
-313 -210 -314 0
313 -210 314 0
-313 210 314 0
-314 0
10 11 -315 0
-10 -11 -315 0
10 -11 315 0
-10 11 315 0
315 14 -316 0
-315 -14 -316 0
315 -14 316 0
-315 14 316 0
316 15 -317 0
-316 -15 -317 0
316 -15 317 0
-316 15 317 0
317 111 -318 0
-317 -111 -318 0
317 -111 318 0
-317 111 318 0
318 115 -319 0
-318 -115 -319 0
318 -115 319 0
-318 115 319 0
319 123 -320 0
-319 -123 -320 0
319 -123 320 0
-319 123 320 0
320 211 -321 0
-320 -211 -321 0
320 -211 321 0
-320 211 321 0
-321 0
11 12 -322 0
-11 -12 -322 0
11 -12 322 0
-11 12 322 0
322 15 -323 0
-322 -15 -323 0
322 -15 323 0
-322 15 323 0
323 16 -324 0
-323 -16 -324 0
323 -16 324 0
-323 16 324 0
324 112 -325 0
-324 -112 -325 0
324 -112 325 0
-324 112 325 0
325 116 -326 0
-325 -116 -326 0
325 -116 326 0
-325 116 326 0
326 124 -327 0
-326 -124 -327 0
326 -124 327 0
-326 124 327 0
327 212 -328 0
-327 -212 -328 0
327 -212 328 0
-327 212 328 0
-328 0
12 13 -329 0
-12 -13 -329 0
12 -13 329 0
-12 13 329 0
329 16 -330 0
-329 -16 -330 0
329 -16 330 0
-329 16 330 0
330 17 -331 0
-330 -17 -331 0
330 -17 331 0
-330 17 331 0
331 113 -332 0
-331 -113 -332 0
331 -113 332 0
-331 113 332 0
332 117 -333 0
-332 -117 -333 0
332 -117 333 0
-332 117 333 0
333 125 -334 0
-333 -125 -334 0
333 -125 334 0
-333 125 334 0
334 213 -335 0
-334 -213 -335 0
334 -213 335 0
-334 213 335 0
-335 0
13 14 -336 0
-13 -14 -336 0
13 -14 336 0
-13 14 336 0
336 17 -337 0
-336 -17 -337 0
336 -17 337 0
-336 17 337 0
337 18 -338 0
-337 -18 -338 0
337 -18 338 0
-337 18 338 0
338 114 -339 0
-338 -114 -339 0
338 -114 339 0
-338 114 339 0
339 118 -340 0
-339 -118 -340 0
339 -118 340 0
-339 118 340 0
340 126 -341 0
-340 -126 -341 0
340 -126 341 0
-340 126 341 0
341 214 -342 0
-341 -214 -342 0
341 -214 342 0
-341 214 342 0
-342 0
14 15 -343 0
-14 -15 -343 0
14 -15 343 0
-14 15 343 0
343 18 -344 0
-343 -18 -344 0
343 -18 344 0
-343 18 344 0
344 19 -345 0
-344 -19 -345 0
344 -19 345 0
-344 19 345 0
345 115 -346 0
-345 -115 -346 0
345 -115 346 0
-345 115 346 0
346 119 -347 0
-346 -119 -347 0
346 -119 347 0
-346 119 347 0
347 127 -348 0
-347 -127 -348 0
347 -127 348 0
-347 127 348 0
348 215 -349 0
-348 -215 -349 0
348 -215 349 0
-348 215 349 0
-349 0
15 16 -350 0
-15 -16 -350 0
15 -16 350 0
-15 16 350 0
350 19 -351 0
-350 -19 -351 0
350 -19 351 0
-350 19 351 0
351 20 -352 0
-351 -20 -352 0
351 -20 352 0
-351 20 352 0
352 116 -353 0
-352 -116 -353 0
352 -116 353 0
-352 116 353 0
353 120 -354 0
-353 -120 -354 0
353 -120 354 0
-353 120 354 0
354 128 -355 0
-354 -128 -355 0
354 -128 355 0
-354 128 355 0
355 216 -356 0
-355 -216 -356 0
355 -216 356 0
-355 216 356 0
-356 0
16 17 -357 0
-16 -17 -357 0
16 -17 357 0
-16 17 357 0
357 20 -358 0
-357 -20 -358 0
357 -20 358 0
-357 20 358 0
358 21 -359 0
-358 -21 -359 0
358 -21 359 0
-358 21 359 0
359 109 -360 0
-359 -109 -360 0
359 -109 360 0
-359 109 360 0
360 117 -361 0
-360 -117 -361 0
360 -117 361 0
-360 117 361 0
361 121 -362 0
-361 -121 -362 0
361 -121 362 0
-361 121 362 0
362 129 -363 0
-362 -129 -363 0
362 -129 363 0
-362 129 363 0
-363 0
17 18 -364 0
-17 -18 -364 0
17 -18 364 0
-17 18 364 0
364 21 -365 0
-364 -21 -365 0
364 -21 365 0
-364 21 365 0
365 22 -366 0
-365 -22 -366 0
365 -22 366 0
-365 22 366 0
366 110 -367 0
-366 -110 -367 0
366 -110 367 0
-366 110 367 0
367 118 -368 0
-367 -118 -368 0
367 -118 368 0
-367 118 368 0
368 122 -369 0
-368 -122 -369 0
368 -122 369 0
-368 122 369 0
369 130 -370 0
-369 -130 -370 0
369 -130 370 0
-369 130 370 0
-370 0
18 19 -371 0
-18 -19 -371 0
18 -19 371 0
-18 19 371 0
371 22 -372 0
-371 -22 -372 0
371 -22 372 0
-371 22 372 0
372 23 -373 0
-372 -23 -373 0
372 -23 373 0
-372 23 373 0
373 111 -374 0
-373 -111 -374 0
373 -111 374 0
-373 111 374 0
374 119 -375 0
-374 -119 -375 0
374 -119 375 0
-374 119 375 0
375 123 -376 0
-375 -123 -376 0
375 -123 376 0
-375 123 376 0
376 131 -377 0
-376 -131 -377 0
376 -131 377 0
-376 131 377 0
-377 0
19 20 -378 0
-19 -20 -378 0
19 -20 378 0
-19 20 378 0
378 23 -379 0
-378 -23 -379 0
378 -23 379 0
-378 23 379 0
379 24 -380 0
-379 -24 -380 0
379 -24 380 0
-379 24 380 0
380 112 -381 0
-380 -112 -381 0
380 -112 381 0
-380 112 381 0
381 120 -382 0
-381 -120 -382 0
381 -120 382 0
-381 120 382 0
382 124 -383 0
-382 -124 -383 0
382 -124 383 0
-382 124 383 0
383 132 -384 0
-383 -132 -384 0
383 -132 384 0
-383 132 384 0
-384 0
20 21 -385 0
-20 -21 -385 0
20 -21 385 0
-20 21 385 0
385 24 -386 0
-385 -24 -386 0
385 -24 386 0
-385 24 386 0
386 25 -387 0
-386 -25 -387 0
386 -25 387 0
-386 25 387 0
387 113 -388 0
-387 -113 -388 0
387 -113 388 0
-387 113 388 0
388 121 -389 0
-388 -121 -389 0
388 -121 389 0
-388 121 389 0
389 125 -390 0
-389 -125 -390 0
389 -125 390 0
-389 125 390 0
390 133 -391 0
-390 -133 -391 0
390 -133 391 0
-390 133 391 0
-391 0
21 22 -392 0
-21 -22 -392 0
21 -22 392 0
-21 22 392 0
392 25 -393 0
-392 -25 -393 0
392 -25 393 0
-392 25 393 0
393 26 -394 0
-393 -26 -394 0
393 -26 394 0
-393 26 394 0
394 114 -395 0
-394 -114 -395 0
394 -114 395 0
-394 114 395 0
395 122 -396 0
-395 -122 -396 0
395 -122 396 0
-395 122 396 0
396 126 -397 0
-396 -126 -397 0
396 -126 397 0
-396 126 397 0
397 134 -398 0
-397 -134 -398 0
397 -134 398 0
-397 134 398 0
-398 0
22 23 -399 0
-22 -23 -399 0
22 -23 399 0
-22 23 399 0
399 26 -400 0
-399 -26 -400 0
399 -26 400 0
-399 26 400 0
400 27 -401 0
-400 -27 -401 0
400 -27 401 0
-400 27 401 0
401 115 -402 0
-401 -115 -402 0
401 -115 402 0
-401 115 402 0
402 123 -403 0
-402 -123 -403 0
402 -123 403 0
-402 123 403 0
403 127 -404 0
-403 -127 -404 0
403 -127 404 0
-403 127 404 0
404 135 -405 0
-404 -135 -405 0
404 -135 405 0
-404 135 405 0
-405 0
23 24 -406 0
-23 -24 -406 0
23 -24 406 0
-23 24 406 0
406 27 -407 0
-406 -27 -407 0
406 -27 407 0
-406 27 407 0
407 28 -408 0
-407 -28 -408 0
407 -28 408 0
-407 28 408 0
408 116 -409 0
-408 -116 -409 0
408 -116 409 0
-408 116 409 0
409 124 -410 0
-409 -124 -410 0
409 -124 410 0
-409 124 410 0
410 128 -411 0
-410 -128 -411 0
410 -128 411 0
-410 128 411 0
411 136 -412 0
-411 -136 -412 0
411 -136 412 0
-411 136 412 0
-412 0
24 25 -413 0
-24 -25 -413 0
24 -25 413 0
-24 25 413 0
413 28 -414 0
-413 -28 -414 0
413 -28 414 0
-413 28 414 0
414 29 -415 0
-414 -29 -415 0
414 -29 415 0
-414 29 415 0
415 117 -416 0
-415 -117 -416 0
415 -117 416 0
-415 117 416 0
416 125 -417 0
-416 -125 -417 0
416 -125 417 0
-416 125 417 0
417 129 -418 0
-417 -129 -418 0
417 -129 418 0
-417 129 418 0
418 137 -419 0
-418 -137 -419 0
418 -137 419 0
-418 137 419 0
-419 0
25 26 -420 0
-25 -26 -420 0
25 -26 420 0
-25 26 420 0
420 29 -421 0
-420 -29 -421 0
420 -29 421 0
-420 29 421 0
421 30 -422 0
-421 -30 -422 0
421 -30 422 0
-421 30 422 0
422 118 -423 0
-422 -118 -423 0
422 -118 423 0
-422 118 423 0
423 126 -424 0
-423 -126 -424 0
423 -126 424 0
-423 126 424 0
424 130 -425 0
-424 -130 -425 0
424 -130 425 0
-424 130 425 0
425 138 -426 0
-425 -138 -426 0
425 -138 426 0
-425 138 426 0
-426 0
26 27 -427 0
-26 -27 -427 0
26 -27 427 0
-26 27 427 0
427 30 -428 0
-427 -30 -428 0
427 -30 428 0
-427 30 428 0
428 31 -429 0
-428 -31 -429 0
428 -31 429 0
-428 31 429 0
429 119 -430 0
-429 -119 -430 0
429 -119 430 0
-429 119 430 0
430 127 -431 0
-430 -127 -431 0
430 -127 431 0
-430 127 431 0
431 131 -432 0
-431 -131 -432 0
431 -131 432 0
-431 131 432 0
432 139 -433 0
-432 -139 -433 0
432 -139 433 0
-432 139 433 0
-433 0
27 28 -434 0
-27 -28 -434 0
27 -28 434 0
-27 28 434 0
434 31 -435 0
-434 -31 -435 0
434 -31 435 0
-434 31 435 0
435 32 -436 0
-435 -32 -436 0
435 -32 436 0
-435 32 436 0
436 120 -437 0
-436 -120 -437 0
436 -120 437 0
-436 120 437 0
437 128 -438 0
-437 -128 -438 0
437 -128 438 0
-437 128 438 0
438 132 -439 0
-438 -132 -439 0
438 -132 439 0
-438 132 439 0
439 140 -440 0
-439 -140 -440 0
439 -140 440 0
-439 140 440 0
-440 0
28 29 -441 0
-28 -29 -441 0
28 -29 441 0
-28 29 441 0
441 32 -442 0
-441 -32 -442 0
441 -32 442 0
-441 32 442 0
442 33 -443 0
-442 -33 -443 0
442 -33 443 0
-442 33 443 0
443 121 -444 0
-443 -121 -444 0
443 -121 444 0
-443 121 444 0
444 129 -445 0
-444 -129 -445 0
444 -129 445 0
-444 129 445 0
445 133 -446 0
-445 -133 -446 0
445 -133 446 0
-445 133 446 0
446 141 -447 0
-446 -141 -447 0
446 -141 447 0
-446 141 447 0
-447 0
29 30 -448 0
-29 -30 -448 0
29 -30 448 0
-29 30 448 0
448 33 -449 0
-448 -33 -449 0
448 -33 449 0
-448 33 449 0
449 34 -450 0
-449 -34 -450 0
449 -34 450 0
-449 34 450 0
450 122 -451 0
-450 -122 -451 0
450 -122 451 0
-450 122 451 0
451 130 -452 0
-451 -130 -452 0
451 -130 452 0
-451 130 452 0
452 134 -453 0
-452 -134 -453 0
452 -134 453 0
-452 134 453 0
453 142 -454 0
-453 -142 -454 0
453 -142 454 0
-453 142 454 0
-454 0
30 31 -455 0
-30 -31 -455 0
30 -31 455 0
-30 31 455 0
455 34 -456 0
-455 -34 -456 0
455 -34 456 0
-455 34 456 0
456 35 -457 0
-456 -35 -457 0
456 -35 457 0
-456 35 457 0
457 123 -458 0
-457 -123 -458 0
457 -123 458 0
-457 123 458 0
458 131 -459 0
-458 -131 -459 0
458 -131 459 0
-458 131 459 0
459 135 -460 0
-459 -135 -460 0
459 -135 460 0
-459 135 460 0
460 143 -461 0
-460 -143 -461 0
460 -143 461 0
-460 143 461 0
-461 0
31 32 -462 0
-31 -32 -462 0
31 -32 462 0
-31 32 462 0
462 35 -463 0
-462 -35 -463 0
462 -35 463 0
-462 35 463 0
463 36 -464 0
-463 -36 -464 0
463 -36 464 0
-463 36 464 0
464 124 -465 0
-464 -124 -465 0
464 -124 465 0
-464 124 465 0
465 132 -466 0
-465 -132 -466 0
465 -132 466 0
-465 132 466 0
466 136 -467 0
-466 -136 -467 0
466 -136 467 0
-466 136 467 0
467 144 -468 0
-467 -144 -468 0
467 -144 468 0
-467 144 468 0
-468 0
32 33 -469 0
-32 -33 -469 0
32 -33 469 0
-32 33 469 0
469 36 -470 0
-469 -36 -470 0
469 -36 470 0
-469 36 470 0
470 37 -471 0
-470 -37 -471 0
470 -37 471 0
-470 37 471 0
471 125 -472 0
-471 -125 -472 0
471 -125 472 0
-471 125 472 0
472 133 -473 0
-472 -133 -473 0
472 -133 473 0
-472 133 473 0
473 137 -474 0
-473 -137 -474 0
473 -137 474 0
-473 137 474 0
474 145 -475 0
-474 -145 -475 0
474 -145 475 0
-474 145 475 0
-475 0
33 34 -476 0
-33 -34 -476 0
33 -34 476 0
-33 34 476 0
476 37 -477 0
-476 -37 -477 0
476 -37 477 0
-476 37 477 0
477 38 -478 0
-477 -38 -478 0
477 -38 478 0
-477 38 478 0
478 126 -479 0
-478 -126 -479 0
478 -126 479 0
-478 126 479 0
479 134 -480 0
-479 -134 -480 0
479 -134 480 0
-479 134 480 0
480 138 -481 0
-480 -138 -481 0
480 -138 481 0
-480 138 481 0
481 146 -482 0
-481 -146 -482 0
481 -146 482 0
-481 146 482 0
-482 0
34 35 -483 0
-34 -35 -483 0
34 -35 483 0
-34 35 483 0
483 38 -484 0
-483 -38 -484 0
483 -38 484 0
-483 38 484 0
484 39 -485 0
-484 -39 -485 0
484 -39 485 0
-484 39 485 0
485 127 -486 0
-485 -127 -486 0
485 -127 486 0
-485 127 486 0
486 135 -487 0
-486 -135 -487 0
486 -135 487 0
-486 135 487 0
487 139 -488 0
-487 -139 -488 0
487 -139 488 0
-487 139 488 0
488 147 -489 0
-488 -147 -489 0
488 -147 489 0
-488 147 489 0
-489 0
35 36 -490 0
-35 -36 -490 0
35 -36 490 0
-35 36 490 0
490 39 -491 0
-490 -39 -491 0
490 -39 491 0
-490 39 491 0
491 40 -492 0
-491 -40 -492 0
491 -40 492 0
-491 40 492 0
492 128 -493 0
-492 -128 -493 0
492 -128 493 0
-492 128 493 0
493 136 -494 0
-493 -136 -494 0
493 -136 494 0
-493 136 494 0
494 140 -495 0
-494 -140 -495 0
494 -140 495 0
-494 140 495 0
495 148 -496 0
-495 -148 -496 0
495 -148 496 0
-495 148 496 0
-496 0
36 37 -497 0
-36 -37 -497 0
36 -37 497 0
-36 37 497 0
497 40 -498 0
-497 -40 -498 0
497 -40 498 0
-497 40 498 0
498 41 -499 0
-498 -41 -499 0
498 -41 499 0
-498 41 499 0
499 129 -500 0
-499 -129 -500 0
499 -129 500 0
-499 129 500 0
500 137 -501 0
-500 -137 -501 0
500 -137 501 0
-500 137 501 0
501 141 -502 0
-501 -141 -502 0
501 -141 502 0
-501 141 502 0
502 149 -503 0
-502 -149 -503 0
502 -149 503 0
-502 149 503 0
-503 0
37 38 -504 0
-37 -38 -504 0
37 -38 504 0
-37 38 504 0
504 41 -505 0
-504 -41 -505 0
504 -41 505 0
-504 41 505 0
505 42 -506 0
-505 -42 -506 0
505 -42 506 0
-505 42 506 0
506 130 -507 0
-506 -130 -507 0
506 -130 507 0
-506 130 507 0
507 138 -508 0
-507 -138 -508 0
507 -138 508 0
-507 138 508 0
508 142 -509 0
-508 -142 -509 0
508 -142 509 0
-508 142 509 0
509 150 -510 0
-509 -150 -510 0
509 -150 510 0
-509 150 510 0
-510 0
38 39 -511 0
-38 -39 -511 0
38 -39 511 0
-38 39 511 0
511 42 -512 0
-511 -42 -512 0
511 -42 512 0
-511 42 512 0
512 43 -513 0
-512 -43 -513 0
512 -43 513 0
-512 43 513 0
513 131 -514 0
-513 -131 -514 0
513 -131 514 0
-513 131 514 0
514 139 -515 0
-514 -139 -515 0
514 -139 515 0
-514 139 515 0
515 143 -516 0
-515 -143 -516 0
515 -143 516 0
-515 143 516 0
516 151 -517 0
-516 -151 -517 0
516 -151 517 0
-516 151 517 0
-517 0
39 40 -518 0
-39 -40 -518 0
39 -40 518 0
-39 40 518 0
518 43 -519 0
-518 -43 -519 0
518 -43 519 0
-518 43 519 0
519 44 -520 0
-519 -44 -520 0
519 -44 520 0
-519 44 520 0
520 132 -521 0
-520 -132 -521 0
520 -132 521 0
-520 132 521 0
521 140 -522 0
-521 -140 -522 0
521 -140 522 0
-521 140 522 0
522 144 -523 0
-522 -144 -523 0
522 -144 523 0
-522 144 523 0
523 152 -524 0
-523 -152 -524 0
523 -152 524 0
-523 152 524 0
-524 0
40 41 -525 0
-40 -41 -525 0
40 -41 525 0
-40 41 525 0
525 44 -526 0
-525 -44 -526 0
525 -44 526 0
-525 44 526 0
526 45 -527 0
-526 -45 -527 0
526 -45 527 0
-526 45 527 0
527 133 -528 0
-527 -133 -528 0
527 -133 528 0
-527 133 528 0
528 141 -529 0
-528 -141 -529 0
528 -141 529 0
-528 141 529 0
529 145 -530 0
-529 -145 -530 0
529 -145 530 0
-529 145 530 0
530 153 -531 0
-530 -153 -531 0
530 -153 531 0
-530 153 531 0
-531 0
41 42 -532 0
-41 -42 -532 0
41 -42 532 0
-41 42 532 0
532 45 -533 0
-532 -45 -533 0
532 -45 533 0
-532 45 533 0
533 46 -534 0
-533 -46 -534 0
533 -46 534 0
-533 46 534 0
534 134 -535 0
-534 -134 -535 0
534 -134 535 0
-534 134 535 0
535 142 -536 0
-535 -142 -536 0
535 -142 536 0
-535 142 536 0
536 146 -537 0
-536 -146 -537 0
536 -146 537 0
-536 146 537 0
537 154 -538 0
-537 -154 -538 0
537 -154 538 0
-537 154 538 0
-538 0
42 43 -539 0
-42 -43 -539 0
42 -43 539 0
-42 43 539 0
539 46 -540 0
-539 -46 -540 0
539 -46 540 0
-539 46 540 0
540 47 -541 0
-540 -47 -541 0
540 -47 541 0
-540 47 541 0
541 135 -542 0
-541 -135 -542 0
541 -135 542 0
-541 135 542 0
542 143 -543 0
-542 -143 -543 0
542 -143 543 0
-542 143 543 0
543 147 -544 0
-543 -147 -544 0
543 -147 544 0
-543 147 544 0
544 155 -545 0
-544 -155 -545 0
544 -155 545 0
-544 155 545 0
-545 0
43 44 -546 0
-43 -44 -546 0
43 -44 546 0
-43 44 546 0
546 47 -547 0
-546 -47 -547 0
546 -47 547 0
-546 47 547 0
547 48 -548 0
-547 -48 -548 0
547 -48 548 0
-547 48 548 0
548 136 -549 0
-548 -136 -549 0
548 -136 549 0
-548 136 549 0
549 144 -550 0
-549 -144 -550 0
549 -144 550 0
-549 144 550 0
550 148 -551 0
-550 -148 -551 0
550 -148 551 0
-550 148 551 0
551 156 -552 0
-551 -156 -552 0
551 -156 552 0
-551 156 552 0
-552 0
44 45 -553 0
-44 -45 -553 0
44 -45 553 0
-44 45 553 0
553 48 -554 0
-553 -48 -554 0
553 -48 554 0
-553 48 554 0
554 49 -555 0
-554 -49 -555 0
554 -49 555 0
-554 49 555 0
555 137 -556 0
-555 -137 -556 0
555 -137 556 0
-555 137 556 0
556 145 -557 0
-556 -145 -557 0
556 -145 557 0
-556 145 557 0
557 149 -558 0
-557 -149 -558 0
557 -149 558 0
-557 149 558 0
558 157 -559 0
-558 -157 -559 0
558 -157 559 0
-558 157 559 0
-559 0
45 46 -560 0
-45 -46 -560 0
45 -46 560 0
-45 46 560 0
560 49 -561 0
-560 -49 -561 0
560 -49 561 0
-560 49 561 0
561 50 -562 0
-561 -50 -562 0
561 -50 562 0
-561 50 562 0
562 138 -563 0
-562 -138 -563 0
562 -138 563 0
-562 138 563 0
563 146 -564 0
-563 -146 -564 0
563 -146 564 0
-563 146 564 0
564 150 -565 0
-564 -150 -565 0
564 -150 565 0
-564 150 565 0
565 158 -566 0
-565 -158 -566 0
565 -158 566 0
-565 158 566 0
-566 0
46 47 -567 0
-46 -47 -567 0
46 -47 567 0
-46 47 567 0
567 50 -568 0
-567 -50 -568 0
567 -50 568 0
-567 50 568 0
568 51 -569 0
-568 -51 -569 0
568 -51 569 0
-568 51 569 0
569 139 -570 0
-569 -139 -570 0
569 -139 570 0
-569 139 570 0
570 147 -571 0
-570 -147 -571 0
570 -147 571 0
-570 147 571 0
571 151 -572 0
-571 -151 -572 0
571 -151 572 0
-571 151 572 0
572 159 -573 0
-572 -159 -573 0
572 -159 573 0
-572 159 573 0
-573 0
47 48 -574 0
-47 -48 -574 0
47 -48 574 0
-47 48 574 0
574 51 -575 0
-574 -51 -575 0
574 -51 575 0
-574 51 575 0
575 52 -576 0
-575 -52 -576 0
575 -52 576 0
-575 52 576 0
576 140 -577 0
-576 -140 -577 0
576 -140 577 0
-576 140 577 0
577 148 -578 0
-577 -148 -578 0
577 -148 578 0
-577 148 578 0
578 152 -579 0
-578 -152 -579 0
578 -152 579 0
-578 152 579 0
579 160 -580 0
-579 -160 -580 0
579 -160 580 0
-579 160 580 0
-580 0
48 49 -581 0
-48 -49 -581 0
48 -49 581 0
-48 49 581 0
581 52 -582 0
-581 -52 -582 0
581 -52 582 0
-581 52 582 0
582 53 -583 0
-582 -53 -583 0
582 -53 583 0
-582 53 583 0
583 141 -584 0
-583 -141 -584 0
583 -141 584 0
-583 141 584 0
584 149 -585 0
-584 -149 -585 0
584 -149 585 0
-584 149 585 0
585 153 -586 0
-585 -153 -586 0
585 -153 586 0
-585 153 586 0
586 161 -587 0
-586 -161 -587 0
586 -161 587 0
-586 161 587 0
-587 0
49 50 -588 0
-49 -50 -588 0
49 -50 588 0
-49 50 588 0
588 53 -589 0
-588 -53 -589 0
588 -53 589 0
-588 53 589 0
589 54 -590 0
-589 -54 -590 0
589 -54 590 0
-589 54 590 0
590 142 -591 0
-590 -142 -591 0
590 -142 591 0
-590 142 591 0
591 150 -592 0
-591 -150 -592 0
591 -150 592 0
-591 150 592 0
592 154 -593 0
-592 -154 -593 0
592 -154 593 0
-592 154 593 0
593 162 -594 0
-593 -162 -594 0
593 -162 594 0
-593 162 594 0
-594 0
50 51 -595 0
-50 -51 -595 0
50 -51 595 0
-50 51 595 0
595 54 -596 0
-595 -54 -596 0
595 -54 596 0
-595 54 596 0
596 55 -597 0
-596 -55 -597 0
596 -55 597 0
-596 55 597 0
597 143 -598 0
-597 -143 -598 0
597 -143 598 0
-597 143 598 0
598 151 -599 0
-598 -151 -599 0
598 -151 599 0
-598 151 599 0
599 155 -600 0
-599 -155 -600 0
599 -155 600 0
-599 155 600 0
600 163 -601 0
-600 -163 -601 0
600 -163 601 0
-600 163 601 0
-601 0
51 52 -602 0
-51 -52 -602 0
51 -52 602 0
-51 52 602 0
602 55 -603 0
-602 -55 -603 0
602 -55 603 0
-602 55 603 0
603 56 -604 0
-603 -56 -604 0
603 -56 604 0
-603 56 604 0
604 144 -605 0
-604 -144 -605 0
604 -144 605 0
-604 144 605 0
605 152 -606 0
-605 -152 -606 0
605 -152 606 0
-605 152 606 0
606 156 -607 0
-606 -156 -607 0
606 -156 607 0
-606 156 607 0
607 164 -608 0
-607 -164 -608 0
607 -164 608 0
-607 164 608 0
-608 0
52 53 -609 0
-52 -53 -609 0
52 -53 609 0
-52 53 609 0
609 56 -610 0
-609 -56 -610 0
609 -56 610 0
-609 56 610 0
610 57 -611 0
-610 -57 -611 0
610 -57 611 0
-610 57 611 0
611 145 -612 0
-611 -145 -612 0
611 -145 612 0
-611 145 612 0
612 153 -613 0
-612 -153 -613 0
612 -153 613 0
-612 153 613 0
613 157 -614 0
-613 -157 -614 0
613 -157 614 0
-613 157 614 0
614 165 -615 0
-614 -165 -615 0
614 -165 615 0
-614 165 615 0
-615 0
53 54 -616 0
-53 -54 -616 0
53 -54 616 0
-53 54 616 0
616 57 -617 0
-616 -57 -617 0
616 -57 617 0
-616 57 617 0
617 58 -618 0
-617 -58 -618 0
617 -58 618 0
-617 58 618 0
618 146 -619 0
-618 -146 -619 0
618 -146 619 0
-618 146 619 0
619 154 -620 0
-619 -154 -620 0
619 -154 620 0
-619 154 620 0
620 158 -621 0
-620 -158 -621 0
620 -158 621 0
-620 158 621 0
621 166 -622 0
-621 -166 -622 0
621 -166 622 0
-621 166 622 0
-622 0
54 55 -623 0
-54 -55 -623 0
54 -55 623 0
-54 55 623 0
623 58 -624 0
-623 -58 -624 0
623 -58 624 0
-623 58 624 0
624 59 -625 0
-624 -59 -625 0
624 -59 625 0
-624 59 625 0
625 147 -626 0
-625 -147 -626 0
625 -147 626 0
-625 147 626 0
626 155 -627 0
-626 -155 -627 0
626 -155 627 0
-626 155 627 0
627 159 -628 0
-627 -159 -628 0
627 -159 628 0
-627 159 628 0
628 167 -629 0
-628 -167 -629 0
628 -167 629 0
-628 167 629 0
-629 0
55 56 -630 0
-55 -56 -630 0
55 -56 630 0
-55 56 630 0
630 59 -631 0
-630 -59 -631 0
630 -59 631 0
-630 59 631 0
631 60 -632 0
-631 -60 -632 0
631 -60 632 0
-631 60 632 0
632 148 -633 0
-632 -148 -633 0
632 -148 633 0
-632 148 633 0
633 156 -634 0
-633 -156 -634 0
633 -156 634 0
-633 156 634 0
634 160 -635 0
-634 -160 -635 0
634 -160 635 0
-634 160 635 0
635 168 -636 0
-635 -168 -636 0
635 -168 636 0
-635 168 636 0
-636 0
56 57 -637 0
-56 -57 -637 0
56 -57 637 0
-56 57 637 0
637 60 -638 0
-637 -60 -638 0
637 -60 638 0
-637 60 638 0
638 61 -639 0
-638 -61 -639 0
638 -61 639 0
-638 61 639 0
639 149 -640 0
-639 -149 -640 0
639 -149 640 0
-639 149 640 0
640 157 -641 0
-640 -157 -641 0
640 -157 641 0
-640 157 641 0
641 161 -642 0
-641 -161 -642 0
641 -161 642 0
-641 161 642 0
642 169 -643 0
-642 -169 -643 0
642 -169 643 0
-642 169 643 0
-643 0
57 58 -644 0
-57 -58 -644 0
57 -58 644 0
-57 58 644 0
644 61 -645 0
-644 -61 -645 0
644 -61 645 0
-644 61 645 0
645 62 -646 0
-645 -62 -646 0
645 -62 646 0
-645 62 646 0
646 150 -647 0
-646 -150 -647 0
646 -150 647 0
-646 150 647 0
647 158 -648 0
-647 -158 -648 0
647 -158 648 0
-647 158 648 0
648 162 -649 0
-648 -162 -649 0
648 -162 649 0
-648 162 649 0
649 170 -650 0
-649 -170 -650 0
649 -170 650 0
-649 170 650 0
-650 0
58 59 -651 0
-58 -59 -651 0
58 -59 651 0
-58 59 651 0
651 62 -652 0
-651 -62 -652 0
651 -62 652 0
-651 62 652 0
652 63 -653 0
-652 -63 -653 0
652 -63 653 0
-652 63 653 0
653 151 -654 0
-653 -151 -654 0
653 -151 654 0
-653 151 654 0
654 159 -655 0
-654 -159 -655 0
654 -159 655 0
-654 159 655 0
655 163 -656 0
-655 -163 -656 0
655 -163 656 0
-655 163 656 0
656 171 -657 0
-656 -171 -657 0
656 -171 657 0
-656 171 657 0
-657 0
59 60 -658 0
-59 -60 -658 0
59 -60 658 0
-59 60 658 0
658 63 -659 0
-658 -63 -659 0
658 -63 659 0
-658 63 659 0
659 64 -660 0
-659 -64 -660 0
659 -64 660 0
-659 64 660 0
660 152 -661 0
-660 -152 -661 0
660 -152 661 0
-660 152 661 0
661 160 -662 0
-661 -160 -662 0
661 -160 662 0
-661 160 662 0
662 164 -663 0
-662 -164 -663 0
662 -164 663 0
-662 164 663 0
663 172 -664 0
-663 -172 -664 0
663 -172 664 0
-663 172 664 0
-664 0
60 61 -665 0
-60 -61 -665 0
60 -61 665 0
-60 61 665 0
665 64 -666 0
-665 -64 -666 0
665 -64 666 0
-665 64 666 0
666 65 -667 0
-666 -65 -667 0
666 -65 667 0
-666 65 667 0
667 153 -668 0
-667 -153 -668 0
667 -153 668 0
-667 153 668 0
668 161 -669 0
-668 -161 -669 0
668 -161 669 0
-668 161 669 0
669 165 -670 0
-669 -165 -670 0
669 -165 670 0
-669 165 670 0
670 173 -671 0
-670 -173 -671 0
670 -173 671 0
-670 173 671 0
-671 0
61 62 -672 0
-61 -62 -672 0
61 -62 672 0
-61 62 672 0
672 65 -673 0
-672 -65 -673 0
672 -65 673 0
-672 65 673 0
673 66 -674 0
-673 -66 -674 0
673 -66 674 0
-673 66 674 0
674 154 -675 0
-674 -154 -675 0
674 -154 675 0
-674 154 675 0
675 162 -676 0
-675 -162 -676 0
675 -162 676 0
-675 162 676 0
676 166 -677 0
-676 -166 -677 0
676 -166 677 0
-676 166 677 0
677 174 -678 0
-677 -174 -678 0
677 -174 678 0
-677 174 678 0
-678 0
62 63 -679 0
-62 -63 -679 0
62 -63 679 0
-62 63 679 0
679 66 -680 0
-679 -66 -680 0
679 -66 680 0
-679 66 680 0
680 67 -681 0
-680 -67 -681 0
680 -67 681 0
-680 67 681 0
681 155 -682 0
-681 -155 -682 0
681 -155 682 0
-681 155 682 0
682 163 -683 0
-682 -163 -683 0
682 -163 683 0
-682 163 683 0
683 167 -684 0
-683 -167 -684 0
683 -167 684 0
-683 167 684 0
684 175 -685 0
-684 -175 -685 0
684 -175 685 0
-684 175 685 0
-685 0
63 64 -686 0
-63 -64 -686 0
63 -64 686 0
-63 64 686 0
686 67 -687 0
-686 -67 -687 0
686 -67 687 0
-686 67 687 0
687 68 -688 0
-687 -68 -688 0
687 -68 688 0
-687 68 688 0
688 156 -689 0
-688 -156 -689 0
688 -156 689 0
-688 156 689 0
689 164 -690 0
-689 -164 -690 0
689 -164 690 0
-689 164 690 0
690 168 -691 0
-690 -168 -691 0
690 -168 691 0
-690 168 691 0
691 176 -692 0
-691 -176 -692 0
691 -176 692 0
-691 176 692 0
-692 0
64 65 -693 0
-64 -65 -693 0
64 -65 693 0
-64 65 693 0
693 68 -694 0
-693 -68 -694 0
693 -68 694 0
-693 68 694 0
694 69 -695 0
-694 -69 -695 0
694 -69 695 0
-694 69 695 0
695 157 -696 0
-695 -157 -696 0
695 -157 696 0
-695 157 696 0
696 165 -697 0
-696 -165 -697 0
696 -165 697 0
-696 165 697 0
697 169 -698 0
-697 -169 -698 0
697 -169 698 0
-697 169 698 0
698 177 -699 0
-698 -177 -699 0
698 -177 699 0
-698 177 699 0
-699 0
65 66 -700 0
-65 -66 -700 0
65 -66 700 0
-65 66 700 0
700 69 -701 0
-700 -69 -701 0
700 -69 701 0
-700 69 701 0
701 70 -702 0
-701 -70 -702 0
701 -70 702 0
-701 70 702 0
702 158 -703 0
-702 -158 -703 0
702 -158 703 0
-702 158 703 0
703 166 -704 0
-703 -166 -704 0
703 -166 704 0
-703 166 704 0
704 170 -705 0
-704 -170 -705 0
704 -170 705 0
-704 170 705 0
705 178 -706 0
-705 -178 -706 0
705 -178 706 0
-705 178 706 0
-706 0
66 67 -707 0
-66 -67 -707 0
66 -67 707 0
-66 67 707 0
707 70 -708 0
-707 -70 -708 0
707 -70 708 0
-707 70 708 0
708 71 -709 0
-708 -71 -709 0
708 -71 709 0
-708 71 709 0
709 159 -710 0
-709 -159 -710 0
709 -159 710 0
-709 159 710 0
710 167 -711 0
-710 -167 -711 0
710 -167 711 0
-710 167 711 0
711 171 -712 0
-711 -171 -712 0
711 -171 712 0
-711 171 712 0
712 179 -713 0
-712 -179 -713 0
712 -179 713 0
-712 179 713 0
-713 0
67 68 -714 0
-67 -68 -714 0
67 -68 714 0
-67 68 714 0
714 71 -715 0
-714 -71 -715 0
714 -71 715 0
-714 71 715 0
715 72 -716 0
-715 -72 -716 0
715 -72 716 0
-715 72 716 0
716 160 -717 0
-716 -160 -717 0
716 -160 717 0
-716 160 717 0
717 168 -718 0
-717 -168 -718 0
717 -168 718 0
-717 168 718 0
718 172 -719 0
-718 -172 -719 0
718 -172 719 0
-718 172 719 0
719 180 -720 0
-719 -180 -720 0
719 -180 720 0
-719 180 720 0
-720 0
68 69 -721 0
-68 -69 -721 0
68 -69 721 0
-68 69 721 0
721 72 -722 0
-721 -72 -722 0
721 -72 722 0
-721 72 722 0
722 73 -723 0
-722 -73 -723 0
722 -73 723 0
-722 73 723 0
723 161 -724 0
-723 -161 -724 0
723 -161 724 0
-723 161 724 0
724 169 -725 0
-724 -169 -725 0
724 -169 725 0
-724 169 725 0
725 173 -726 0
-725 -173 -726 0
725 -173 726 0
-725 173 726 0
726 181 -727 0
-726 -181 -727 0
726 -181 727 0
-726 181 727 0
-727 0
69 70 -728 0
-69 -70 -728 0
69 -70 728 0
-69 70 728 0
728 73 -729 0
-728 -73 -729 0
728 -73 729 0
-728 73 729 0
729 74 -730 0
-729 -74 -730 0
729 -74 730 0
-729 74 730 0
730 162 -731 0
-730 -162 -731 0
730 -162 731 0
-730 162 731 0
731 170 -732 0
-731 -170 -732 0
731 -170 732 0
-731 170 732 0
732 174 -733 0
-732 -174 -733 0
732 -174 733 0
-732 174 733 0
733 182 -734 0
-733 -182 -734 0
733 -182 734 0
-733 182 734 0
-734 0
70 71 -735 0
-70 -71 -735 0
70 -71 735 0
-70 71 735 0
735 74 -736 0
-735 -74 -736 0
735 -74 736 0
-735 74 736 0
736 75 -737 0
-736 -75 -737 0
736 -75 737 0
-736 75 737 0
737 163 -738 0
-737 -163 -738 0
737 -163 738 0
-737 163 738 0
738 171 -739 0
-738 -171 -739 0
738 -171 739 0
-738 171 739 0
739 175 -740 0
-739 -175 -740 0
739 -175 740 0
-739 175 740 0
740 183 -741 0
-740 -183 -741 0
740 -183 741 0
-740 183 741 0
-741 0
71 72 -742 0
-71 -72 -742 0
71 -72 742 0
-71 72 742 0
742 75 -743 0
-742 -75 -743 0
742 -75 743 0
-742 75 743 0
743 76 -744 0
-743 -76 -744 0
743 -76 744 0
-743 76 744 0
744 164 -745 0
-744 -164 -745 0
744 -164 745 0
-744 164 745 0
745 172 -746 0
-745 -172 -746 0
745 -172 746 0
-745 172 746 0
746 176 -747 0
-746 -176 -747 0
746 -176 747 0
-746 176 747 0
747 184 -748 0
-747 -184 -748 0
747 -184 748 0
-747 184 748 0
-748 0
72 73 -749 0
-72 -73 -749 0
72 -73 749 0
-72 73 749 0
749 76 -750 0
-749 -76 -750 0
749 -76 750 0
-749 76 750 0
750 77 -751 0
-750 -77 -751 0
750 -77 751 0
-750 77 751 0
751 165 -752 0
-751 -165 -752 0
751 -165 752 0
-751 165 752 0
752 173 -753 0
-752 -173 -753 0
752 -173 753 0
-752 173 753 0
753 177 -754 0
-753 -177 -754 0
753 -177 754 0
-753 177 754 0
754 185 -755 0
-754 -185 -755 0
754 -185 755 0
-754 185 755 0
-755 0
73 74 -756 0
-73 -74 -756 0
73 -74 756 0
-73 74 756 0
756 77 -757 0
-756 -77 -757 0
756 -77 757 0
-756 77 757 0
757 78 -758 0
-757 -78 -758 0
757 -78 758 0
-757 78 758 0
758 166 -759 0
-758 -166 -759 0
758 -166 759 0
-758 166 759 0
759 174 -760 0
-759 -174 -760 0
759 -174 760 0
-759 174 760 0
760 178 -761 0
-760 -178 -761 0
760 -178 761 0
-760 178 761 0
761 186 -762 0
-761 -186 -762 0
761 -186 762 0
-761 186 762 0
-762 0
74 75 -763 0
-74 -75 -763 0
74 -75 763 0
-74 75 763 0
763 78 -764 0
-763 -78 -764 0
763 -78 764 0
-763 78 764 0
764 79 -765 0
-764 -79 -765 0
764 -79 765 0
-764 79 765 0
765 167 -766 0
-765 -167 -766 0
765 -167 766 0
-765 167 766 0
766 175 -767 0
-766 -175 -767 0
766 -175 767 0
-766 175 767 0
767 179 -768 0
-767 -179 -768 0
767 -179 768 0
-767 179 768 0
768 187 -769 0
-768 -187 -769 0
768 -187 769 0
-768 187 769 0
-769 0
75 76 -770 0
-75 -76 -770 0
75 -76 770 0
-75 76 770 0
770 79 -771 0
-770 -79 -771 0
770 -79 771 0
-770 79 771 0
771 80 -772 0
-771 -80 -772 0
771 -80 772 0
-771 80 772 0
772 168 -773 0
-772 -168 -773 0
772 -168 773 0
-772 168 773 0
773 176 -774 0
-773 -176 -774 0
773 -176 774 0
-773 176 774 0
774 180 -775 0
-774 -180 -775 0
774 -180 775 0
-774 180 775 0
775 188 -776 0
-775 -188 -776 0
775 -188 776 0
-775 188 776 0
-776 0
76 77 -777 0
-76 -77 -777 0
76 -77 777 0
-76 77 777 0
777 80 -778 0
-777 -80 -778 0
777 -80 778 0
-777 80 778 0
778 81 -779 0
-778 -81 -779 0
778 -81 779 0
-778 81 779 0
779 169 -780 0
-779 -169 -780 0
779 -169 780 0
-779 169 780 0
780 177 -781 0
-780 -177 -781 0
780 -177 781 0
-780 177 781 0
781 181 -782 0
-781 -181 -782 0
781 -181 782 0
-781 181 782 0
782 189 -783 0
-782 -189 -783 0
782 -189 783 0
-782 189 783 0
-783 0
77 78 -784 0
-77 -78 -784 0
77 -78 784 0
-77 78 784 0
784 81 -785 0
-784 -81 -785 0
784 -81 785 0
-784 81 785 0
785 82 -786 0
-785 -82 -786 0
785 -82 786 0
-785 82 786 0
786 170 -787 0
-786 -170 -787 0
786 -170 787 0
-786 170 787 0
787 178 -788 0
-787 -178 -788 0
787 -178 788 0
-787 178 788 0
788 182 -789 0
-788 -182 -789 0
788 -182 789 0
-788 182 789 0
789 190 -790 0
-789 -190 -790 0
789 -190 790 0
-789 190 790 0
-790 0
78 79 -791 0
-78 -79 -791 0
78 -79 791 0
-78 79 791 0
791 82 -792 0
-791 -82 -792 0
791 -82 792 0
-791 82 792 0
792 83 -793 0
-792 -83 -793 0
792 -83 793 0
-792 83 793 0
793 171 -794 0
-793 -171 -794 0
793 -171 794 0
-793 171 794 0
794 179 -795 0
-794 -179 -795 0
794 -179 795 0
-794 179 795 0
795 183 -796 0
-795 -183 -796 0
795 -183 796 0
-795 183 796 0
796 191 -797 0
-796 -191 -797 0
796 -191 797 0
-796 191 797 0
-797 0
79 80 -798 0
-79 -80 -798 0
79 -80 798 0
-79 80 798 0
798 83 -799 0
-798 -83 -799 0
798 -83 799 0
-798 83 799 0
799 84 -800 0
-799 -84 -800 0
799 -84 800 0
-799 84 800 0
800 172 -801 0
-800 -172 -801 0
800 -172 801 0
-800 172 801 0
801 180 -802 0
-801 -180 -802 0
801 -180 802 0
-801 180 802 0
802 184 -803 0
-802 -184 -803 0
802 -184 803 0
-802 184 803 0
803 192 -804 0
-803 -192 -804 0
803 -192 804 0
-803 192 804 0
-804 0
80 81 -805 0
-80 -81 -805 0
80 -81 805 0
-80 81 805 0
805 84 -806 0
-805 -84 -806 0
805 -84 806 0
-805 84 806 0
806 85 -807 0
-806 -85 -807 0
806 -85 807 0
-806 85 807 0
807 173 -808 0
-807 -173 -808 0
807 -173 808 0
-807 173 808 0
808 181 -809 0
-808 -181 -809 0
808 -181 809 0
-808 181 809 0
809 185 -810 0
-809 -185 -810 0
809 -185 810 0
-809 185 810 0
810 193 -811 0
-810 -193 -811 0
810 -193 811 0
-810 193 811 0
-811 0
81 82 -812 0
-81 -82 -812 0
81 -82 812 0
-81 82 812 0
812 85 -813 0
-812 -85 -813 0
812 -85 813 0
-812 85 813 0
813 86 -814 0
-813 -86 -814 0
813 -86 814 0
-813 86 814 0
814 174 -815 0
-814 -174 -815 0
814 -174 815 0
-814 174 815 0
815 182 -816 0
-815 -182 -816 0
815 -182 816 0
-815 182 816 0
816 186 -817 0
-816 -186 -817 0
816 -186 817 0
-816 186 817 0
817 194 -818 0
-817 -194 -818 0
817 -194 818 0
-817 194 818 0
-818 0
82 83 -819 0
-82 -83 -819 0
82 -83 819 0
-82 83 819 0
819 86 -820 0
-819 -86 -820 0
819 -86 820 0
-819 86 820 0
820 87 -821 0
-820 -87 -821 0
820 -87 821 0
-820 87 821 0
821 175 -822 0
-821 -175 -822 0
821 -175 822 0
-821 175 822 0
822 183 -823 0
-822 -183 -823 0
822 -183 823 0
-822 183 823 0
823 187 -824 0
-823 -187 -824 0
823 -187 824 0
-823 187 824 0
824 195 -825 0
-824 -195 -825 0
824 -195 825 0
-824 195 825 0
-825 0
83 84 -826 0
-83 -84 -826 0
83 -84 826 0
-83 84 826 0
826 87 -827 0
-826 -87 -827 0
826 -87 827 0
-826 87 827 0
827 88 -828 0
-827 -88 -828 0
827 -88 828 0
-827 88 828 0
828 176 -829 0
-828 -176 -829 0
828 -176 829 0
-828 176 829 0
829 184 -830 0
-829 -184 -830 0
829 -184 830 0
-829 184 830 0
830 188 -831 0
-830 -188 -831 0
830 -188 831 0
-830 188 831 0
831 196 -832 0
-831 -196 -832 0
831 -196 832 0
-831 196 832 0
-832 0
84 85 -833 0
-84 -85 -833 0
84 -85 833 0
-84 85 833 0
833 88 -834 0
-833 -88 -834 0
833 -88 834 0
-833 88 834 0
834 89 -835 0
-834 -89 -835 0
834 -89 835 0
-834 89 835 0
835 177 -836 0
-835 -177 -836 0
835 -177 836 0
-835 177 836 0
836 185 -837 0
-836 -185 -837 0
836 -185 837 0
-836 185 837 0
837 189 -838 0
-837 -189 -838 0
837 -189 838 0
-837 189 838 0
838 197 -839 0
-838 -197 -839 0
838 -197 839 0
-838 197 839 0
-839 0
85 86 -840 0
-85 -86 -840 0
85 -86 840 0
-85 86 840 0
840 89 -841 0
-840 -89 -841 0
840 -89 841 0
-840 89 841 0
841 90 -842 0
-841 -90 -842 0
841 -90 842 0
-841 90 842 0
842 178 -843 0
-842 -178 -843 0
842 -178 843 0
-842 178 843 0
843 186 -844 0
-843 -186 -844 0
843 -186 844 0
-843 186 844 0
844 190 -845 0
-844 -190 -845 0
844 -190 845 0
-844 190 845 0
845 198 -846 0
-845 -198 -846 0
845 -198 846 0
-845 198 846 0
-846 0
86 87 -847 0
-86 -87 -847 0
86 -87 847 0
-86 87 847 0
847 90 -848 0
-847 -90 -848 0
847 -90 848 0
-847 90 848 0
848 91 -849 0
-848 -91 -849 0
848 -91 849 0
-848 91 849 0
849 179 -850 0
-849 -179 -850 0
849 -179 850 0
-849 179 850 0
850 187 -851 0
-850 -187 -851 0
850 -187 851 0
-850 187 851 0
851 191 -852 0
-851 -191 -852 0
851 -191 852 0
-851 191 852 0
852 199 -853 0
-852 -199 -853 0
852 -199 853 0
-852 199 853 0
-853 0
87 88 -854 0
-87 -88 -854 0
87 -88 854 0
-87 88 854 0
854 91 -855 0
-854 -91 -855 0
854 -91 855 0
-854 91 855 0
855 92 -856 0
-855 -92 -856 0
855 -92 856 0
-855 92 856 0
856 180 -857 0
-856 -180 -857 0
856 -180 857 0
-856 180 857 0
857 188 -858 0
-857 -188 -858 0
857 -188 858 0
-857 188 858 0
858 192 -859 0
-858 -192 -859 0
858 -192 859 0
-858 192 859 0
859 200 -860 0
-859 -200 -860 0
859 -200 860 0
-859 200 860 0
-860 0
88 89 -861 0
-88 -89 -861 0
88 -89 861 0
-88 89 861 0
861 92 -862 0
-861 -92 -862 0
861 -92 862 0
-861 92 862 0
862 93 -863 0
-862 -93 -863 0
862 -93 863 0
-862 93 863 0
863 181 -864 0
-863 -181 -864 0
863 -181 864 0
-863 181 864 0
864 189 -865 0
-864 -189 -865 0
864 -189 865 0
-864 189 865 0
865 193 -866 0
-865 -193 -866 0
865 -193 866 0
-865 193 866 0
866 201 -867 0
-866 -201 -867 0
866 -201 867 0
-866 201 867 0
-867 0
89 90 -868 0
-89 -90 -868 0
89 -90 868 0
-89 90 868 0
868 93 -869 0
-868 -93 -869 0
868 -93 869 0
-868 93 869 0
869 94 -870 0
-869 -94 -870 0
869 -94 870 0
-869 94 870 0
870 182 -871 0
-870 -182 -871 0
870 -182 871 0
-870 182 871 0
871 190 -872 0
-871 -190 -872 0
871 -190 872 0
-871 190 872 0
872 194 -873 0
-872 -194 -873 0
872 -194 873 0
-872 194 873 0
873 202 -874 0
-873 -202 -874 0
873 -202 874 0
-873 202 874 0
-874 0
90 91 -875 0
-90 -91 -875 0
90 -91 875 0
-90 91 875 0
875 94 -876 0
-875 -94 -876 0
875 -94 876 0
-875 94 876 0
876 95 -877 0
-876 -95 -877 0
876 -95 877 0
-876 95 877 0
877 183 -878 0
-877 -183 -878 0
877 -183 878 0
-877 183 878 0
878 191 -879 0
-878 -191 -879 0
878 -191 879 0
-878 191 879 0
879 195 -880 0
-879 -195 -880 0
879 -195 880 0
-879 195 880 0
880 203 -881 0
-880 -203 -881 0
880 -203 881 0
-880 203 881 0
-881 0
91 92 -882 0
-91 -92 -882 0
91 -92 882 0
-91 92 882 0
882 95 -883 0
-882 -95 -883 0
882 -95 883 0
-882 95 883 0
883 96 -884 0
-883 -96 -884 0
883 -96 884 0
-883 96 884 0
884 184 -885 0
-884 -184 -885 0
884 -184 885 0
-884 184 885 0
885 192 -886 0
-885 -192 -886 0
885 -192 886 0
-885 192 886 0
886 196 -887 0
-886 -196 -887 0
886 -196 887 0
-886 196 887 0
887 204 -888 0
-887 -204 -888 0
887 -204 888 0
-887 204 888 0
-888 0
92 93 -889 0
-92 -93 -889 0
92 -93 889 0
-92 93 889 0
889 96 -890 0
-889 -96 -890 0
889 -96 890 0
-889 96 890 0
890 97 -891 0
-890 -97 -891 0
890 -97 891 0
-890 97 891 0
891 185 -892 0
-891 -185 -892 0
891 -185 892 0
-891 185 892 0
892 193 -893 0
-892 -193 -893 0
892 -193 893 0
-892 193 893 0
893 197 -894 0
-893 -197 -894 0
893 -197 894 0
-893 197 894 0
894 205 -895 0
-894 -205 -895 0
894 -205 895 0
-894 205 895 0
-895 0
93 94 -896 0
-93 -94 -896 0
93 -94 896 0
-93 94 896 0
896 97 -897 0
-896 -97 -897 0
896 -97 897 0
-896 97 897 0
897 98 -898 0
-897 -98 -898 0
897 -98 898 0
-897 98 898 0
898 186 -899 0
-898 -186 -899 0
898 -186 899 0
-898 186 899 0
899 194 -900 0
-899 -194 -900 0
899 -194 900 0
-899 194 900 0
900 198 -901 0
-900 -198 -901 0
900 -198 901 0
-900 198 901 0
901 206 -902 0
-901 -206 -902 0
901 -206 902 0
-901 206 902 0
-902 0
94 95 -903 0
-94 -95 -903 0
94 -95 903 0
-94 95 903 0
903 98 -904 0
-903 -98 -904 0
903 -98 904 0
-903 98 904 0
904 99 -905 0
-904 -99 -905 0
904 -99 905 0
-904 99 905 0
905 187 -906 0
-905 -187 -906 0
905 -187 906 0
-905 187 906 0
906 195 -907 0
-906 -195 -907 0
906 -195 907 0
-906 195 907 0
907 199 -908 0
-907 -199 -908 0
907 -199 908 0
-907 199 908 0
908 207 -909 0
-908 -207 -909 0
908 -207 909 0
-908 207 909 0
-909 0
95 96 -910 0
-95 -96 -910 0
95 -96 910 0
-95 96 910 0
910 99 -911 0
-910 -99 -911 0
910 -99 911 0
-910 99 911 0
911 100 -912 0
-911 -100 -912 0
911 -100 912 0
-911 100 912 0
912 188 -913 0
-912 -188 -913 0
912 -188 913 0
-912 188 913 0
913 196 -914 0
-913 -196 -914 0
913 -196 914 0
-913 196 914 0
914 200 -915 0
-914 -200 -915 0
914 -200 915 0
-914 200 915 0
915 208 -916 0
-915 -208 -916 0
915 -208 916 0
-915 208 916 0
-916 0
96 97 -917 0
-96 -97 -917 0
96 -97 917 0
-96 97 917 0
917 100 -918 0
-917 -100 -918 0
917 -100 918 0
-917 100 918 0
918 101 -919 0
-918 -101 -919 0
918 -101 919 0
-918 101 919 0
919 189 -920 0
-919 -189 -920 0
919 -189 920 0
-919 189 920 0
920 197 -921 0
-920 -197 -921 0
920 -197 921 0
-920 197 921 0
921 201 -922 0
-921 -201 -922 0
921 -201 922 0
-921 201 922 0
922 209 -923 0
-922 -209 -923 0
922 -209 923 0
-922 209 923 0
-923 0
97 98 -924 0
-97 -98 -924 0
97 -98 924 0
-97 98 924 0
924 101 -925 0
-924 -101 -925 0
924 -101 925 0
-924 101 925 0
925 102 -926 0
-925 -102 -926 0
925 -102 926 0
-925 102 926 0
926 190 -927 0
-926 -190 -927 0
926 -190 927 0
-926 190 927 0
927 198 -928 0
-927 -198 -928 0
927 -198 928 0
-927 198 928 0
928 202 -929 0
-928 -202 -929 0
928 -202 929 0
-928 202 929 0
929 210 -930 0
-929 -210 -930 0
929 -210 930 0
-929 210 930 0
-930 0
98 99 -931 0
-98 -99 -931 0
98 -99 931 0
-98 99 931 0
931 102 -932 0
-931 -102 -932 0
931 -102 932 0
-931 102 932 0
932 103 -933 0
-932 -103 -933 0
932 -103 933 0
-932 103 933 0
933 191 -934 0
-933 -191 -934 0
933 -191 934 0
-933 191 934 0
934 199 -935 0
-934 -199 -935 0
934 -199 935 0
-934 199 935 0
935 203 -936 0
-935 -203 -936 0
935 -203 936 0
-935 203 936 0
936 211 -937 0
-936 -211 -937 0
936 -211 937 0
-936 211 937 0
-937 0
99 100 -938 0
-99 -100 -938 0
99 -100 938 0
-99 100 938 0
938 103 -939 0
-938 -103 -939 0
938 -103 939 0
-938 103 939 0
939 104 -940 0
-939 -104 -940 0
939 -104 940 0
-939 104 940 0
940 192 -941 0
-940 -192 -941 0
940 -192 941 0
-940 192 941 0
941 200 -942 0
-941 -200 -942 0
941 -200 942 0
-941 200 942 0
942 204 -943 0
-942 -204 -943 0
942 -204 943 0
-942 204 943 0
943 212 -944 0
-943 -212 -944 0
943 -212 944 0
-943 212 944 0
-944 0
100 101 -945 0
-100 -101 -945 0
100 -101 945 0
-100 101 945 0
945 104 -946 0
-945 -104 -946 0
945 -104 946 0
-945 104 946 0
946 105 -947 0
-946 -105 -947 0
946 -105 947 0
-946 105 947 0
947 193 -948 0
-947 -193 -948 0
947 -193 948 0
-947 193 948 0
948 201 -949 0
-948 -201 -949 0
948 -201 949 0
-948 201 949 0
949 205 -950 0
-949 -205 -950 0
949 -205 950 0
-949 205 950 0
950 213 -951 0
-950 -213 -951 0
950 -213 951 0
-950 213 951 0
-951 0
101 102 -952 0
-101 -102 -952 0
101 -102 952 0
-101 102 952 0
952 105 -953 0
-952 -105 -953 0
952 -105 953 0
-952 105 953 0
953 106 -954 0
-953 -106 -954 0
953 -106 954 0
-953 106 954 0
954 194 -955 0
-954 -194 -955 0
954 -194 955 0
-954 194 955 0
955 202 -956 0
-955 -202 -956 0
955 -202 956 0
-955 202 956 0
956 206 -957 0
-956 -206 -957 0
956 -206 957 0
-956 206 957 0
957 214 -958 0
-957 -214 -958 0
957 -214 958 0
-957 214 958 0
-958 0
102 103 -959 0
-102 -103 -959 0
102 -103 959 0
-102 103 959 0
959 106 -960 0
-959 -106 -960 0
959 -106 960 0
-959 106 960 0
960 107 -961 0
-960 -107 -961 0
960 -107 961 0
-960 107 961 0
961 195 -962 0
-961 -195 -962 0
961 -195 962 0
-961 195 962 0
962 203 -963 0
-962 -203 -963 0
962 -203 963 0
-962 203 963 0
963 207 -964 0
-963 -207 -964 0
963 -207 964 0
-963 207 964 0
964 215 -965 0
-964 -215 -965 0
964 -215 965 0
-964 215 965 0
-965 0
103 104 -966 0
-103 -104 -966 0
103 -104 966 0
-103 104 966 0
966 107 -967 0
-966 -107 -967 0
966 -107 967 0
-966 107 967 0
967 108 -968 0
-967 -108 -968 0
967 -108 968 0
-967 108 968 0
968 196 -969 0
-968 -196 -969 0
968 -196 969 0
-968 196 969 0
969 204 -970 0
-969 -204 -970 0
969 -204 970 0
-969 204 970 0
970 208 -971 0
-970 -208 -971 0
970 -208 971 0
-970 208 971 0
971 216 -972 0
-971 -216 -972 0
971 -216 972 0
-971 216 972 0
-972 0
1 113 -973 0
-1 -113 -973 0
1 -113 973 0
-1 113 973 0
973 117 -974 0
-973 -117 -974 0
973 -117 974 0
-973 117 974 0
974 121 -975 0
-974 -121 -975 0
974 -121 975 0
-974 121 975 0
975 125 -976 0
-975 -125 -976 0
975 -125 976 0
-975 125 976 0
976 129 -977 0
-976 -129 -977 0
976 -129 977 0
-976 129 977 0
977 133 -978 0
-977 -133 -978 0
977 -133 978 0
-977 133 978 0
978 137 -979 0
-978 -137 -979 0
978 -137 979 0
-978 137 979 0
979 141 -980 0
-979 -141 -980 0
979 -141 980 0
-979 141 980 0
980 145 -981 0
-980 -145 -981 0
980 -145 981 0
-980 145 981 0
981 149 -982 0
-981 -149 -982 0
981 -149 982 0
-981 149 982 0
982 153 -983 0
-982 -153 -983 0
982 -153 983 0
-982 153 983 0
983 157 -984 0
-983 -157 -984 0
983 -157 984 0
-983 157 984 0
984 161 -985 0
-984 -161 -985 0
984 -161 985 0
-984 161 985 0
985 165 -986 0
-985 -165 -986 0
985 -165 986 0
-985 165 986 0
986 169 -987 0
-986 -169 -987 0
986 -169 987 0
-986 169 987 0
987 173 -988 0
-987 -173 -988 0
987 -173 988 0
-987 173 988 0
988 177 -989 0
-988 -177 -989 0
988 -177 989 0
-988 177 989 0
989 181 -990 0
-989 -181 -990 0
989 -181 990 0
-989 181 990 0
990 185 -991 0
-990 -185 -991 0
990 -185 991 0
-990 185 991 0
991 189 -992 0
-991 -189 -992 0
991 -189 992 0
-991 189 992 0
992 193 -993 0
-992 -193 -993 0
992 -193 993 0
-992 193 993 0
993 197 -994 0
-993 -197 -994 0
993 -197 994 0
-993 197 994 0
994 201 -995 0
-994 -201 -995 0
994 -201 995 0
-994 201 995 0
995 202 -996 0
-995 -202 -996 0
995 -202 996 0
-995 202 996 0
996 203 -997 0
-996 -203 -997 0
996 -203 997 0
-996 203 997 0
997 204 -998 0
-997 -204 -998 0
997 -204 998 0
-997 204 998 0
998 209 -999 0
-998 -209 -999 0
998 -209 999 0
-998 209 999 0
999 213 -1000 0
-999 -213 -1000 0
999 -213 1000 0
-999 213 1000 0
1000 214 -1001 0
-1000 -214 -1001 0
1000 -214 1001 0
-1000 214 1001 0
1001 215 -1002 0
-1001 -215 -1002 0
1001 -215 1002 0
-1001 215 1002 0
1002 216 -1003 0
-1002 -216 -1003 0
1002 -216 1003 0
-1002 216 1003 0
2 113 -1004 0
-2 -113 -1004 0
2 -113 1004 0
-2 113 1004 0
1004 114 -1005 0
-1004 -114 -1005 0
1004 -114 1005 0
-1004 114 1005 0
1005 117 -1006 0
-1005 -117 -1006 0
1005 -117 1006 0
-1005 117 1006 0
1006 118 -1007 0
-1006 -118 -1007 0
1006 -118 1007 0
-1006 118 1007 0
1007 121 -1008 0
-1007 -121 -1008 0
1007 -121 1008 0
-1007 121 1008 0
1008 122 -1009 0
-1008 -122 -1009 0
1008 -122 1009 0
-1008 122 1009 0
1009 125 -1010 0
-1009 -125 -1010 0
1009 -125 1010 0
-1009 125 1010 0
1010 126 -1011 0
-1010 -126 -1011 0
1010 -126 1011 0
-1010 126 1011 0
1011 129 -1012 0
-1011 -129 -1012 0
1011 -129 1012 0
-1011 129 1012 0
1012 130 -1013 0
-1012 -130 -1013 0
1012 -130 1013 0
-1012 130 1013 0
1013 133 -1014 0
-1013 -133 -1014 0
1013 -133 1014 0
-1013 133 1014 0
1014 134 -1015 0
-1014 -134 -1015 0
1014 -134 1015 0
-1014 134 1015 0
1015 137 -1016 0
-1015 -137 -1016 0
1015 -137 1016 0
-1015 137 1016 0
1016 138 -1017 0
-1016 -138 -1017 0
1016 -138 1017 0
-1016 138 1017 0
1017 141 -1018 0
-1017 -141 -1018 0
1017 -141 1018 0
-1017 141 1018 0
1018 142 -1019 0
-1018 -142 -1019 0
1018 -142 1019 0
-1018 142 1019 0
1019 145 -1020 0
-1019 -145 -1020 0
1019 -145 1020 0
-1019 145 1020 0
1020 146 -1021 0
-1020 -146 -1021 0
1020 -146 1021 0
-1020 146 1021 0
1021 149 -1022 0
-1021 -149 -1022 0
1021 -149 1022 0
-1021 149 1022 0
1022 150 -1023 0
-1022 -150 -1023 0
1022 -150 1023 0
-1022 150 1023 0
1023 153 -1024 0
-1023 -153 -1024 0
1023 -153 1024 0
-1023 153 1024 0
1024 154 -1025 0
-1024 -154 -1025 0
1024 -154 1025 0
-1024 154 1025 0
1025 157 -1026 0
-1025 -157 -1026 0
1025 -157 1026 0
-1025 157 1026 0
1026 158 -1027 0
-1026 -158 -1027 0
1026 -158 1027 0
-1026 158 1027 0
1027 161 -1028 0
-1027 -161 -1028 0
1027 -161 1028 0
-1027 161 1028 0
1028 162 -1029 0
-1028 -162 -1029 0
1028 -162 1029 0
-1028 162 1029 0
1029 165 -1030 0
-1029 -165 -1030 0
1029 -165 1030 0
-1029 165 1030 0
1030 166 -1031 0
-1030 -166 -1031 0
1030 -166 1031 0
-1030 166 1031 0
1031 169 -1032 0
-1031 -169 -1032 0
1031 -169 1032 0
-1031 169 1032 0
1032 170 -1033 0
-1032 -170 -1033 0
1032 -170 1033 0
-1032 170 1033 0
1033 173 -1034 0
-1033 -173 -1034 0
1033 -173 1034 0
-1033 173 1034 0
1034 174 -1035 0
-1034 -174 -1035 0
1034 -174 1035 0
-1034 174 1035 0
1035 177 -1036 0
-1035 -177 -1036 0
1035 -177 1036 0
-1035 177 1036 0
1036 178 -1037 0
-1036 -178 -1037 0
1036 -178 1037 0
-1036 178 1037 0
1037 181 -1038 0
-1037 -181 -1038 0
1037 -181 1038 0
-1037 181 1038 0
1038 182 -1039 0
-1038 -182 -1039 0
1038 -182 1039 0
-1038 182 1039 0
1039 185 -1040 0
-1039 -185 -1040 0
1039 -185 1040 0
-1039 185 1040 0
1040 186 -1041 0
-1040 -186 -1041 0
1040 -186 1041 0
-1040 186 1041 0
1041 189 -1042 0
-1041 -189 -1042 0
1041 -189 1042 0
-1041 189 1042 0
1042 190 -1043 0
-1042 -190 -1043 0
1042 -190 1043 0
-1042 190 1043 0
1043 193 -1044 0
-1043 -193 -1044 0
1043 -193 1044 0
-1043 193 1044 0
1044 194 -1045 0
-1044 -194 -1045 0
1044 -194 1045 0
-1044 194 1045 0
1045 197 -1046 0
-1045 -197 -1046 0
1045 -197 1046 0
-1045 197 1046 0
1046 198 -1047 0
-1046 -198 -1047 0
1046 -198 1047 0
-1046 198 1047 0
1047 201 -1048 0
-1047 -201 -1048 0
1047 -201 1048 0
-1047 201 1048 0
1048 202 -1049 0
-1048 -202 -1049 0
1048 -202 1049 0
-1048 202 1049 0
1049 203 -1050 0
-1049 -203 -1050 0
1049 -203 1050 0
-1049 203 1050 0
1050 204 -1051 0
-1050 -204 -1051 0
1050 -204 1051 0
-1050 204 1051 0
1051 209 -1052 0
-1051 -209 -1052 0
1051 -209 1052 0
-1051 209 1052 0
1052 210 -1053 0
-1052 -210 -1053 0
1052 -210 1053 0
-1052 210 1053 0
1053 213 -1054 0
-1053 -213 -1054 0
1053 -213 1054 0
-1053 213 1054 0
1054 214 -1055 0
-1054 -214 -1055 0
1054 -214 1055 0
-1054 214 1055 0
1055 215 -1056 0
-1055 -215 -1056 0
1055 -215 1056 0
-1055 215 1056 0
1056 216 -1057 0
-1056 -216 -1057 0
1056 -216 1057 0
-1056 216 1057 0
3 113 -1058 0
-3 -113 -1058 0
3 -113 1058 0
-3 113 1058 0
1058 114 -1059 0
-1058 -114 -1059 0
1058 -114 1059 0
-1058 114 1059 0
1059 115 -1060 0
-1059 -115 -1060 0
1059 -115 1060 0
-1059 115 1060 0
1060 117 -1061 0
-1060 -117 -1061 0
1060 -117 1061 0
-1060 117 1061 0
1061 118 -1062 0
-1061 -118 -1062 0
1061 -118 1062 0
-1061 118 1062 0
1062 119 -1063 0
-1062 -119 -1063 0
1062 -119 1063 0
-1062 119 1063 0
1063 121 -1064 0
-1063 -121 -1064 0
1063 -121 1064 0
-1063 121 1064 0
1064 122 -1065 0
-1064 -122 -1065 0
1064 -122 1065 0
-1064 122 1065 0
1065 123 -1066 0
-1065 -123 -1066 0
1065 -123 1066 0
-1065 123 1066 0
1066 125 -1067 0
-1066 -125 -1067 0
1066 -125 1067 0
-1066 125 1067 0
1067 126 -1068 0
-1067 -126 -1068 0
1067 -126 1068 0
-1067 126 1068 0
1068 127 -1069 0
-1068 -127 -1069 0
1068 -127 1069 0
-1068 127 1069 0
1069 129 -1070 0
-1069 -129 -1070 0
1069 -129 1070 0
-1069 129 1070 0
1070 130 -1071 0
-1070 -130 -1071 0
1070 -130 1071 0
-1070 130 1071 0
1071 131 -1072 0
-1071 -131 -1072 0
1071 -131 1072 0
-1071 131 1072 0
1072 133 -1073 0
-1072 -133 -1073 0
1072 -133 1073 0
-1072 133 1073 0
1073 134 -1074 0
-1073 -134 -1074 0
1073 -134 1074 0
-1073 134 1074 0
1074 135 -1075 0
-1074 -135 -1075 0
1074 -135 1075 0
-1074 135 1075 0
1075 137 -1076 0
-1075 -137 -1076 0
1075 -137 1076 0
-1075 137 1076 0
1076 138 -1077 0
-1076 -138 -1077 0
1076 -138 1077 0
-1076 138 1077 0
1077 139 -1078 0
-1077 -139 -1078 0
1077 -139 1078 0
-1077 139 1078 0
1078 141 -1079 0
-1078 -141 -1079 0
1078 -141 1079 0
-1078 141 1079 0
1079 142 -1080 0
-1079 -142 -1080 0
1079 -142 1080 0
-1079 142 1080 0
1080 143 -1081 0
-1080 -143 -1081 0
1080 -143 1081 0
-1080 143 1081 0
1081 145 -1082 0
-1081 -145 -1082 0
1081 -145 1082 0
-1081 145 1082 0
1082 146 -1083 0
-1082 -146 -1083 0
1082 -146 1083 0
-1082 146 1083 0
1083 147 -1084 0
-1083 -147 -1084 0
1083 -147 1084 0
-1083 147 1084 0
1084 149 -1085 0
-1084 -149 -1085 0
1084 -149 1085 0
-1084 149 1085 0
1085 150 -1086 0
-1085 -150 -1086 0
1085 -150 1086 0
-1085 150 1086 0
1086 151 -1087 0
-1086 -151 -1087 0
1086 -151 1087 0
-1086 151 1087 0
1087 153 -1088 0
-1087 -153 -1088 0
1087 -153 1088 0
-1087 153 1088 0
1088 154 -1089 0
-1088 -154 -1089 0
1088 -154 1089 0
-1088 154 1089 0
1089 155 -1090 0
-1089 -155 -1090 0
1089 -155 1090 0
-1089 155 1090 0
1090 157 -1091 0
-1090 -157 -1091 0
1090 -157 1091 0
-1090 157 1091 0
1091 158 -1092 0
-1091 -158 -1092 0
1091 -158 1092 0
-1091 158 1092 0
1092 159 -1093 0
-1092 -159 -1093 0
1092 -159 1093 0
-1092 159 1093 0
1093 161 -1094 0
-1093 -161 -1094 0
1093 -161 1094 0
-1093 161 1094 0
1094 162 -1095 0
-1094 -162 -1095 0
1094 -162 1095 0
-1094 162 1095 0
1095 163 -1096 0
-1095 -163 -1096 0
1095 -163 1096 0
-1095 163 1096 0
1096 165 -1097 0
-1096 -165 -1097 0
1096 -165 1097 0
-1096 165 1097 0
1097 166 -1098 0
-1097 -166 -1098 0
1097 -166 1098 0
-1097 166 1098 0
1098 167 -1099 0
-1098 -167 -1099 0
1098 -167 1099 0
-1098 167 1099 0
1099 169 -1100 0
-1099 -169 -1100 0
1099 -169 1100 0
-1099 169 1100 0
1100 170 -1101 0
-1100 -170 -1101 0
1100 -170 1101 0
-1100 170 1101 0
1101 171 -1102 0
-1101 -171 -1102 0
1101 -171 1102 0
-1101 171 1102 0
1102 173 -1103 0
-1102 -173 -1103 0
1102 -173 1103 0
-1102 173 1103 0
1103 174 -1104 0
-1103 -174 -1104 0
1103 -174 1104 0
-1103 174 1104 0
1104 175 -1105 0
-1104 -175 -1105 0
1104 -175 1105 0
-1104 175 1105 0
1105 177 -1106 0
-1105 -177 -1106 0
1105 -177 1106 0
-1105 177 1106 0
1106 178 -1107 0
-1106 -178 -1107 0
1106 -178 1107 0
-1106 178 1107 0
1107 179 -1108 0
-1107 -179 -1108 0
1107 -179 1108 0
-1107 179 1108 0
1108 181 -1109 0
-1108 -181 -1109 0
1108 -181 1109 0
-1108 181 1109 0
1109 182 -1110 0
-1109 -182 -1110 0
1109 -182 1110 0
-1109 182 1110 0
1110 183 -1111 0
-1110 -183 -1111 0
1110 -183 1111 0
-1110 183 1111 0
1111 185 -1112 0
-1111 -185 -1112 0
1111 -185 1112 0
-1111 185 1112 0
1112 186 -1113 0
-1112 -186 -1113 0
1112 -186 1113 0
-1112 186 1113 0
1113 187 -1114 0
-1113 -187 -1114 0
1113 -187 1114 0
-1113 187 1114 0
1114 189 -1115 0
-1114 -189 -1115 0
1114 -189 1115 0
-1114 189 1115 0
1115 190 -1116 0
-1115 -190 -1116 0
1115 -190 1116 0
-1115 190 1116 0
1116 191 -1117 0
-1116 -191 -1117 0
1116 -191 1117 0
-1116 191 1117 0
1117 193 -1118 0
-1117 -193 -1118 0
1117 -193 1118 0
-1117 193 1118 0
1118 194 -1119 0
-1118 -194 -1119 0
1118 -194 1119 0
-1118 194 1119 0
1119 195 -1120 0
-1119 -195 -1120 0
1119 -195 1120 0
-1119 195 1120 0
1120 197 -1121 0
-1120 -197 -1121 0
1120 -197 1121 0
-1120 197 1121 0
1121 198 -1122 0
-1121 -198 -1122 0
1121 -198 1122 0
-1121 198 1122 0
1122 199 -1123 0
-1122 -199 -1123 0
1122 -199 1123 0
-1122 199 1123 0
1123 201 -1124 0
-1123 -201 -1124 0
1123 -201 1124 0
-1123 201 1124 0
1124 202 -1125 0
-1124 -202 -1125 0
1124 -202 1125 0
-1124 202 1125 0
1125 203 -1126 0
-1125 -203 -1126 0
1125 -203 1126 0
-1125 203 1126 0
1126 204 -1127 0
-1126 -204 -1127 0
1126 -204 1127 0
-1126 204 1127 0
1127 209 -1128 0
-1127 -209 -1128 0
1127 -209 1128 0
-1127 209 1128 0
1128 210 -1129 0
-1128 -210 -1129 0
1128 -210 1129 0
-1128 210 1129 0
1129 211 -1130 0
-1129 -211 -1130 0
1129 -211 1130 0
-1129 211 1130 0
1130 213 -1131 0
-1130 -213 -1131 0
1130 -213 1131 0
-1130 213 1131 0
1131 214 -1132 0
-1131 -214 -1132 0
1131 -214 1132 0
-1131 214 1132 0
1132 215 -1133 0
-1132 -215 -1133 0
1132 -215 1133 0
-1132 215 1133 0
1133 216 -1134 0
-1133 -216 -1134 0
1133 -216 1134 0
-1133 216 1134 0
4 113 -1135 0
-4 -113 -1135 0
4 -113 1135 0
-4 113 1135 0
1135 114 -1136 0
-1135 -114 -1136 0
1135 -114 1136 0
-1135 114 1136 0
1136 115 -1137 0
-1136 -115 -1137 0
1136 -115 1137 0
-1136 115 1137 0
1137 116 -1138 0
-1137 -116 -1138 0
1137 -116 1138 0
-1137 116 1138 0
1138 117 -1139 0
-1138 -117 -1139 0
1138 -117 1139 0
-1138 117 1139 0
1139 118 -1140 0
-1139 -118 -1140 0
1139 -118 1140 0
-1139 118 1140 0
1140 119 -1141 0
-1140 -119 -1141 0
1140 -119 1141 0
-1140 119 1141 0
1141 120 -1142 0
-1141 -120 -1142 0
1141 -120 1142 0
-1141 120 1142 0
1142 121 -1143 0
-1142 -121 -1143 0
1142 -121 1143 0
-1142 121 1143 0
1143 122 -1144 0
-1143 -122 -1144 0
1143 -122 1144 0
-1143 122 1144 0
1144 123 -1145 0
-1144 -123 -1145 0
1144 -123 1145 0
-1144 123 1145 0
1145 124 -1146 0
-1145 -124 -1146 0
1145 -124 1146 0
-1145 124 1146 0
1146 125 -1147 0
-1146 -125 -1147 0
1146 -125 1147 0
-1146 125 1147 0
1147 126 -1148 0
-1147 -126 -1148 0
1147 -126 1148 0
-1147 126 1148 0
1148 127 -1149 0
-1148 -127 -1149 0
1148 -127 1149 0
-1148 127 1149 0
1149 128 -1150 0
-1149 -128 -1150 0
1149 -128 1150 0
-1149 128 1150 0
1150 129 -1151 0
-1150 -129 -1151 0
1150 -129 1151 0
-1150 129 1151 0
1151 130 -1152 0
-1151 -130 -1152 0
1151 -130 1152 0
-1151 130 1152 0
1152 131 -1153 0
-1152 -131 -1153 0
1152 -131 1153 0
-1152 131 1153 0
1153 132 -1154 0
-1153 -132 -1154 0
1153 -132 1154 0
-1153 132 1154 0
1154 133 -1155 0
-1154 -133 -1155 0
1154 -133 1155 0
-1154 133 1155 0
1155 134 -1156 0
-1155 -134 -1156 0
1155 -134 1156 0
-1155 134 1156 0
1156 135 -1157 0
-1156 -135 -1157 0
1156 -135 1157 0
-1156 135 1157 0
1157 136 -1158 0
-1157 -136 -1158 0
1157 -136 1158 0
-1157 136 1158 0
1158 137 -1159 0
-1158 -137 -1159 0
1158 -137 1159 0
-1158 137 1159 0
1159 138 -1160 0
-1159 -138 -1160 0
1159 -138 1160 0
-1159 138 1160 0
1160 139 -1161 0
-1160 -139 -1161 0
1160 -139 1161 0
-1160 139 1161 0
1161 140 -1162 0
-1161 -140 -1162 0
1161 -140 1162 0
-1161 140 1162 0
1162 141 -1163 0
-1162 -141 -1163 0
1162 -141 1163 0
-1162 141 1163 0
1163 142 -1164 0
-1163 -142 -1164 0
1163 -142 1164 0
-1163 142 1164 0
1164 143 -1165 0
-1164 -143 -1165 0
1164 -143 1165 0
-1164 143 1165 0
1165 144 -1166 0
-1165 -144 -1166 0
1165 -144 1166 0
-1165 144 1166 0
1166 145 -1167 0
-1166 -145 -1167 0
1166 -145 1167 0
-1166 145 1167 0
1167 146 -1168 0
-1167 -146 -1168 0
1167 -146 1168 0
-1167 146 1168 0
1168 147 -1169 0
-1168 -147 -1169 0
1168 -147 1169 0
-1168 147 1169 0
1169 148 -1170 0
-1169 -148 -1170 0
1169 -148 1170 0
-1169 148 1170 0
1170 149 -1171 0
-1170 -149 -1171 0
1170 -149 1171 0
-1170 149 1171 0
1171 150 -1172 0
-1171 -150 -1172 0
1171 -150 1172 0
-1171 150 1172 0
1172 151 -1173 0
-1172 -151 -1173 0
1172 -151 1173 0
-1172 151 1173 0
1173 152 -1174 0
-1173 -152 -1174 0
1173 -152 1174 0
-1173 152 1174 0
1174 153 -1175 0
-1174 -153 -1175 0
1174 -153 1175 0
-1174 153 1175 0
1175 154 -1176 0
-1175 -154 -1176 0
1175 -154 1176 0
-1175 154 1176 0
1176 155 -1177 0
-1176 -155 -1177 0
1176 -155 1177 0
-1176 155 1177 0
1177 156 -1178 0
-1177 -156 -1178 0
1177 -156 1178 0
-1177 156 1178 0
1178 157 -1179 0
-1178 -157 -1179 0
1178 -157 1179 0
-1178 157 1179 0
1179 158 -1180 0
-1179 -158 -1180 0
1179 -158 1180 0
-1179 158 1180 0
1180 159 -1181 0
-1180 -159 -1181 0
1180 -159 1181 0
-1180 159 1181 0
1181 160 -1182 0
-1181 -160 -1182 0
1181 -160 1182 0
-1181 160 1182 0
1182 161 -1183 0
-1182 -161 -1183 0
1182 -161 1183 0
-1182 161 1183 0
1183 162 -1184 0
-1183 -162 -1184 0
1183 -162 1184 0
-1183 162 1184 0
1184 163 -1185 0
-1184 -163 -1185 0
1184 -163 1185 0
-1184 163 1185 0
1185 164 -1186 0
-1185 -164 -1186 0
1185 -164 1186 0
-1185 164 1186 0
1186 165 -1187 0
-1186 -165 -1187 0
1186 -165 1187 0
-1186 165 1187 0
1187 166 -1188 0
-1187 -166 -1188 0
1187 -166 1188 0
-1187 166 1188 0
1188 167 -1189 0
-1188 -167 -1189 0
1188 -167 1189 0
-1188 167 1189 0
1189 168 -1190 0
-1189 -168 -1190 0
1189 -168 1190 0
-1189 168 1190 0
1190 169 -1191 0
-1190 -169 -1191 0
1190 -169 1191 0
-1190 169 1191 0
1191 170 -1192 0
-1191 -170 -1192 0
1191 -170 1192 0
-1191 170 1192 0
1192 171 -1193 0
-1192 -171 -1193 0
1192 -171 1193 0
-1192 171 1193 0
1193 172 -1194 0
-1193 -172 -1194 0
1193 -172 1194 0
-1193 172 1194 0
1194 173 -1195 0
-1194 -173 -1195 0
1194 -173 1195 0
-1194 173 1195 0
1195 174 -1196 0
-1195 -174 -1196 0
1195 -174 1196 0
-1195 174 1196 0
1196 175 -1197 0
-1196 -175 -1197 0
1196 -175 1197 0
-1196 175 1197 0
1197 176 -1198 0
-1197 -176 -1198 0
1197 -176 1198 0
-1197 176 1198 0
1198 177 -1199 0
-1198 -177 -1199 0
1198 -177 1199 0
-1198 177 1199 0
1199 178 -1200 0
-1199 -178 -1200 0
1199 -178 1200 0
-1199 178 1200 0
1200 179 -1201 0
-1200 -179 -1201 0
1200 -179 1201 0
-1200 179 1201 0
1201 180 -1202 0
-1201 -180 -1202 0
1201 -180 1202 0
-1201 180 1202 0
1202 181 -1203 0
-1202 -181 -1203 0
1202 -181 1203 0
-1202 181 1203 0
1203 182 -1204 0
-1203 -182 -1204 0
1203 -182 1204 0
-1203 182 1204 0
1204 183 -1205 0
-1204 -183 -1205 0
1204 -183 1205 0
-1204 183 1205 0
1205 184 -1206 0
-1205 -184 -1206 0
1205 -184 1206 0
-1205 184 1206 0
1206 185 -1207 0
-1206 -185 -1207 0
1206 -185 1207 0
-1206 185 1207 0
1207 186 -1208 0
-1207 -186 -1208 0
1207 -186 1208 0
-1207 186 1208 0
1208 187 -1209 0
-1208 -187 -1209 0
1208 -187 1209 0
-1208 187 1209 0
1209 188 -1210 0
-1209 -188 -1210 0
1209 -188 1210 0
-1209 188 1210 0
1210 189 -1211 0
-1210 -189 -1211 0
1210 -189 1211 0
-1210 189 1211 0
1211 190 -1212 0
-1211 -190 -1212 0
1211 -190 1212 0
-1211 190 1212 0
1212 191 -1213 0
-1212 -191 -1213 0
1212 -191 1213 0
-1212 191 1213 0
1213 192 -1214 0
-1213 -192 -1214 0
1213 -192 1214 0
-1213 192 1214 0
1214 193 -1215 0
-1214 -193 -1215 0
1214 -193 1215 0
-1214 193 1215 0
1215 194 -1216 0
-1215 -194 -1216 0
1215 -194 1216 0
-1215 194 1216 0
1216 195 -1217 0
-1216 -195 -1217 0
1216 -195 1217 0
-1216 195 1217 0
1217 196 -1218 0
-1217 -196 -1218 0
1217 -196 1218 0
-1217 196 1218 0
1218 197 -1219 0
-1218 -197 -1219 0
1218 -197 1219 0
-1218 197 1219 0
1219 198 -1220 0
-1219 -198 -1220 0
1219 -198 1220 0
-1219 198 1220 0
1220 199 -1221 0
-1220 -199 -1221 0
1220 -199 1221 0
-1220 199 1221 0
1221 200 -1222 0
-1221 -200 -1222 0
1221 -200 1222 0
-1221 200 1222 0
1222 201 -1223 0
-1222 -201 -1223 0
1222 -201 1223 0
-1222 201 1223 0
1223 202 -1224 0
-1223 -202 -1224 0
1223 -202 1224 0
-1223 202 1224 0
1224 203 -1225 0
-1224 -203 -1225 0
1224 -203 1225 0
-1224 203 1225 0
1225 204 -1226 0
-1225 -204 -1226 0
1225 -204 1226 0
-1225 204 1226 0
1226 209 -1227 0
-1226 -209 -1227 0
1226 -209 1227 0
-1226 209 1227 0
1227 210 -1228 0
-1227 -210 -1228 0
1227 -210 1228 0
-1227 210 1228 0
1228 211 -1229 0
-1228 -211 -1229 0
1228 -211 1229 0
-1228 211 1229 0
1229 212 -1230 0
-1229 -212 -1230 0
1229 -212 1230 0
-1229 212 1230 0
1230 213 -1231 0
-1230 -213 -1231 0
1230 -213 1231 0
-1230 213 1231 0
1231 214 -1232 0
-1231 -214 -1232 0
1231 -214 1232 0
-1231 214 1232 0
1232 215 -1233 0
-1232 -215 -1233 0
1232 -215 1233 0
-1232 215 1233 0
1233 216 -1234 0
-1233 -216 -1234 0
1233 -216 1234 0
-1233 216 1234 0
5 113 -1235 0
-5 -113 -1235 0
5 -113 1235 0
-5 113 1235 0
1235 114 -1236 0
-1235 -114 -1236 0
1235 -114 1236 0
-1235 114 1236 0
1236 115 -1237 0
-1236 -115 -1237 0
1236 -115 1237 0
-1236 115 1237 0
1237 116 -1238 0
-1237 -116 -1238 0
1237 -116 1238 0
-1237 116 1238 0
1238 118 -1239 0
-1238 -118 -1239 0
1238 -118 1239 0
-1238 118 1239 0
1239 119 -1240 0
-1239 -119 -1240 0
1239 -119 1240 0
-1239 119 1240 0
1240 120 -1241 0
-1240 -120 -1241 0
1240 -120 1241 0
-1240 120 1241 0
1241 122 -1242 0
-1241 -122 -1242 0
1241 -122 1242 0
-1241 122 1242 0
1242 123 -1243 0
-1242 -123 -1243 0
1242 -123 1243 0
-1242 123 1243 0
1243 124 -1244 0
-1243 -124 -1244 0
1243 -124 1244 0
-1243 124 1244 0
1244 126 -1245 0
-1244 -126 -1245 0
1244 -126 1245 0
-1244 126 1245 0
1245 127 -1246 0
-1245 -127 -1246 0
1245 -127 1246 0
-1245 127 1246 0
1246 128 -1247 0
-1246 -128 -1247 0
1246 -128 1247 0
-1246 128 1247 0
1247 130 -1248 0
-1247 -130 -1248 0
1247 -130 1248 0
-1247 130 1248 0
1248 131 -1249 0
-1248 -131 -1249 0
1248 -131 1249 0
-1248 131 1249 0
1249 132 -1250 0
-1249 -132 -1250 0
1249 -132 1250 0
-1249 132 1250 0
1250 134 -1251 0
-1250 -134 -1251 0
1250 -134 1251 0
-1250 134 1251 0
1251 135 -1252 0
-1251 -135 -1252 0
1251 -135 1252 0
-1251 135 1252 0
1252 136 -1253 0
-1252 -136 -1253 0
1252 -136 1253 0
-1252 136 1253 0
1253 138 -1254 0
-1253 -138 -1254 0
1253 -138 1254 0
-1253 138 1254 0
1254 139 -1255 0
-1254 -139 -1255 0
1254 -139 1255 0
-1254 139 1255 0
1255 140 -1256 0
-1255 -140 -1256 0
1255 -140 1256 0
-1255 140 1256 0
1256 142 -1257 0
-1256 -142 -1257 0
1256 -142 1257 0
-1256 142 1257 0
1257 143 -1258 0
-1257 -143 -1258 0
1257 -143 1258 0
-1257 143 1258 0
1258 144 -1259 0
-1258 -144 -1259 0
1258 -144 1259 0
-1258 144 1259 0
1259 146 -1260 0
-1259 -146 -1260 0
1259 -146 1260 0
-1259 146 1260 0
1260 147 -1261 0
-1260 -147 -1261 0
1260 -147 1261 0
-1260 147 1261 0
1261 148 -1262 0
-1261 -148 -1262 0
1261 -148 1262 0
-1261 148 1262 0
1262 150 -1263 0
-1262 -150 -1263 0
1262 -150 1263 0
-1262 150 1263 0
1263 151 -1264 0
-1263 -151 -1264 0
1263 -151 1264 0
-1263 151 1264 0
1264 152 -1265 0
-1264 -152 -1265 0
1264 -152 1265 0
-1264 152 1265 0
1265 154 -1266 0
-1265 -154 -1266 0
1265 -154 1266 0
-1265 154 1266 0
1266 155 -1267 0
-1266 -155 -1267 0
1266 -155 1267 0
-1266 155 1267 0
1267 156 -1268 0
-1267 -156 -1268 0
1267 -156 1268 0
-1267 156 1268 0
1268 158 -1269 0
-1268 -158 -1269 0
1268 -158 1269 0
-1268 158 1269 0
1269 159 -1270 0
-1269 -159 -1270 0
1269 -159 1270 0
-1269 159 1270 0
1270 160 -1271 0
-1270 -160 -1271 0
1270 -160 1271 0
-1270 160 1271 0
1271 162 -1272 0
-1271 -162 -1272 0
1271 -162 1272 0
-1271 162 1272 0
1272 163 -1273 0
-1272 -163 -1273 0
1272 -163 1273 0
-1272 163 1273 0
1273 164 -1274 0
-1273 -164 -1274 0
1273 -164 1274 0
-1273 164 1274 0
1274 166 -1275 0
-1274 -166 -1275 0
1274 -166 1275 0
-1274 166 1275 0
1275 167 -1276 0
-1275 -167 -1276 0
1275 -167 1276 0
-1275 167 1276 0
1276 168 -1277 0
-1276 -168 -1277 0
1276 -168 1277 0
-1276 168 1277 0
1277 170 -1278 0
-1277 -170 -1278 0
1277 -170 1278 0
-1277 170 1278 0
1278 171 -1279 0
-1278 -171 -1279 0
1278 -171 1279 0
-1278 171 1279 0
1279 172 -1280 0
-1279 -172 -1280 0
1279 -172 1280 0
-1279 172 1280 0
1280 174 -1281 0
-1280 -174 -1281 0
1280 -174 1281 0
-1280 174 1281 0
1281 175 -1282 0
-1281 -175 -1282 0
1281 -175 1282 0
-1281 175 1282 0
1282 176 -1283 0
-1282 -176 -1283 0
1282 -176 1283 0
-1282 176 1283 0
1283 178 -1284 0
-1283 -178 -1284 0
1283 -178 1284 0
-1283 178 1284 0
1284 179 -1285 0
-1284 -179 -1285 0
1284 -179 1285 0
-1284 179 1285 0
1285 180 -1286 0
-1285 -180 -1286 0
1285 -180 1286 0
-1285 180 1286 0
1286 182 -1287 0
-1286 -182 -1287 0
1286 -182 1287 0
-1286 182 1287 0
1287 183 -1288 0
-1287 -183 -1288 0
1287 -183 1288 0
-1287 183 1288 0
1288 184 -1289 0
-1288 -184 -1289 0
1288 -184 1289 0
-1288 184 1289 0
1289 186 -1290 0
-1289 -186 -1290 0
1289 -186 1290 0
-1289 186 1290 0
1290 187 -1291 0
-1290 -187 -1291 0
1290 -187 1291 0
-1290 187 1291 0
1291 188 -1292 0
-1291 -188 -1292 0
1291 -188 1292 0
-1291 188 1292 0
1292 190 -1293 0
-1292 -190 -1293 0
1292 -190 1293 0
-1292 190 1293 0
1293 191 -1294 0
-1293 -191 -1294 0
1293 -191 1294 0
-1293 191 1294 0
1294 192 -1295 0
-1294 -192 -1295 0
1294 -192 1295 0
-1294 192 1295 0
1295 194 -1296 0
-1295 -194 -1296 0
1295 -194 1296 0
-1295 194 1296 0
1296 195 -1297 0
-1296 -195 -1297 0
1296 -195 1297 0
-1296 195 1297 0
1297 196 -1298 0
-1297 -196 -1298 0
1297 -196 1298 0
-1297 196 1298 0
1298 198 -1299 0
-1298 -198 -1299 0
1298 -198 1299 0
-1298 198 1299 0
1299 199 -1300 0
-1299 -199 -1300 0
1299 -199 1300 0
-1299 199 1300 0
1300 200 -1301 0
-1300 -200 -1301 0
1300 -200 1301 0
-1300 200 1301 0
1301 202 -1302 0
-1301 -202 -1302 0
1301 -202 1302 0
-1301 202 1302 0
1302 203 -1303 0
-1302 -203 -1303 0
1302 -203 1303 0
-1302 203 1303 0
1303 204 -1304 0
-1303 -204 -1304 0
1303 -204 1304 0
-1303 204 1304 0
1304 209 -1305 0
-1304 -209 -1305 0
1304 -209 1305 0
-1304 209 1305 0
1305 210 -1306 0
-1305 -210 -1306 0
1305 -210 1306 0
-1305 210 1306 0
1306 211 -1307 0
-1306 -211 -1307 0
1306 -211 1307 0
-1306 211 1307 0
1307 212 -1308 0
-1307 -212 -1308 0
1307 -212 1308 0
-1307 212 1308 0
1308 214 -1309 0
-1308 -214 -1309 0
1308 -214 1309 0
-1308 214 1309 0
1309 215 -1310 0
-1309 -215 -1310 0
1309 -215 1310 0
-1309 215 1310 0
1310 216 -1311 0
-1310 -216 -1311 0
1310 -216 1311 0
-1310 216 1311 0
9 114 -1312 0
-9 -114 -1312 0
9 -114 1312 0
-9 114 1312 0
1312 115 -1313 0
-1312 -115 -1313 0
1312 -115 1313 0
-1312 115 1313 0
1313 116 -1314 0
-1313 -116 -1314 0
1313 -116 1314 0
-1313 116 1314 0
1314 117 -1315 0
-1314 -117 -1315 0
1314 -117 1315 0
-1314 117 1315 0
1315 210 -1316 0
-1315 -210 -1316 0
1315 -210 1316 0
-1315 210 1316 0
1316 211 -1317 0
-1316 -211 -1317 0
1316 -211 1317 0
-1316 211 1317 0
1317 212 -1318 0
-1317 -212 -1318 0
1317 -212 1318 0
-1317 212 1318 0
1318 213 -1319 0
-1318 -213 -1319 0
1318 -213 1319 0
-1318 213 1319 0
10 115 -1320 0
-10 -115 -1320 0
10 -115 1320 0
-10 115 1320 0
1320 116 -1321 0
-1320 -116 -1321 0
1320 -116 1321 0
-1320 116 1321 0
1321 117 -1322 0
-1321 -117 -1322 0
1321 -117 1322 0
-1321 117 1322 0
1322 118 -1323 0
-1322 -118 -1323 0
1322 -118 1323 0
-1322 118 1323 0
1323 211 -1324 0
-1323 -211 -1324 0
1323 -211 1324 0
-1323 211 1324 0
1324 212 -1325 0
-1324 -212 -1325 0
1324 -212 1325 0
-1324 212 1325 0
1325 213 -1326 0
-1325 -213 -1326 0
1325 -213 1326 0
-1325 213 1326 0
1326 214 -1327 0
-1326 -214 -1327 0
1326 -214 1327 0
-1326 214 1327 0
11 116 -1328 0
-11 -116 -1328 0
11 -116 1328 0
-11 116 1328 0
1328 117 -1329 0
-1328 -117 -1329 0
1328 -117 1329 0
-1328 117 1329 0
1329 118 -1330 0
-1329 -118 -1330 0
1329 -118 1330 0
-1329 118 1330 0
1330 119 -1331 0
-1330 -119 -1331 0
1330 -119 1331 0
-1330 119 1331 0
1331 212 -1332 0
-1331 -212 -1332 0
1331 -212 1332 0
-1331 212 1332 0
1332 213 -1333 0
-1332 -213 -1333 0
1332 -213 1333 0
-1332 213 1333 0
1333 214 -1334 0
-1333 -214 -1334 0
1333 -214 1334 0
-1333 214 1334 0
1334 215 -1335 0
-1334 -215 -1335 0
1334 -215 1335 0
-1334 215 1335 0
1003 1057 1134 1234 1311 1319 1327 1335 0
1 0
-1344 1338 1345 0
-1341 1338 1345 0
-1341 -1344 1345 0
-1345 1336 0
-1342 1336 0
-1345 -1342 1337 0
-1343 1337 0
-1345 -1343 0
-1339 1336 0
-1345 -1339 1337 0
-1340 1337 0
-1345 -1340 0
-1339 -1342 1337 0
-1345 -1339 -1342 0
-1339 -1343 0
-1345 -1339 -1343 0
-1340 -1342 0
-1345 -1340 -1342 0
-1340 -1343 0
-1345 -1340 -1343 0
-1351 1344 1352 0
-1348 1344 1352 0
-1348 -1351 1352 0
-1352 1342 0
-1349 1342 0
-1352 -1349 1343 0
-1350 1343 0
-1352 -1350 0
-1346 1342 0
-1352 -1346 1343 0
-1347 1343 0
-1352 -1347 0
-1346 -1349 1343 0
-1352 -1346 -1349 0
-1346 -1350 0
-1352 -1346 -1350 0
-1347 -1349 0
-1352 -1347 -1349 0
-1347 -1350 0
-1352 -1347 -1350 0
-1358 1351 1359 0
-1355 1351 1359 0
-1355 -1358 1359 0
-1359 1349 0
-1356 1349 0
-1359 -1356 1350 0
-1357 1350 0
-1359 -1357 0
-1353 1349 0
-1359 -1353 1350 0
-1354 1350 0
-1359 -1354 0
-1353 -1356 1350 0
-1359 -1353 -1356 0
-1353 -1357 0
-1359 -1353 -1357 0
-1354 -1356 0
-1359 -1354 -1356 0
-1354 -1357 0
-1359 -1354 -1357 0
-1365 1358 1366 0
-1362 1358 1366 0
-1362 -1365 1366 0
-1366 1356 0
-1363 1356 0
-1366 -1363 1357 0
-1364 1357 0
-1366 -1364 0
-1360 1356 0
-1366 -1360 1357 0
-1361 1357 0
-1366 -1361 0
-1360 -1363 1357 0
-1366 -1360 -1363 0
-1360 -1364 0
-1366 -1360 -1364 0
-1361 -1363 0
-1366 -1361 -1363 0
-1361 -1364 0
-1366 -1361 -1364 0
-1372 1365 1373 0
-1369 1365 1373 0
-1369 -1372 1373 0
-1373 1363 0
-1370 1363 0
-1373 -1370 1364 0
-1371 1364 0
-1373 -1371 0
-1367 1363 0
-1373 -1367 1364 0
-1368 1364 0
-1373 -1368 0
-1367 -1370 1364 0
-1373 -1367 -1370 0
-1367 -1371 0
-1373 -1367 -1371 0
-1368 -1370 0
-1373 -1368 -1370 0
-1368 -1371 0
-1373 -1368 -1371 0
-1377 1372 1378 0
-1375 1372 1378 0
-1375 -1377 1378 0
-1378 1370 0
-1376 1370 0
-1378 -1376 1371 0
-1374 1370 0
-1378 -1374 1371 0
-1374 -1376 1371 0
-1378 -1374 -1376 0
-216 1377 1381 0
-1380 1377 1381 0
-1380 -216 1381 0
-1381 1376 0
-1379 1376 0
-1381 -1379 0
-215 1380 1382 0
-214 1380 1382 0
-214 -215 1382 0
-1382 1379 0
-213 1375 1385 0
-1384 1375 1385 0
-1384 -213 1385 0
-1385 1374 0
-1383 1374 0
-1385 -1383 0
-212 1384 1386 0
-211 1384 1386 0
-211 -212 1386 0
-1386 1383 0
-1391 1369 1392 0
-1389 1369 1392 0
-1389 -1391 1392 0
-1392 1367 0
-1390 1367 0
-1392 -1390 1368 0
-1387 1367 0
-1392 -1387 1368 0
-1388 1368 0
-1392 -1388 0
-1387 -1390 1368 0
-1392 -1387 -1390 0
-1388 -1390 0
-1392 -1388 -1390 0
-210 1391 1395 0
-1394 1391 1395 0
-1394 -210 1395 0
-1395 1390 0
-1393 1390 0
-1395 -1393 0
-209 1394 1396 0
-208 1394 1396 0
-208 -209 1396 0
-1396 1393 0
-1400 1389 1401 0
-1398 1389 1401 0
-1398 -1400 1401 0
-1401 1387 0
-1399 1387 0
-1401 -1399 1388 0
-1397 1387 0
-1401 -1397 1388 0
-1397 -1399 1388 0
-1401 -1397 -1399 0
-207 1400 1402 0
-206 1400 1402 0
-206 -207 1402 0
-1402 1399 0
-205 1398 1403 0
-204 1398 1403 0
-204 -205 1403 0
-1403 1397 0
-1409 1362 1410 0
-1406 1362 1410 0
-1406 -1409 1410 0
-1410 1360 0
-1407 1360 0
-1410 -1407 1361 0
-1408 1361 0
-1410 -1408 0
-1404 1360 0
-1410 -1404 1361 0
-1405 1361 0
-1410 -1405 0
-1404 -1407 1361 0
-1410 -1404 -1407 0
-1404 -1408 0
-1410 -1404 -1408 0
-1405 -1407 0
-1410 -1405 -1407 0
-1405 -1408 0
-1410 -1405 -1408 0
-1415 1409 1416 0
-1413 1409 1416 0
-1413 -1415 1416 0
-1416 1407 0
-1414 1407 0
-1416 -1414 1408 0
-1411 1407 0
-1416 -1411 1408 0
-1412 1408 0
-1416 -1412 0
-1411 -1414 1408 0
-1416 -1411 -1414 0
-1412 -1414 0
-1416 -1412 -1414 0
-203 1415 1419 0
-1418 1415 1419 0
-1418 -203 1419 0
-1419 1414 0
-1417 1414 0
-1419 -1417 0
-202 1418 1420 0
-201 1418 1420 0
-201 -202 1420 0
-1420 1417 0
-1424 1413 1425 0
-1422 1413 1425 0
-1422 -1424 1425 0
-1425 1411 0
-1423 1411 0
-1425 -1423 1412 0
-1421 1411 0
-1425 -1421 1412 0
-1421 -1423 1412 0
-1425 -1421 -1423 0
-200 1424 1426 0
-199 1424 1426 0
-199 -200 1426 0
-1426 1423 0
-198 1422 1427 0
-197 1422 1427 0
-197 -198 1427 0
-1427 1421 0
-1432 1406 1433 0
-1430 1406 1433 0
-1430 -1432 1433 0
-1433 1404 0
-1431 1404 0
-1433 -1431 1405 0
-1428 1404 0
-1433 -1428 1405 0
-1429 1405 0
-1433 -1429 0
-1428 -1431 1405 0
-1433 -1428 -1431 0
-1429 -1431 0
-1433 -1429 -1431 0
-196 1432 1436 0
-1435 1432 1436 0
-1435 -196 1436 0
-1436 1431 0
-1434 1431 0
-1436 -1434 0
-195 1435 1437 0
-194 1435 1437 0
-194 -195 1437 0
-1437 1434 0
-1441 1430 1442 0
-1439 1430 1442 0
-1439 -1441 1442 0
-1442 1428 0
-1440 1428 0
-1442 -1440 1429 0
-1438 1428 0
-1442 -1438 1429 0
-1438 -1440 1429 0
-1442 -1438 -1440 0
-193 1441 1443 0
-192 1441 1443 0
-192 -193 1443 0
-1443 1440 0
-191 1439 1444 0
-190 1439 1444 0
-190 -191 1444 0
-1444 1438 0
-1450 1355 1451 0
-1447 1355 1451 0
-1447 -1450 1451 0
-1451 1353 0
-1448 1353 0
-1451 -1448 1354 0
-1449 1354 0
-1451 -1449 0
-1445 1353 0
-1451 -1445 1354 0
-1446 1354 0
-1451 -1446 0
-1445 -1448 1354 0
-1451 -1445 -1448 0
-1445 -1449 0
-1451 -1445 -1449 0
-1446 -1448 0
-1451 -1446 -1448 0
-1446 -1449 0
-1451 -1446 -1449 0
-1457 1450 1458 0
-1454 1450 1458 0
-1454 -1457 1458 0
-1458 1448 0
-1455 1448 0
-1458 -1455 1449 0
-1456 1449 0
-1458 -1456 0
-1452 1448 0
-1458 -1452 1449 0
-1453 1449 0
-1458 -1453 0
-1452 -1455 1449 0
-1458 -1452 -1455 0
-1452 -1456 0
-1458 -1452 -1456 0
-1453 -1455 0
-1458 -1453 -1455 0
-1453 -1456 0
-1458 -1453 -1456 0
-1462 1457 1463 0
-1460 1457 1463 0
-1460 -1462 1463 0
-1463 1455 0
-1461 1455 0
-1463 -1461 1456 0
-1459 1455 0
-1463 -1459 1456 0
-1459 -1461 1456 0
-1463 -1459 -1461 0
-189 1462 1466 0
-1465 1462 1466 0
-1465 -189 1466 0
-1466 1461 0
-1464 1461 0
-1466 -1464 0
-188 1465 1467 0
-187 1465 1467 0
-187 -188 1467 0
-1467 1464 0
-186 1460 1470 0
-1469 1460 1470 0
-1469 -186 1470 0
-1470 1459 0
-1468 1459 0
-1470 -1468 0
-185 1469 1471 0
-184 1469 1471 0
-184 -185 1471 0
-1471 1468 0
-1476 1454 1477 0
-1474 1454 1477 0
-1474 -1476 1477 0
-1477 1452 0
-1475 1452 0
-1477 -1475 1453 0
-1472 1452 0
-1477 -1472 1453 0
-1473 1453 0
-1477 -1473 0
-1472 -1475 1453 0
-1477 -1472 -1475 0
-1473 -1475 0
-1477 -1473 -1475 0
-183 1476 1480 0
-1479 1476 1480 0
-1479 -183 1480 0
-1480 1475 0
-1478 1475 0
-1480 -1478 0
-182 1479 1481 0
-181 1479 1481 0
-181 -182 1481 0
-1481 1478 0
-1485 1474 1486 0
-1483 1474 1486 0
-1483 -1485 1486 0
-1486 1472 0
-1484 1472 0
-1486 -1484 1473 0
-1482 1472 0
-1486 -1482 1473 0
-1482 -1484 1473 0
-1486 -1482 -1484 0
-180 1485 1487 0
-179 1485 1487 0
-179 -180 1487 0
-1487 1484 0
-178 1483 1488 0
-177 1483 1488 0
-177 -178 1488 0
-1488 1482 0
-1494 1447 1495 0
-1491 1447 1495 0
-1491 -1494 1495 0
-1495 1445 0
-1492 1445 0
-1495 -1492 1446 0
-1493 1446 0
-1495 -1493 0
-1489 1445 0
-1495 -1489 1446 0
-1490 1446 0
-1495 -1490 0
-1489 -1492 1446 0
-1495 -1489 -1492 0
-1489 -1493 0
-1495 -1489 -1493 0
-1490 -1492 0
-1495 -1490 -1492 0
-1490 -1493 0
-1495 -1490 -1493 0
-1500 1494 1501 0
-1498 1494 1501 0
-1498 -1500 1501 0
-1501 1492 0
-1499 1492 0
-1501 -1499 1493 0
-1496 1492 0
-1501 -1496 1493 0
-1497 1493 0
-1501 -1497 0
-1496 -1499 1493 0
-1501 -1496 -1499 0
-1497 -1499 0
-1501 -1497 -1499 0
-176 1500 1504 0
-1503 1500 1504 0
-1503 -176 1504 0
-1504 1499 0
-1502 1499 0
-1504 -1502 0
-175 1503 1505 0
-174 1503 1505 0
-174 -175 1505 0
-1505 1502 0
-1509 1498 1510 0
-1507 1498 1510 0
-1507 -1509 1510 0
-1510 1496 0
-1508 1496 0
-1510 -1508 1497 0
-1506 1496 0
-1510 -1506 1497 0
-1506 -1508 1497 0
-1510 -1506 -1508 0
-173 1509 1511 0
-172 1509 1511 0
-172 -173 1511 0
-1511 1508 0
-171 1507 1512 0
-170 1507 1512 0
-170 -171 1512 0
-1512 1506 0
-1517 1491 1518 0
-1515 1491 1518 0
-1515 -1517 1518 0
-1518 1489 0
-1516 1489 0
-1518 -1516 1490 0
-1513 1489 0
-1518 -1513 1490 0
-1514 1490 0
-1518 -1514 0
-1513 -1516 1490 0
-1518 -1513 -1516 0
-1514 -1516 0
-1518 -1514 -1516 0
-169 1517 1521 0
-1520 1517 1521 0
-1520 -169 1521 0
-1521 1516 0
-1519 1516 0
-1521 -1519 0
-168 1520 1522 0
-167 1520 1522 0
-167 -168 1522 0
-1522 1519 0
-1526 1515 1527 0
-1524 1515 1527 0
-1524 -1526 1527 0
-1527 1513 0
-1525 1513 0
-1527 -1525 1514 0
-1523 1513 0
-1527 -1523 1514 0
-1523 -1525 1514 0
-1527 -1523 -1525 0
-166 1526 1528 0
-165 1526 1528 0
-165 -166 1528 0
-1528 1525 0
-164 1524 1529 0
-163 1524 1529 0
-163 -164 1529 0
-1529 1523 0
-1535 1348 1536 0
-1532 1348 1536 0
-1532 -1535 1536 0
-1536 1346 0
-1533 1346 0
-1536 -1533 1347 0
-1534 1347 0
-1536 -1534 0
-1530 1346 0
-1536 -1530 1347 0
-1531 1347 0
-1536 -1531 0
-1530 -1533 1347 0
-1536 -1530 -1533 0
-1530 -1534 0
-1536 -1530 -1534 0
-1531 -1533 0
-1536 -1531 -1533 0
-1531 -1534 0
-1536 -1531 -1534 0
-1542 1535 1543 0
-1539 1535 1543 0
-1539 -1542 1543 0
-1543 1533 0
-1540 1533 0
-1543 -1540 1534 0
-1541 1534 0
-1543 -1541 0
-1537 1533 0
-1543 -1537 1534 0
-1538 1534 0
-1543 -1538 0
-1537 -1540 1534 0
-1543 -1537 -1540 0
-1537 -1541 0
-1543 -1537 -1541 0
-1538 -1540 0
-1543 -1538 -1540 0
-1538 -1541 0
-1543 -1538 -1541 0
-1549 1542 1550 0
-1546 1542 1550 0
-1546 -1549 1550 0
-1550 1540 0
-1547 1540 0
-1550 -1547 1541 0
-1548 1541 0
-1550 -1548 0
-1544 1540 0
-1550 -1544 1541 0
-1545 1541 0
-1550 -1545 0
-1544 -1547 1541 0
-1550 -1544 -1547 0
-1544 -1548 0
-1550 -1544 -1548 0
-1545 -1547 0
-1550 -1545 -1547 0
-1545 -1548 0
-1550 -1545 -1548 0
-1554 1549 1555 0
-1552 1549 1555 0
-1552 -1554 1555 0
-1555 1547 0
-1553 1547 0
-1555 -1553 1548 0
-1551 1547 0
-1555 -1551 1548 0
-1551 -1553 1548 0
-1555 -1551 -1553 0
-162 1554 1558 0
-1557 1554 1558 0
-1557 -162 1558 0
-1558 1553 0
-1556 1553 0
-1558 -1556 0
-161 1557 1559 0
-160 1557 1559 0
-160 -161 1559 0
-1559 1556 0
-159 1552 1562 0
-1561 1552 1562 0
-1561 -159 1562 0
-1562 1551 0
-1560 1551 0
-1562 -1560 0
-158 1561 1563 0
-157 1561 1563 0
-157 -158 1563 0
-1563 1560 0
-1568 1546 1569 0
-1566 1546 1569 0
-1566 -1568 1569 0
-1569 1544 0
-1567 1544 0
-1569 -1567 1545 0
-1564 1544 0
-1569 -1564 1545 0
-1565 1545 0
-1569 -1565 0
-1564 -1567 1545 0
-1569 -1564 -1567 0
-1565 -1567 0
-1569 -1565 -1567 0
-156 1568 1572 0
-1571 1568 1572 0
-1571 -156 1572 0
-1572 1567 0
-1570 1567 0
-1572 -1570 0
-155 1571 1573 0
-154 1571 1573 0
-154 -155 1573 0
-1573 1570 0
-1577 1566 1578 0
-1575 1566 1578 0
-1575 -1577 1578 0
-1578 1564 0
-1576 1564 0
-1578 -1576 1565 0
-1574 1564 0
-1578 -1574 1565 0
-1574 -1576 1565 0
-1578 -1574 -1576 0
-153 1577 1579 0
-152 1577 1579 0
-152 -153 1579 0
-1579 1576 0
-151 1575 1580 0
-150 1575 1580 0
-150 -151 1580 0
-1580 1574 0
-1586 1539 1587 0
-1583 1539 1587 0
-1583 -1586 1587 0
-1587 1537 0
-1584 1537 0
-1587 -1584 1538 0
-1585 1538 0
-1587 -1585 0
-1581 1537 0
-1587 -1581 1538 0
-1582 1538 0
-1587 -1582 0
-1581 -1584 1538 0
-1587 -1581 -1584 0
-1581 -1585 0
-1587 -1581 -1585 0
-1582 -1584 0
-1587 -1582 -1584 0
-1582 -1585 0
-1587 -1582 -1585 0
-1592 1586 1593 0
-1590 1586 1593 0
-1590 -1592 1593 0
-1593 1584 0
-1591 1584 0
-1593 -1591 1585 0
-1588 1584 0
-1593 -1588 1585 0
-1589 1585 0
-1593 -1589 0
-1588 -1591 1585 0
-1593 -1588 -1591 0
-1589 -1591 0
-1593 -1589 -1591 0
-149 1592 1596 0
-1595 1592 1596 0
-1595 -149 1596 0
-1596 1591 0
-1594 1591 0
-1596 -1594 0
-148 1595 1597 0
-147 1595 1597 0
-147 -148 1597 0
-1597 1594 0
-1601 1590 1602 0
-1599 1590 1602 0
-1599 -1601 1602 0
-1602 1588 0
-1600 1588 0
-1602 -1600 1589 0
-1598 1588 0
-1602 -1598 1589 0
-1598 -1600 1589 0
-1602 -1598 -1600 0
-146 1601 1603 0
-145 1601 1603 0
-145 -146 1603 0
-1603 1600 0
-144 1599 1604 0
-143 1599 1604 0
-143 -144 1604 0
-1604 1598 0
-1609 1583 1610 0
-1607 1583 1610 0
-1607 -1609 1610 0
-1610 1581 0
-1608 1581 0
-1610 -1608 1582 0
-1605 1581 0
-1610 -1605 1582 0
-1606 1582 0
-1610 -1606 0
-1605 -1608 1582 0
-1610 -1605 -1608 0
-1606 -1608 0
-1610 -1606 -1608 0
-142 1609 1613 0
-1612 1609 1613 0
-1612 -142 1613 0
-1613 1608 0
-1611 1608 0
-1613 -1611 0
-141 1612 1614 0
-140 1612 1614 0
-140 -141 1614 0
-1614 1611 0
-1618 1607 1619 0
-1616 1607 1619 0
-1616 -1618 1619 0
-1619 1605 0
-1617 1605 0
-1619 -1617 1606 0
-1615 1605 0
-1619 -1615 1606 0
-1615 -1617 1606 0
-1619 -1615 -1617 0
-139 1618 1620 0
-138 1618 1620 0
-138 -139 1620 0
-1620 1617 0
-137 1616 1621 0
-136 1616 1621 0
-136 -137 1621 0
-1621 1615 0
-1627 1532 1628 0
-1624 1532 1628 0
-1624 -1627 1628 0
-1628 1530 0
-1625 1530 0
-1628 -1625 1531 0
-1626 1531 0
-1628 -1626 0
-1622 1530 0
-1628 -1622 1531 0
-1623 1531 0
-1628 -1623 0
-1622 -1625 1531 0
-1628 -1622 -1625 0
-1622 -1626 0
-1628 -1622 -1626 0
-1623 -1625 0
-1628 -1623 -1625 0
-1623 -1626 0
-1628 -1623 -1626 0
-1634 1627 1635 0
-1631 1627 1635 0
-1631 -1634 1635 0
-1635 1625 0
-1632 1625 0
-1635 -1632 1626 0
-1633 1626 0
-1635 -1633 0
-1629 1625 0
-1635 -1629 1626 0
-1630 1626 0
-1635 -1630 0
-1629 -1632 1626 0
-1635 -1629 -1632 0
-1629 -1633 0
-1635 -1629 -1633 0
-1630 -1632 0
-1635 -1630 -1632 0
-1630 -1633 0
-1635 -1630 -1633 0
-1639 1634 1640 0
-1637 1634 1640 0
-1637 -1639 1640 0
-1640 1632 0
-1638 1632 0
-1640 -1638 1633 0
-1636 1632 0
-1640 -1636 1633 0
-1636 -1638 1633 0
-1640 -1636 -1638 0
-135 1639 1643 0
-1642 1639 1643 0
-1642 -135 1643 0
-1643 1638 0
-1641 1638 0
-1643 -1641 0
-134 1642 1644 0
-133 1642 1644 0
-133 -134 1644 0
-1644 1641 0
-132 1637 1647 0
-1646 1637 1647 0
-1646 -132 1647 0
-1647 1636 0
-1645 1636 0
-1647 -1645 0
-131 1646 1648 0
-130 1646 1648 0
-130 -131 1648 0
-1648 1645 0
-1653 1631 1654 0
-1651 1631 1654 0
-1651 -1653 1654 0
-1654 1629 0
-1652 1629 0
-1654 -1652 1630 0
-1649 1629 0
-1654 -1649 1630 0
-1650 1630 0
-1654 -1650 0
-1649 -1652 1630 0
-1654 -1649 -1652 0
-1650 -1652 0
-1654 -1650 -1652 0
-129 1653 1657 0
-1656 1653 1657 0
-1656 -129 1657 0
-1657 1652 0
-1655 1652 0
-1657 -1655 0
-128 1656 1658 0
-127 1656 1658 0
-127 -128 1658 0
-1658 1655 0
-1662 1651 1663 0
-1660 1651 1663 0
-1660 -1662 1663 0
-1663 1649 0
-1661 1649 0
-1663 -1661 1650 0
-1659 1649 0
-1663 -1659 1650 0
-1659 -1661 1650 0
-1663 -1659 -1661 0
-126 1662 1664 0
-125 1662 1664 0
-125 -126 1664 0
-1664 1661 0
-124 1660 1665 0
-123 1660 1665 0
-123 -124 1665 0
-1665 1659 0
-1671 1624 1672 0
-1668 1624 1672 0
-1668 -1671 1672 0
-1672 1622 0
-1669 1622 0
-1672 -1669 1623 0
-1670 1623 0
-1672 -1670 0
-1666 1622 0
-1672 -1666 1623 0
-1667 1623 0
-1672 -1667 0
-1666 -1669 1623 0
-1672 -1666 -1669 0
-1666 -1670 0
-1672 -1666 -1670 0
-1667 -1669 0
-1672 -1667 -1669 0
-1667 -1670 0
-1672 -1667 -1670 0
-1677 1671 1678 0
-1675 1671 1678 0
-1675 -1677 1678 0
-1678 1669 0
-1676 1669 0
-1678 -1676 1670 0
-1673 1669 0
-1678 -1673 1670 0
-1674 1670 0
-1678 -1674 0
-1673 -1676 1670 0
-1678 -1673 -1676 0
-1674 -1676 0
-1678 -1674 -1676 0
-122 1677 1681 0
-1680 1677 1681 0
-1680 -122 1681 0
-1681 1676 0
-1679 1676 0
-1681 -1679 0
-121 1680 1682 0
-120 1680 1682 0
-120 -121 1682 0
-1682 1679 0
-1686 1675 1687 0
-1684 1675 1687 0
-1684 -1686 1687 0
-1687 1673 0
-1685 1673 0
-1687 -1685 1674 0
-1683 1673 0
-1687 -1683 1674 0
-1683 -1685 1674 0
-1687 -1683 -1685 0
-119 1686 1688 0
-118 1686 1688 0
-118 -119 1688 0
-1688 1685 0
-117 1684 1689 0
-116 1684 1689 0
-116 -117 1689 0
-1689 1683 0
-1694 1668 1695 0
-1692 1668 1695 0
-1692 -1694 1695 0
-1695 1666 0
-1693 1666 0
-1695 -1693 1667 0
-1690 1666 0
-1695 -1690 1667 0
-1691 1667 0
-1695 -1691 0
-1690 -1693 1667 0
-1695 -1690 -1693 0
-1691 -1693 0
-1695 -1691 -1693 0
-115 1694 1698 0
-1697 1694 1698 0
-1697 -115 1698 0
-1698 1693 0
-1696 1693 0
-1698 -1696 0
-114 1697 1699 0
-113 1697 1699 0
-113 -114 1699 0
-1699 1696 0
-1703 1692 1704 0
-1701 1692 1704 0
-1701 -1703 1704 0
-1704 1690 0
-1702 1690 0
-1704 -1702 1691 0
-1700 1690 0
-1704 -1700 1691 0
-1700 -1702 1691 0
-1704 -1700 -1702 0
-112 1703 1705 0
-111 1703 1705 0
-111 -112 1705 0
-1705 1702 0
-110 1701 1706 0
-109 1701 1706 0
-109 -110 1706 0
-1706 1700 0
-1712 1341 1713 0
-1709 1341 1713 0
-1709 -1712 1713 0
-1713 1339 0
-1710 1339 0
-1713 -1710 1340 0
-1711 1340 0
-1713 -1711 0
-1707 1339 0
-1713 -1707 1340 0
-1708 1340 0
-1713 -1708 0
-1707 -1710 1340 0
-1713 -1707 -1710 0
-1707 -1711 0
-1713 -1707 -1711 0
-1708 -1710 0
-1713 -1708 -1710 0
-1708 -1711 0
-1713 -1708 -1711 0
-1719 1712 1720 0
-1716 1712 1720 0
-1716 -1719 1720 0
-1720 1710 0
-1717 1710 0
-1720 -1717 1711 0
-1718 1711 0
-1720 -1718 0
-1714 1710 0
-1720 -1714 1711 0
-1715 1711 0
-1720 -1715 0
-1714 -1717 1711 0
-1720 -1714 -1717 0
-1714 -1718 0
-1720 -1714 -1718 0
-1715 -1717 0
-1720 -1715 -1717 0
-1715 -1718 0
-1720 -1715 -1718 0
-1726 1719 1727 0
-1723 1719 1727 0
-1723 -1726 1727 0
-1727 1717 0
-1724 1717 0
-1727 -1724 1718 0
-1725 1718 0
-1727 -1725 0
-1721 1717 0
-1727 -1721 1718 0
-1722 1718 0
-1727 -1722 0
-1721 -1724 1718 0
-1727 -1721 -1724 0
-1721 -1725 0
-1727 -1721 -1725 0
-1722 -1724 0
-1727 -1722 -1724 0
-1722 -1725 0
-1727 -1722 -1725 0
-1733 1726 1734 0
-1730 1726 1734 0
-1730 -1733 1734 0
-1734 1724 0
-1731 1724 0
-1734 -1731 1725 0
-1732 1725 0
-1734 -1732 0
-1728 1724 0
-1734 -1728 1725 0
-1729 1725 0
-1734 -1729 0
-1728 -1731 1725 0
-1734 -1728 -1731 0
-1728 -1732 0
-1734 -1728 -1732 0
-1729 -1731 0
-1734 -1729 -1731 0
-1729 -1732 0
-1734 -1729 -1732 0
-1738 1733 1739 0
-1736 1733 1739 0
-1736 -1738 1739 0
-1739 1731 0
-1737 1731 0
-1739 -1737 1732 0
-1735 1731 0
-1739 -1735 1732 0
-1735 -1737 1732 0
-1739 -1735 -1737 0
-108 1738 1742 0
-1741 1738 1742 0
-1741 -108 1742 0
-1742 1737 0
-1740 1737 0
-1742 -1740 0
-107 1741 1743 0
-106 1741 1743 0
-106 -107 1743 0
-1743 1740 0
-105 1736 1746 0
-1745 1736 1746 0
-1745 -105 1746 0
-1746 1735 0
-1744 1735 0
-1746 -1744 0
-104 1745 1747 0
-103 1745 1747 0
-103 -104 1747 0
-1747 1744 0
-1752 1730 1753 0
-1750 1730 1753 0
-1750 -1752 1753 0
-1753 1728 0
-1751 1728 0
-1753 -1751 1729 0
-1748 1728 0
-1753 -1748 1729 0
-1749 1729 0
-1753 -1749 0
-1748 -1751 1729 0
-1753 -1748 -1751 0
-1749 -1751 0
-1753 -1749 -1751 0
-102 1752 1756 0
-1755 1752 1756 0
-1755 -102 1756 0
-1756 1751 0
-1754 1751 0
-1756 -1754 0
-101 1755 1757 0
-100 1755 1757 0
-100 -101 1757 0
-1757 1754 0
-1761 1750 1762 0
-1759 1750 1762 0
-1759 -1761 1762 0
-1762 1748 0
-1760 1748 0
-1762 -1760 1749 0
-1758 1748 0
-1762 -1758 1749 0
-1758 -1760 1749 0
-1762 -1758 -1760 0
-99 1761 1763 0
-98 1761 1763 0
-98 -99 1763 0
-1763 1760 0
-97 1759 1764 0
-96 1759 1764 0
-96 -97 1764 0
-1764 1758 0
-1770 1723 1771 0
-1767 1723 1771 0
-1767 -1770 1771 0
-1771 1721 0
-1768 1721 0
-1771 -1768 1722 0
-1769 1722 0
-1771 -1769 0
-1765 1721 0
-1771 -1765 1722 0
-1766 1722 0
-1771 -1766 0
-1765 -1768 1722 0
-1771 -1765 -1768 0
-1765 -1769 0
-1771 -1765 -1769 0
-1766 -1768 0
-1771 -1766 -1768 0
-1766 -1769 0
-1771 -1766 -1769 0
-1776 1770 1777 0
-1774 1770 1777 0
-1774 -1776 1777 0
-1777 1768 0
-1775 1768 0
-1777 -1775 1769 0
-1772 1768 0
-1777 -1772 1769 0
-1773 1769 0
-1777 -1773 0
-1772 -1775 1769 0
-1777 -1772 -1775 0
-1773 -1775 0
-1777 -1773 -1775 0
-95 1776 1780 0
-1779 1776 1780 0
-1779 -95 1780 0
-1780 1775 0
-1778 1775 0
-1780 -1778 0
-94 1779 1781 0
-93 1779 1781 0
-93 -94 1781 0
-1781 1778 0
-1785 1774 1786 0
-1783 1774 1786 0
-1783 -1785 1786 0
-1786 1772 0
-1784 1772 0
-1786 -1784 1773 0
-1782 1772 0
-1786 -1782 1773 0
-1782 -1784 1773 0
-1786 -1782 -1784 0
-92 1785 1787 0
-91 1785 1787 0
-91 -92 1787 0
-1787 1784 0
-90 1783 1788 0
-89 1783 1788 0
-89 -90 1788 0
-1788 1782 0
-1793 1767 1794 0
-1791 1767 1794 0
-1791 -1793 1794 0
-1794 1765 0
-1792 1765 0
-1794 -1792 1766 0
-1789 1765 0
-1794 -1789 1766 0
-1790 1766 0
-1794 -1790 0
-1789 -1792 1766 0
-1794 -1789 -1792 0
-1790 -1792 0
-1794 -1790 -1792 0
-88 1793 1797 0
-1796 1793 1797 0
-1796 -88 1797 0
-1797 1792 0
-1795 1792 0
-1797 -1795 0
-87 1796 1798 0
-86 1796 1798 0
-86 -87 1798 0
-1798 1795 0
-1802 1791 1803 0
-1800 1791 1803 0
-1800 -1802 1803 0
-1803 1789 0
-1801 1789 0
-1803 -1801 1790 0
-1799 1789 0
-1803 -1799 1790 0
-1799 -1801 1790 0
-1803 -1799 -1801 0
-85 1802 1804 0
-84 1802 1804 0
-84 -85 1804 0
-1804 1801 0
-83 1800 1805 0
-82 1800 1805 0
-82 -83 1805 0
-1805 1799 0
-1811 1716 1812 0
-1808 1716 1812 0
-1808 -1811 1812 0
-1812 1714 0
-1809 1714 0
-1812 -1809 1715 0
-1810 1715 0
-1812 -1810 0
-1806 1714 0
-1812 -1806 1715 0
-1807 1715 0
-1812 -1807 0
-1806 -1809 1715 0
-1812 -1806 -1809 0
-1806 -1810 0
-1812 -1806 -1810 0
-1807 -1809 0
-1812 -1807 -1809 0
-1807 -1810 0
-1812 -1807 -1810 0
-1818 1811 1819 0
-1815 1811 1819 0
-1815 -1818 1819 0
-1819 1809 0
-1816 1809 0
-1819 -1816 1810 0
-1817 1810 0
-1819 -1817 0
-1813 1809 0
-1819 -1813 1810 0
-1814 1810 0
-1819 -1814 0
-1813 -1816 1810 0
-1819 -1813 -1816 0
-1813 -1817 0
-1819 -1813 -1817 0
-1814 -1816 0
-1819 -1814 -1816 0
-1814 -1817 0
-1819 -1814 -1817 0
-1823 1818 1824 0
-1821 1818 1824 0
-1821 -1823 1824 0
-1824 1816 0
-1822 1816 0
-1824 -1822 1817 0
-1820 1816 0
-1824 -1820 1817 0
-1820 -1822 1817 0
-1824 -1820 -1822 0
-81 1823 1827 0
-1826 1823 1827 0
-1826 -81 1827 0
-1827 1822 0
-1825 1822 0
-1827 -1825 0
-80 1826 1828 0
-79 1826 1828 0
-79 -80 1828 0
-1828 1825 0
-78 1821 1831 0
-1830 1821 1831 0
-1830 -78 1831 0
-1831 1820 0
-1829 1820 0
-1831 -1829 0
-77 1830 1832 0
-76 1830 1832 0
-76 -77 1832 0
-1832 1829 0
-1837 1815 1838 0
-1835 1815 1838 0
-1835 -1837 1838 0
-1838 1813 0
-1836 1813 0
-1838 -1836 1814 0
-1833 1813 0
-1838 -1833 1814 0
-1834 1814 0
-1838 -1834 0
-1833 -1836 1814 0
-1838 -1833 -1836 0
-1834 -1836 0
-1838 -1834 -1836 0
-75 1837 1841 0
-1840 1837 1841 0
-1840 -75 1841 0
-1841 1836 0
-1839 1836 0
-1841 -1839 0
-74 1840 1842 0
-73 1840 1842 0
-73 -74 1842 0
-1842 1839 0
-1846 1835 1847 0
-1844 1835 1847 0
-1844 -1846 1847 0
-1847 1833 0
-1845 1833 0
-1847 -1845 1834 0
-1843 1833 0
-1847 -1843 1834 0
-1843 -1845 1834 0
-1847 -1843 -1845 0
-72 1846 1848 0
-71 1846 1848 0
-71 -72 1848 0
-1848 1845 0
-70 1844 1849 0
-69 1844 1849 0
-69 -70 1849 0
-1849 1843 0
-1855 1808 1856 0
-1852 1808 1856 0
-1852 -1855 1856 0
-1856 1806 0
-1853 1806 0
-1856 -1853 1807 0
-1854 1807 0
-1856 -1854 0
-1850 1806 0
-1856 -1850 1807 0
-1851 1807 0
-1856 -1851 0
-1850 -1853 1807 0
-1856 -1850 -1853 0
-1850 -1854 0
-1856 -1850 -1854 0
-1851 -1853 0
-1856 -1851 -1853 0
-1851 -1854 0
-1856 -1851 -1854 0
-1861 1855 1862 0
-1859 1855 1862 0
-1859 -1861 1862 0
-1862 1853 0
-1860 1853 0
-1862 -1860 1854 0
-1857 1853 0
-1862 -1857 1854 0
-1858 1854 0
-1862 -1858 0
-1857 -1860 1854 0
-1862 -1857 -1860 0
-1858 -1860 0
-1862 -1858 -1860 0
-68 1861 1865 0
-1864 1861 1865 0
-1864 -68 1865 0
-1865 1860 0
-1863 1860 0
-1865 -1863 0
-67 1864 1866 0
-66 1864 1866 0
-66 -67 1866 0
-1866 1863 0
-1870 1859 1871 0
-1868 1859 1871 0
-1868 -1870 1871 0
-1871 1857 0
-1869 1857 0
-1871 -1869 1858 0
-1867 1857 0
-1871 -1867 1858 0
-1867 -1869 1858 0
-1871 -1867 -1869 0
-65 1870 1872 0
-64 1870 1872 0
-64 -65 1872 0
-1872 1869 0
-63 1868 1873 0
-62 1868 1873 0
-62 -63 1873 0
-1873 1867 0
-1878 1852 1879 0
-1876 1852 1879 0
-1876 -1878 1879 0
-1879 1850 0
-1877 1850 0
-1879 -1877 1851 0
-1874 1850 0
-1879 -1874 1851 0
-1875 1851 0
-1879 -1875 0
-1874 -1877 1851 0
-1879 -1874 -1877 0
-1875 -1877 0
-1879 -1875 -1877 0
-61 1878 1882 0
-1881 1878 1882 0
-1881 -61 1882 0
-1882 1877 0
-1880 1877 0
-1882 -1880 0
-60 1881 1883 0
-59 1881 1883 0
-59 -60 1883 0
-1883 1880 0
-1887 1876 1888 0
-1885 1876 1888 0
-1885 -1887 1888 0
-1888 1874 0
-1886 1874 0
-1888 -1886 1875 0
-1884 1874 0
-1888 -1884 1875 0
-1884 -1886 1875 0
-1888 -1884 -1886 0
-58 1887 1889 0
-57 1887 1889 0
-57 -58 1889 0
-1889 1886 0
-56 1885 1890 0
-55 1885 1890 0
-55 -56 1890 0
-1890 1884 0
-1896 1709 1897 0
-1893 1709 1897 0
-1893 -1896 1897 0
-1897 1707 0
-1894 1707 0
-1897 -1894 1708 0
-1895 1708 0
-1897 -1895 0
-1891 1707 0
-1897 -1891 1708 0
-1892 1708 0
-1897 -1892 0
-1891 -1894 1708 0
-1897 -1891 -1894 0
-1891 -1895 0
-1897 -1891 -1895 0
-1892 -1894 0
-1897 -1892 -1894 0
-1892 -1895 0
-1897 -1892 -1895 0
-1903 1896 1904 0
-1900 1896 1904 0
-1900 -1903 1904 0
-1904 1894 0
-1901 1894 0
-1904 -1901 1895 0
-1902 1895 0
-1904 -1902 0
-1898 1894 0
-1904 -1898 1895 0
-1899 1895 0
-1904 -1899 0
-1898 -1901 1895 0
-1904 -1898 -1901 0
-1898 -1902 0
-1904 -1898 -1902 0
-1899 -1901 0
-1904 -1899 -1901 0
-1899 -1902 0
-1904 -1899 -1902 0
-1910 1903 1911 0
-1907 1903 1911 0
-1907 -1910 1911 0
-1911 1901 0
-1908 1901 0
-1911 -1908 1902 0
-1909 1902 0
-1911 -1909 0
-1905 1901 0
-1911 -1905 1902 0
-1906 1902 0
-1911 -1906 0
-1905 -1908 1902 0
-1911 -1905 -1908 0
-1905 -1909 0
-1911 -1905 -1909 0
-1906 -1908 0
-1911 -1906 -1908 0
-1906 -1909 0
-1911 -1906 -1909 0
-1915 1910 1916 0
-1913 1910 1916 0
-1913 -1915 1916 0
-1916 1908 0
-1914 1908 0
-1916 -1914 1909 0
-1912 1908 0
-1916 -1912 1909 0
-1912 -1914 1909 0
-1916 -1912 -1914 0
-54 1915 1919 0
-1918 1915 1919 0
-1918 -54 1919 0
-1919 1914 0
-1917 1914 0
-1919 -1917 0
-53 1918 1920 0
-52 1918 1920 0
-52 -53 1920 0
-1920 1917 0
-51 1913 1923 0
-1922 1913 1923 0
-1922 -51 1923 0
-1923 1912 0
-1921 1912 0
-1923 -1921 0
-50 1922 1924 0
-49 1922 1924 0
-49 -50 1924 0
-1924 1921 0
-1929 1907 1930 0
-1927 1907 1930 0
-1927 -1929 1930 0
-1930 1905 0
-1928 1905 0
-1930 -1928 1906 0
-1925 1905 0
-1930 -1925 1906 0
-1926 1906 0
-1930 -1926 0
-1925 -1928 1906 0
-1930 -1925 -1928 0
-1926 -1928 0
-1930 -1926 -1928 0
-48 1929 1933 0
-1932 1929 1933 0
-1932 -48 1933 0
-1933 1928 0
-1931 1928 0
-1933 -1931 0
-47 1932 1934 0
-46 1932 1934 0
-46 -47 1934 0
-1934 1931 0
-1938 1927 1939 0
-1936 1927 1939 0
-1936 -1938 1939 0
-1939 1925 0
-1937 1925 0
-1939 -1937 1926 0
-1935 1925 0
-1939 -1935 1926 0
-1935 -1937 1926 0
-1939 -1935 -1937 0
-45 1938 1940 0
-44 1938 1940 0
-44 -45 1940 0
-1940 1937 0
-43 1936 1941 0
-42 1936 1941 0
-42 -43 1941 0
-1941 1935 0
-1947 1900 1948 0
-1944 1900 1948 0
-1944 -1947 1948 0
-1948 1898 0
-1945 1898 0
-1948 -1945 1899 0
-1946 1899 0
-1948 -1946 0
-1942 1898 0
-1948 -1942 1899 0
-1943 1899 0
-1948 -1943 0
-1942 -1945 1899 0
-1948 -1942 -1945 0
-1942 -1946 0
-1948 -1942 -1946 0
-1943 -1945 0
-1948 -1943 -1945 0
-1943 -1946 0
-1948 -1943 -1946 0
-1953 1947 1954 0
-1951 1947 1954 0
-1951 -1953 1954 0
-1954 1945 0
-1952 1945 0
-1954 -1952 1946 0
-1949 1945 0
-1954 -1949 1946 0
-1950 1946 0
-1954 -1950 0
-1949 -1952 1946 0
-1954 -1949 -1952 0
-1950 -1952 0
-1954 -1950 -1952 0
-41 1953 1957 0
-1956 1953 1957 0
-1956 -41 1957 0
-1957 1952 0
-1955 1952 0
-1957 -1955 0
-40 1956 1958 0
-39 1956 1958 0
-39 -40 1958 0
-1958 1955 0
-1962 1951 1963 0
-1960 1951 1963 0
-1960 -1962 1963 0
-1963 1949 0
-1961 1949 0
-1963 -1961 1950 0
-1959 1949 0
-1963 -1959 1950 0
-1959 -1961 1950 0
-1963 -1959 -1961 0
-38 1962 1964 0
-37 1962 1964 0
-37 -38 1964 0
-1964 1961 0
-36 1960 1965 0
-35 1960 1965 0
-35 -36 1965 0
-1965 1959 0
-1970 1944 1971 0
-1968 1944 1971 0
-1968 -1970 1971 0
-1971 1942 0
-1969 1942 0
-1971 -1969 1943 0
-1966 1942 0
-1971 -1966 1943 0
-1967 1943 0
-1971 -1967 0
-1966 -1969 1943 0
-1971 -1966 -1969 0
-1967 -1969 0
-1971 -1967 -1969 0
-34 1970 1974 0
-1973 1970 1974 0
-1973 -34 1974 0
-1974 1969 0
-1972 1969 0
-1974 -1972 0
-33 1973 1975 0
-32 1973 1975 0
-32 -33 1975 0
-1975 1972 0
-1979 1968 1980 0
-1977 1968 1980 0
-1977 -1979 1980 0
-1980 1966 0
-1978 1966 0
-1980 -1978 1967 0
-1976 1966 0
-1980 -1976 1967 0
-1976 -1978 1967 0
-1980 -1976 -1978 0
-31 1979 1981 0
-30 1979 1981 0
-30 -31 1981 0
-1981 1978 0
-29 1977 1982 0
-28 1977 1982 0
-28 -29 1982 0
-1982 1976 0
-1988 1893 1989 0
-1985 1893 1989 0
-1985 -1988 1989 0
-1989 1891 0
-1986 1891 0
-1989 -1986 1892 0
-1987 1892 0
-1989 -1987 0
-1983 1891 0
-1989 -1983 1892 0
-1984 1892 0
-1989 -1984 0
-1983 -1986 1892 0
-1989 -1983 -1986 0
-1983 -1987 0
-1989 -1983 -1987 0
-1984 -1986 0
-1989 -1984 -1986 0
-1984 -1987 0
-1989 -1984 -1987 0
-1995 1988 1996 0
-1992 1988 1996 0
-1992 -1995 1996 0
-1996 1986 0
-1993 1986 0
-1996 -1993 1987 0
-1994 1987 0
-1996 -1994 0
-1990 1986 0
-1996 -1990 1987 0
-1991 1987 0
-1996 -1991 0
-1990 -1993 1987 0
-1996 -1990 -1993 0
-1990 -1994 0
-1996 -1990 -1994 0
-1991 -1993 0
-1996 -1991 -1993 0
-1991 -1994 0
-1996 -1991 -1994 0
-2000 1995 2001 0
-1998 1995 2001 0
-1998 -2000 2001 0
-2001 1993 0
-1999 1993 0
-2001 -1999 1994 0
-1997 1993 0
-2001 -1997 1994 0
-1997 -1999 1994 0
-2001 -1997 -1999 0
-27 2000 2004 0
-2003 2000 2004 0
-2003 -27 2004 0
-2004 1999 0
-2002 1999 0
-2004 -2002 0
-26 2003 2005 0
-25 2003 2005 0
-25 -26 2005 0
-2005 2002 0
-24 1998 2008 0
-2007 1998 2008 0
-2007 -24 2008 0
-2008 1997 0
-2006 1997 0
-2008 -2006 0
-23 2007 2009 0
-22 2007 2009 0
-22 -23 2009 0
-2009 2006 0
-2014 1992 2015 0
-2012 1992 2015 0
-2012 -2014 2015 0
-2015 1990 0
-2013 1990 0
-2015 -2013 1991 0
-2010 1990 0
-2015 -2010 1991 0
-2011 1991 0
-2015 -2011 0
-2010 -2013 1991 0
-2015 -2010 -2013 0
-2011 -2013 0
-2015 -2011 -2013 0
-21 2014 2018 0
-2017 2014 2018 0
-2017 -21 2018 0
-2018 2013 0
-2016 2013 0
-2018 -2016 0
-20 2017 2019 0
-19 2017 2019 0
-19 -20 2019 0
-2019 2016 0
-2023 2012 2024 0
-2021 2012 2024 0
-2021 -2023 2024 0
-2024 2010 0
-2022 2010 0
-2024 -2022 2011 0
-2020 2010 0
-2024 -2020 2011 0
-2020 -2022 2011 0
-2024 -2020 -2022 0
-18 2023 2025 0
-17 2023 2025 0
-17 -18 2025 0
-2025 2022 0
-16 2021 2026 0
-15 2021 2026 0
-15 -16 2026 0
-2026 2020 0
-2032 1985 2033 0
-2029 1985 2033 0
-2029 -2032 2033 0
-2033 1983 0
-2030 1983 0
-2033 -2030 1984 0
-2031 1984 0
-2033 -2031 0
-2027 1983 0
-2033 -2027 1984 0
-2028 1984 0
-2033 -2028 0
-2027 -2030 1984 0
-2033 -2027 -2030 0
-2027 -2031 0
-2033 -2027 -2031 0
-2028 -2030 0
-2033 -2028 -2030 0
-2028 -2031 0
-2033 -2028 -2031 0
-2038 2032 2039 0
-2036 2032 2039 0
-2036 -2038 2039 0
-2039 2030 0
-2037 2030 0
-2039 -2037 2031 0
-2034 2030 0
-2039 -2034 2031 0
-2035 2031 0
-2039 -2035 0
-2034 -2037 2031 0
-2039 -2034 -2037 0
-2035 -2037 0
-2039 -2035 -2037 0
-14 2038 2042 0
-2041 2038 2042 0
-2041 -14 2042 0
-2042 2037 0
-2040 2037 0
-2042 -2040 0
-13 2041 2043 0
-12 2041 2043 0
-12 -13 2043 0
-2043 2040 0
-2047 2036 2048 0
-2045 2036 2048 0
-2045 -2047 2048 0
-2048 2034 0
-2046 2034 0
-2048 -2046 2035 0
-2044 2034 0
-2048 -2044 2035 0
-2044 -2046 2035 0
-2048 -2044 -2046 0
-11 2047 2049 0
-10 2047 2049 0
-10 -11 2049 0
-2049 2046 0
-9 2045 2050 0
-8 2045 2050 0
-8 -9 2050 0
-2050 2044 0
-2055 2029 2056 0
-2053 2029 2056 0
-2053 -2055 2056 0
-2056 2027 0
-2054 2027 0
-2056 -2054 2028 0
-2051 2027 0
-2056 -2051 2028 0
-2052 2028 0
-2056 -2052 0
-2051 -2054 2028 0
-2056 -2051 -2054 0
-2052 -2054 0
-2056 -2052 -2054 0
-7 2055 2059 0
-2058 2055 2059 0
-2058 -7 2059 0
-2059 2054 0
-2057 2054 0
-2059 -2057 0
-6 2058 2060 0
-5 2058 2060 0
-5 -6 2060 0
-2060 2057 0
-2064 2053 2065 0
-2062 2053 2065 0
-2062 -2064 2065 0
-2065 2051 0
-2063 2051 0
-2065 -2063 2052 0
-2061 2051 0
-2065 -2061 2052 0
-2061 -2063 2052 0
-2065 -2061 -2063 0
-4 2064 2066 0
-3 2064 2066 0
-3 -4 2066 0
-2066 2063 0
-2 2062 2067 0
-1 2062 2067 0
-1 -2 2067 0
-2067 2061 0
