p cnf 81 215
1 7 -15 0
-1 -7 -15 0
1 -7 15 0
-1 7 15 0
15 8 -16 0
-15 -8 -16 0
15 -8 16 0
-15 8 16 0
16 12 -17 0
-16 -12 -17 0
16 -12 17 0
-16 12 17 0
-17 0
1 2 -18 0
-1 -2 -18 0
1 -2 18 0
-1 2 18 0
18 9 -19 0
-18 -9 -19 0
18 -9 19 0
-18 9 19 0
19 13 -20 0
-19 -13 -20 0
19 -13 20 0
-19 13 20 0
-20 0
2 3 -21 0
-2 -3 -21 0
2 -3 21 0
-2 3 21 0
21 10 -22 0
-21 -10 -22 0
21 -10 22 0
-21 10 22 0
22 14 -23 0
-22 -14 -23 0
22 -14 23 0
-22 14 23 0
-23 0
3 4 -24 0
-3 -4 -24 0
3 -4 24 0
-3 4 24 0
24 8 -25 0
-24 -8 -25 0
24 -8 25 0
-24 8 25 0
25 11 -26 0
-25 -11 -26 0
25 -11 26 0
-25 11 26 0
-26 0
4 5 -27 0
-4 -5 -27 0
4 -5 27 0
-4 5 27 0
27 9 -28 0
-27 -9 -28 0
27 -9 28 0
-27 9 28 0
28 12 -29 0
-28 -12 -29 0
28 -12 29 0
-28 12 29 0
-29 0
5 6 -30 0
-5 -6 -30 0
5 -6 30 0
-5 6 30 0
30 10 -31 0
-30 -10 -31 0
30 -10 31 0
-30 10 31 0
31 13 -32 0
-31 -13 -32 0
31 -13 32 0
-31 13 32 0
-32 0
6 7 -33 0
-6 -7 -33 0
6 -7 33 0
-6 7 33 0
33 11 -34 0
-33 -11 -34 0
33 -11 34 0
-33 11 34 0
34 14 -35 0
-34 -14 -35 0
34 -14 35 0
-34 14 35 0
-35 0
1 9 -36 0
-1 -9 -36 0
1 -9 36 0
-1 9 36 0
36 10 -37 0
-36 -10 -37 0
36 -10 37 0
-36 10 37 0
37 11 -38 0
-37 -11 -38 0
37 -11 38 0
-37 11 38 0
38 12 -39 0
-38 -12 -39 0
38 -12 39 0
-38 12 39 0
4 9 -40 0
-4 -9 -40 0
4 -9 40 0
-4 9 40 0
40 10 -41 0
-40 -10 -41 0
40 -10 41 0
-40 10 41 0
41 11 -42 0
-41 -11 -42 0
41 -11 42 0
-41 11 42 0
39 42 0
-1 0
-2 0
-3 0
-4 0
-5 0
-6 0
-7 0
8 0
-48 44 49 0
-46 44 49 0
-46 -48 49 0
-49 43 0
-47 43 0
-49 -47 0
-45 43 0
-49 -45 0
-45 -47 0
-49 -45 -47 0
-53 48 54 0
-51 48 54 0
-51 -53 54 0
-54 47 0
-52 47 0
-54 -52 0
-50 47 0
-54 -50 0
-50 -52 0
-54 -50 -52 0
-14 53 57 0
-56 53 57 0
-56 -14 57 0
-57 52 0
-55 52 0
-57 -55 0
-13 56 58 0
-12 56 58 0
-12 -13 58 0
-58 55 0
-62 51 63 0
-60 51 63 0
-60 -62 63 0
-63 50 0
-61 50 0
-63 -61 0
-59 50 0
-63 -59 0
-59 -61 0
-63 -59 -61 0
-11 62 64 0
-10 62 64 0
-10 -11 64 0
-64 61 0
-9 60 65 0
-8 60 65 0
-8 -9 65 0
-65 59 0
-69 46 70 0
-67 46 70 0
-67 -69 70 0
-70 45 0
-68 45 0
-70 -68 0
-66 45 0
-70 -66 0
-66 -68 0
-70 -66 -68 0
-7 69 73 0
-72 69 73 0
-72 -7 73 0
-73 68 0
-71 68 0
-73 -71 0
-6 72 74 0
-5 72 74 0
-5 -6 74 0
-74 71 0
-78 67 79 0
-76 67 79 0
-76 -78 79 0
-79 66 0
-77 66 0
-79 -77 0
-75 66 0
-79 -75 0
-75 -77 0
-79 -75 -77 0
-4 78 80 0
-3 78 80 0
-3 -4 80 0
-80 77 0
-2 76 81 0
-1 76 81 0
-1 -2 81 0
-81 75 0
-43 -44 0
