p cnf 1283 4011
1 66 -139 0
-1 -66 -139 0
1 -66 139 0
-1 66 139 0
139 67 -140 0
-139 -67 -140 0
139 -67 140 0
-139 67 140 0
140 69 -141 0
-140 -69 -141 0
140 -69 141 0
-140 69 141 0
141 70 -142 0
-141 -70 -142 0
141 -70 142 0
-141 70 142 0
142 124 -143 0
-142 -124 -143 0
142 -124 143 0
-142 124 143 0
143 130 -144 0
-143 -130 -144 0
143 -130 144 0
-143 130 144 0
144 133 -145 0
-144 -133 -145 0
144 -133 145 0
-144 133 145 0
-145 0
1 2 -146 0
-1 -2 -146 0
1 -2 146 0
-1 2 146 0
146 67 -147 0
-146 -67 -147 0
146 -67 147 0
-146 67 147 0
147 68 -148 0
-147 -68 -148 0
147 -68 148 0
-147 68 148 0
148 71 -149 0
-148 -71 -149 0
148 -71 149 0
-148 71 149 0
149 125 -150 0
-149 -125 -150 0
149 -125 150 0
-149 125 150 0
150 131 -151 0
-150 -131 -151 0
150 -131 151 0
-150 131 151 0
151 134 -152 0
-151 -134 -152 0
151 -134 152 0
-151 134 152 0
-152 0
2 3 -153 0
-2 -3 -153 0
2 -3 153 0
-2 3 153 0
153 68 -154 0
-153 -68 -154 0
153 -68 154 0
-153 68 154 0
154 69 -155 0
-154 -69 -155 0
154 -69 155 0
-154 69 155 0
155 72 -156 0
-155 -72 -156 0
155 -72 156 0
-155 72 156 0
156 126 -157 0
-156 -126 -157 0
156 -126 157 0
-156 126 157 0
157 132 -158 0
-157 -132 -158 0
157 -132 158 0
-157 132 158 0
158 135 -159 0
-158 -135 -159 0
158 -135 159 0
-158 135 159 0
-159 0
1 3 -160 0
-1 -3 -160 0
1 -3 160 0
-1 3 160 0
160 4 -161 0
-160 -4 -161 0
160 -4 161 0
-160 4 161 0
161 69 -162 0
-161 -69 -162 0
161 -69 162 0
-161 69 162 0
162 73 -163 0
-162 -73 -163 0
162 -73 163 0
-162 73 163 0
163 127 -164 0
-163 -127 -164 0
163 -127 164 0
-163 127 164 0
164 133 -165 0
-164 -133 -165 0
164 -133 165 0
-164 133 165 0
165 136 -166 0
-165 -136 -166 0
165 -136 166 0
-165 136 166 0
-166 0
1 2 -167 0
-1 -2 -167 0
1 -2 167 0
-1 2 167 0
167 4 -168 0
-167 -4 -168 0
167 -4 168 0
-167 4 168 0
168 5 -169 0
-168 -5 -169 0
168 -5 169 0
-168 5 169 0
169 74 -170 0
-169 -74 -170 0
169 -74 170 0
-169 74 170 0
170 128 -171 0
-170 -128 -171 0
170 -128 171 0
-170 128 171 0
171 134 -172 0
-171 -134 -172 0
171 -134 172 0
-171 134 172 0
172 137 -173 0
-172 -137 -173 0
172 -137 173 0
-172 137 173 0
-173 0
2 3 -174 0
-2 -3 -174 0
2 -3 174 0
-2 3 174 0
174 5 -175 0
-174 -5 -175 0
174 -5 175 0
-174 5 175 0
175 6 -176 0
-175 -6 -176 0
175 -6 176 0
-175 6 176 0
176 75 -177 0
-176 -75 -177 0
176 -75 177 0
-176 75 177 0
177 129 -178 0
-177 -129 -178 0
177 -129 178 0
-177 129 178 0
178 135 -179 0
-178 -135 -179 0
178 -135 179 0
-178 135 179 0
179 138 -180 0
-179 -138 -180 0
179 -138 180 0
-179 138 180 0
-180 0
3 4 -181 0
-3 -4 -181 0
3 -4 181 0
-3 4 181 0
181 6 -182 0
-181 -6 -182 0
181 -6 182 0
-181 6 182 0
182 7 -183 0
-182 -7 -183 0
182 -7 183 0
-182 7 183 0
183 70 -184 0
-183 -70 -184 0
183 -70 184 0
-183 70 184 0
184 76 -185 0
-184 -76 -185 0
184 -76 185 0
-184 76 185 0
185 130 -186 0
-185 -130 -186 0
185 -130 186 0
-185 130 186 0
186 136 -187 0
-186 -136 -187 0
186 -136 187 0
-186 136 187 0
-187 0
4 5 -188 0
-4 -5 -188 0
4 -5 188 0
-4 5 188 0
188 7 -189 0
-188 -7 -189 0
188 -7 189 0
-188 7 189 0
189 8 -190 0
-189 -8 -190 0
189 -8 190 0
-189 8 190 0
190 71 -191 0
-190 -71 -191 0
190 -71 191 0
-190 71 191 0
191 77 -192 0
-191 -77 -192 0
191 -77 192 0
-191 77 192 0
192 131 -193 0
-192 -131 -193 0
192 -131 193 0
-192 131 193 0
193 137 -194 0
-193 -137 -194 0
193 -137 194 0
-193 137 194 0
-194 0
5 6 -195 0
-5 -6 -195 0
5 -6 195 0
-5 6 195 0
195 8 -196 0
-195 -8 -196 0
195 -8 196 0
-195 8 196 0
196 9 -197 0
-196 -9 -197 0
196 -9 197 0
-196 9 197 0
197 72 -198 0
-197 -72 -198 0
197 -72 198 0
-197 72 198 0
198 78 -199 0
-198 -78 -199 0
198 -78 199 0
-198 78 199 0
199 132 -200 0
-199 -132 -200 0
199 -132 200 0
-199 132 200 0
200 138 -201 0
-200 -138 -201 0
200 -138 201 0
-200 138 201 0
-201 0
6 7 -202 0
-6 -7 -202 0
6 -7 202 0
-6 7 202 0
202 9 -203 0
-202 -9 -203 0
202 -9 203 0
-202 9 203 0
203 10 -204 0
-203 -10 -204 0
203 -10 204 0
-203 10 204 0
204 70 -205 0
-204 -70 -205 0
204 -70 205 0
-204 70 205 0
205 73 -206 0
-205 -73 -206 0
205 -73 206 0
-205 73 206 0
206 79 -207 0
-206 -79 -207 0
206 -79 207 0
-206 79 207 0
207 133 -208 0
-207 -133 -208 0
207 -133 208 0
-207 133 208 0
-208 0
7 8 -209 0
-7 -8 -209 0
7 -8 209 0
-7 8 209 0
209 10 -210 0
-209 -10 -210 0
209 -10 210 0
-209 10 210 0
210 11 -211 0
-210 -11 -211 0
210 -11 211 0
-210 11 211 0
211 71 -212 0
-211 -71 -212 0
211 -71 212 0
-211 71 212 0
212 74 -213 0
-212 -74 -213 0
212 -74 213 0
-212 74 213 0
213 80 -214 0
-213 -80 -214 0
213 -80 214 0
-213 80 214 0
214 134 -215 0
-214 -134 -215 0
214 -134 215 0
-214 134 215 0
-215 0
8 9 -216 0
-8 -9 -216 0
8 -9 216 0
-8 9 216 0
216 11 -217 0
-216 -11 -217 0
216 -11 217 0
-216 11 217 0
217 12 -218 0
-217 -12 -218 0
217 -12 218 0
-217 12 218 0
218 72 -219 0
-218 -72 -219 0
218 -72 219 0
-218 72 219 0
219 75 -220 0
-219 -75 -220 0
219 -75 220 0
-219 75 220 0
220 81 -221 0
-220 -81 -221 0
220 -81 221 0
-220 81 221 0
221 135 -222 0
-221 -135 -222 0
221 -135 222 0
-221 135 222 0
-222 0
9 10 -223 0
-9 -10 -223 0
9 -10 223 0
-9 10 223 0
223 12 -224 0
-223 -12 -224 0
223 -12 224 0
-223 12 224 0
224 13 -225 0
-224 -13 -225 0
224 -13 225 0
-224 13 225 0
225 73 -226 0
-225 -73 -226 0
225 -73 226 0
-225 73 226 0
226 76 -227 0
-226 -76 -227 0
226 -76 227 0
-226 76 227 0
227 82 -228 0
-227 -82 -228 0
227 -82 228 0
-227 82 228 0
228 136 -229 0
-228 -136 -229 0
228 -136 229 0
-228 136 229 0
-229 0
10 11 -230 0
-10 -11 -230 0
10 -11 230 0
-10 11 230 0
230 13 -231 0
-230 -13 -231 0
230 -13 231 0
-230 13 231 0
231 14 -232 0
-231 -14 -232 0
231 -14 232 0
-231 14 232 0
232 74 -233 0
-232 -74 -233 0
232 -74 233 0
-232 74 233 0
233 77 -234 0
-233 -77 -234 0
233 -77 234 0
-233 77 234 0
234 83 -235 0
-234 -83 -235 0
234 -83 235 0
-234 83 235 0
235 137 -236 0
-235 -137 -236 0
235 -137 236 0
-235 137 236 0
-236 0
11 12 -237 0
-11 -12 -237 0
11 -12 237 0
-11 12 237 0
237 14 -238 0
-237 -14 -238 0
237 -14 238 0
-237 14 238 0
238 15 -239 0
-238 -15 -239 0
238 -15 239 0
-238 15 239 0
239 75 -240 0
-239 -75 -240 0
239 -75 240 0
-239 75 240 0
240 78 -241 0
-240 -78 -241 0
240 -78 241 0
-240 78 241 0
241 84 -242 0
-241 -84 -242 0
241 -84 242 0
-241 84 242 0
242 138 -243 0
-242 -138 -243 0
242 -138 243 0
-242 138 243 0
-243 0
12 13 -244 0
-12 -13 -244 0
12 -13 244 0
-12 13 244 0
244 15 -245 0
-244 -15 -245 0
244 -15 245 0
-244 15 245 0
245 16 -246 0
-245 -16 -246 0
245 -16 246 0
-245 16 246 0
246 70 -247 0
-246 -70 -247 0
246 -70 247 0
-246 70 247 0
247 76 -248 0
-247 -76 -248 0
247 -76 248 0
-247 76 248 0
248 79 -249 0
-248 -79 -249 0
248 -79 249 0
-248 79 249 0
249 85 -250 0
-249 -85 -250 0
249 -85 250 0
-249 85 250 0
-250 0
13 14 -251 0
-13 -14 -251 0
13 -14 251 0
-13 14 251 0
251 16 -252 0
-251 -16 -252 0
251 -16 252 0
-251 16 252 0
252 17 -253 0
-252 -17 -253 0
252 -17 253 0
-252 17 253 0
253 71 -254 0
-253 -71 -254 0
253 -71 254 0
-253 71 254 0
254 77 -255 0
-254 -77 -255 0
254 -77 255 0
-254 77 255 0
255 80 -256 0
-255 -80 -256 0
255 -80 256 0
-255 80 256 0
256 86 -257 0
-256 -86 -257 0
256 -86 257 0
-256 86 257 0
-257 0
14 15 -258 0
-14 -15 -258 0
14 -15 258 0
-14 15 258 0
258 17 -259 0
-258 -17 -259 0
258 -17 259 0
-258 17 259 0
259 18 -260 0
-259 -18 -260 0
259 -18 260 0
-259 18 260 0
260 72 -261 0
-260 -72 -261 0
260 -72 261 0
-260 72 261 0
261 78 -262 0
-261 -78 -262 0
261 -78 262 0
-261 78 262 0
262 81 -263 0
-262 -81 -263 0
262 -81 263 0
-262 81 263 0
263 87 -264 0
-263 -87 -264 0
263 -87 264 0
-263 87 264 0
-264 0
15 16 -265 0
-15 -16 -265 0
15 -16 265 0
-15 16 265 0
265 18 -266 0
-265 -18 -266 0
265 -18 266 0
-265 18 266 0
266 19 -267 0
-266 -19 -267 0
266 -19 267 0
-266 19 267 0
267 73 -268 0
-267 -73 -268 0
267 -73 268 0
-267 73 268 0
268 79 -269 0
-268 -79 -269 0
268 -79 269 0
-268 79 269 0
269 82 -270 0
-269 -82 -270 0
269 -82 270 0
-269 82 270 0
270 88 -271 0
-270 -88 -271 0
270 -88 271 0
-270 88 271 0
-271 0
16 17 -272 0
-16 -17 -272 0
16 -17 272 0
-16 17 272 0
272 19 -273 0
-272 -19 -273 0
272 -19 273 0
-272 19 273 0
273 20 -274 0
-273 -20 -274 0
273 -20 274 0
-273 20 274 0
274 74 -275 0
-274 -74 -275 0
274 -74 275 0
-274 74 275 0
275 80 -276 0
-275 -80 -276 0
275 -80 276 0
-275 80 276 0
276 83 -277 0
-276 -83 -277 0
276 -83 277 0
-276 83 277 0
277 89 -278 0
-277 -89 -278 0
277 -89 278 0
-277 89 278 0
-278 0
17 18 -279 0
-17 -18 -279 0
17 -18 279 0
-17 18 279 0
279 20 -280 0
-279 -20 -280 0
279 -20 280 0
-279 20 280 0
280 21 -281 0
-280 -21 -281 0
280 -21 281 0
-280 21 281 0
281 75 -282 0
-281 -75 -282 0
281 -75 282 0
-281 75 282 0
282 81 -283 0
-282 -81 -283 0
282 -81 283 0
-282 81 283 0
283 84 -284 0
-283 -84 -284 0
283 -84 284 0
-283 84 284 0
284 90 -285 0
-284 -90 -285 0
284 -90 285 0
-284 90 285 0
-285 0
18 19 -286 0
-18 -19 -286 0
18 -19 286 0
-18 19 286 0
286 21 -287 0
-286 -21 -287 0
286 -21 287 0
-286 21 287 0
287 22 -288 0
-287 -22 -288 0
287 -22 288 0
-287 22 288 0
288 76 -289 0
-288 -76 -289 0
288 -76 289 0
-288 76 289 0
289 82 -290 0
-289 -82 -290 0
289 -82 290 0
-289 82 290 0
290 85 -291 0
-290 -85 -291 0
290 -85 291 0
-290 85 291 0
291 91 -292 0
-291 -91 -292 0
291 -91 292 0
-291 91 292 0
-292 0
19 20 -293 0
-19 -20 -293 0
19 -20 293 0
-19 20 293 0
293 22 -294 0
-293 -22 -294 0
293 -22 294 0
-293 22 294 0
294 23 -295 0
-294 -23 -295 0
294 -23 295 0
-294 23 295 0
295 77 -296 0
-295 -77 -296 0
295 -77 296 0
-295 77 296 0
296 83 -297 0
-296 -83 -297 0
296 -83 297 0
-296 83 297 0
297 86 -298 0
-297 -86 -298 0
297 -86 298 0
-297 86 298 0
298 92 -299 0
-298 -92 -299 0
298 -92 299 0
-298 92 299 0
-299 0
20 21 -300 0
-20 -21 -300 0
20 -21 300 0
-20 21 300 0
300 23 -301 0
-300 -23 -301 0
300 -23 301 0
-300 23 301 0
301 24 -302 0
-301 -24 -302 0
301 -24 302 0
-301 24 302 0
302 78 -303 0
-302 -78 -303 0
302 -78 303 0
-302 78 303 0
303 84 -304 0
-303 -84 -304 0
303 -84 304 0
-303 84 304 0
304 87 -305 0
-304 -87 -305 0
304 -87 305 0
-304 87 305 0
305 93 -306 0
-305 -93 -306 0
305 -93 306 0
-305 93 306 0
-306 0
21 22 -307 0
-21 -22 -307 0
21 -22 307 0
-21 22 307 0
307 24 -308 0
-307 -24 -308 0
307 -24 308 0
-307 24 308 0
308 25 -309 0
-308 -25 -309 0
308 -25 309 0
-308 25 309 0
309 79 -310 0
-309 -79 -310 0
309 -79 310 0
-309 79 310 0
310 85 -311 0
-310 -85 -311 0
310 -85 311 0
-310 85 311 0
311 88 -312 0
-311 -88 -312 0
311 -88 312 0
-311 88 312 0
312 94 -313 0
-312 -94 -313 0
312 -94 313 0
-312 94 313 0
-313 0
22 23 -314 0
-22 -23 -314 0
22 -23 314 0
-22 23 314 0
314 25 -315 0
-314 -25 -315 0
314 -25 315 0
-314 25 315 0
315 26 -316 0
-315 -26 -316 0
315 -26 316 0
-315 26 316 0
316 80 -317 0
-316 -80 -317 0
316 -80 317 0
-316 80 317 0
317 86 -318 0
-317 -86 -318 0
317 -86 318 0
-317 86 318 0
318 89 -319 0
-318 -89 -319 0
318 -89 319 0
-318 89 319 0
319 95 -320 0
-319 -95 -320 0
319 -95 320 0
-319 95 320 0
-320 0
23 24 -321 0
-23 -24 -321 0
23 -24 321 0
-23 24 321 0
321 26 -322 0
-321 -26 -322 0
321 -26 322 0
-321 26 322 0
322 27 -323 0
-322 -27 -323 0
322 -27 323 0
-322 27 323 0
323 81 -324 0
-323 -81 -324 0
323 -81 324 0
-323 81 324 0
324 87 -325 0
-324 -87 -325 0
324 -87 325 0
-324 87 325 0
325 90 -326 0
-325 -90 -326 0
325 -90 326 0
-325 90 326 0
326 96 -327 0
-326 -96 -327 0
326 -96 327 0
-326 96 327 0
-327 0
24 25 -328 0
-24 -25 -328 0
24 -25 328 0
-24 25 328 0
328 27 -329 0
-328 -27 -329 0
328 -27 329 0
-328 27 329 0
329 28 -330 0
-329 -28 -330 0
329 -28 330 0
-329 28 330 0
330 82 -331 0
-330 -82 -331 0
330 -82 331 0
-330 82 331 0
331 88 -332 0
-331 -88 -332 0
331 -88 332 0
-331 88 332 0
332 91 -333 0
-332 -91 -333 0
332 -91 333 0
-332 91 333 0
333 97 -334 0
-333 -97 -334 0
333 -97 334 0
-333 97 334 0
-334 0
25 26 -335 0
-25 -26 -335 0
25 -26 335 0
-25 26 335 0
335 28 -336 0
-335 -28 -336 0
335 -28 336 0
-335 28 336 0
336 29 -337 0
-336 -29 -337 0
336 -29 337 0
-336 29 337 0
337 83 -338 0
-337 -83 -338 0
337 -83 338 0
-337 83 338 0
338 89 -339 0
-338 -89 -339 0
338 -89 339 0
-338 89 339 0
339 92 -340 0
-339 -92 -340 0
339 -92 340 0
-339 92 340 0
340 98 -341 0
-340 -98 -341 0
340 -98 341 0
-340 98 341 0
-341 0
26 27 -342 0
-26 -27 -342 0
26 -27 342 0
-26 27 342 0
342 29 -343 0
-342 -29 -343 0
342 -29 343 0
-342 29 343 0
343 30 -344 0
-343 -30 -344 0
343 -30 344 0
-343 30 344 0
344 84 -345 0
-344 -84 -345 0
344 -84 345 0
-344 84 345 0
345 90 -346 0
-345 -90 -346 0
345 -90 346 0
-345 90 346 0
346 93 -347 0
-346 -93 -347 0
346 -93 347 0
-346 93 347 0
347 99 -348 0
-347 -99 -348 0
347 -99 348 0
-347 99 348 0
-348 0
27 28 -349 0
-27 -28 -349 0
27 -28 349 0
-27 28 349 0
349 30 -350 0
-349 -30 -350 0
349 -30 350 0
-349 30 350 0
350 31 -351 0
-350 -31 -351 0
350 -31 351 0
-350 31 351 0
351 85 -352 0
-351 -85 -352 0
351 -85 352 0
-351 85 352 0
352 91 -353 0
-352 -91 -353 0
352 -91 353 0
-352 91 353 0
353 94 -354 0
-353 -94 -354 0
353 -94 354 0
-353 94 354 0
354 100 -355 0
-354 -100 -355 0
354 -100 355 0
-354 100 355 0
-355 0
28 29 -356 0
-28 -29 -356 0
28 -29 356 0
-28 29 356 0
356 31 -357 0
-356 -31 -357 0
356 -31 357 0
-356 31 357 0
357 32 -358 0
-357 -32 -358 0
357 -32 358 0
-357 32 358 0
358 86 -359 0
-358 -86 -359 0
358 -86 359 0
-358 86 359 0
359 92 -360 0
-359 -92 -360 0
359 -92 360 0
-359 92 360 0
360 95 -361 0
-360 -95 -361 0
360 -95 361 0
-360 95 361 0
361 101 -362 0
-361 -101 -362 0
361 -101 362 0
-361 101 362 0
-362 0
29 30 -363 0
-29 -30 -363 0
29 -30 363 0
-29 30 363 0
363 32 -364 0
-363 -32 -364 0
363 -32 364 0
-363 32 364 0
364 33 -365 0
-364 -33 -365 0
364 -33 365 0
-364 33 365 0
365 87 -366 0
-365 -87 -366 0
365 -87 366 0
-365 87 366 0
366 93 -367 0
-366 -93 -367 0
366 -93 367 0
-366 93 367 0
367 96 -368 0
-367 -96 -368 0
367 -96 368 0
-367 96 368 0
368 102 -369 0
-368 -102 -369 0
368 -102 369 0
-368 102 369 0
-369 0
30 31 -370 0
-30 -31 -370 0
30 -31 370 0
-30 31 370 0
370 33 -371 0
-370 -33 -371 0
370 -33 371 0
-370 33 371 0
371 34 -372 0
-371 -34 -372 0
371 -34 372 0
-371 34 372 0
372 88 -373 0
-372 -88 -373 0
372 -88 373 0
-372 88 373 0
373 94 -374 0
-373 -94 -374 0
373 -94 374 0
-373 94 374 0
374 97 -375 0
-374 -97 -375 0
374 -97 375 0
-374 97 375 0
375 103 -376 0
-375 -103 -376 0
375 -103 376 0
-375 103 376 0
-376 0
31 32 -377 0
-31 -32 -377 0
31 -32 377 0
-31 32 377 0
377 34 -378 0
-377 -34 -378 0
377 -34 378 0
-377 34 378 0
378 35 -379 0
-378 -35 -379 0
378 -35 379 0
-378 35 379 0
379 89 -380 0
-379 -89 -380 0
379 -89 380 0
-379 89 380 0
380 95 -381 0
-380 -95 -381 0
380 -95 381 0
-380 95 381 0
381 98 -382 0
-381 -98 -382 0
381 -98 382 0
-381 98 382 0
382 104 -383 0
-382 -104 -383 0
382 -104 383 0
-382 104 383 0
-383 0
32 33 -384 0
-32 -33 -384 0
32 -33 384 0
-32 33 384 0
384 35 -385 0
-384 -35 -385 0
384 -35 385 0
-384 35 385 0
385 36 -386 0
-385 -36 -386 0
385 -36 386 0
-385 36 386 0
386 90 -387 0
-386 -90 -387 0
386 -90 387 0
-386 90 387 0
387 96 -388 0
-387 -96 -388 0
387 -96 388 0
-387 96 388 0
388 99 -389 0
-388 -99 -389 0
388 -99 389 0
-388 99 389 0
389 105 -390 0
-389 -105 -390 0
389 -105 390 0
-389 105 390 0
-390 0
33 34 -391 0
-33 -34 -391 0
33 -34 391 0
-33 34 391 0
391 36 -392 0
-391 -36 -392 0
391 -36 392 0
-391 36 392 0
392 37 -393 0
-392 -37 -393 0
392 -37 393 0
-392 37 393 0
393 91 -394 0
-393 -91 -394 0
393 -91 394 0
-393 91 394 0
394 97 -395 0
-394 -97 -395 0
394 -97 395 0
-394 97 395 0
395 100 -396 0
-395 -100 -396 0
395 -100 396 0
-395 100 396 0
396 106 -397 0
-396 -106 -397 0
396 -106 397 0
-396 106 397 0
-397 0
34 35 -398 0
-34 -35 -398 0
34 -35 398 0
-34 35 398 0
398 37 -399 0
-398 -37 -399 0
398 -37 399 0
-398 37 399 0
399 38 -400 0
-399 -38 -400 0
399 -38 400 0
-399 38 400 0
400 92 -401 0
-400 -92 -401 0
400 -92 401 0
-400 92 401 0
401 98 -402 0
-401 -98 -402 0
401 -98 402 0
-401 98 402 0
402 101 -403 0
-402 -101 -403 0
402 -101 403 0
-402 101 403 0
403 107 -404 0
-403 -107 -404 0
403 -107 404 0
-403 107 404 0
-404 0
35 36 -405 0
-35 -36 -405 0
35 -36 405 0
-35 36 405 0
405 38 -406 0
-405 -38 -406 0
405 -38 406 0
-405 38 406 0
406 39 -407 0
-406 -39 -407 0
406 -39 407 0
-406 39 407 0
407 93 -408 0
-407 -93 -408 0
407 -93 408 0
-407 93 408 0
408 99 -409 0
-408 -99 -409 0
408 -99 409 0
-408 99 409 0
409 102 -410 0
-409 -102 -410 0
409 -102 410 0
-409 102 410 0
410 108 -411 0
-410 -108 -411 0
410 -108 411 0
-410 108 411 0
-411 0
36 37 -412 0
-36 -37 -412 0
36 -37 412 0
-36 37 412 0
412 39 -413 0
-412 -39 -413 0
412 -39 413 0
-412 39 413 0
413 40 -414 0
-413 -40 -414 0
413 -40 414 0
-413 40 414 0
414 94 -415 0
-414 -94 -415 0
414 -94 415 0
-414 94 415 0
415 100 -416 0
-415 -100 -416 0
415 -100 416 0
-415 100 416 0
416 103 -417 0
-416 -103 -417 0
416 -103 417 0
-416 103 417 0
417 109 -418 0
-417 -109 -418 0
417 -109 418 0
-417 109 418 0
-418 0
37 38 -419 0
-37 -38 -419 0
37 -38 419 0
-37 38 419 0
419 40 -420 0
-419 -40 -420 0
419 -40 420 0
-419 40 420 0
420 41 -421 0
-420 -41 -421 0
420 -41 421 0
-420 41 421 0
421 95 -422 0
-421 -95 -422 0
421 -95 422 0
-421 95 422 0
422 101 -423 0
-422 -101 -423 0
422 -101 423 0
-422 101 423 0
423 104 -424 0
-423 -104 -424 0
423 -104 424 0
-423 104 424 0
424 110 -425 0
-424 -110 -425 0
424 -110 425 0
-424 110 425 0
-425 0
38 39 -426 0
-38 -39 -426 0
38 -39 426 0
-38 39 426 0
426 41 -427 0
-426 -41 -427 0
426 -41 427 0
-426 41 427 0
427 42 -428 0
-427 -42 -428 0
427 -42 428 0
-427 42 428 0
428 96 -429 0
-428 -96 -429 0
428 -96 429 0
-428 96 429 0
429 102 -430 0
-429 -102 -430 0
429 -102 430 0
-429 102 430 0
430 105 -431 0
-430 -105 -431 0
430 -105 431 0
-430 105 431 0
431 111 -432 0
-431 -111 -432 0
431 -111 432 0
-431 111 432 0
-432 0
39 40 -433 0
-39 -40 -433 0
39 -40 433 0
-39 40 433 0
433 42 -434 0
-433 -42 -434 0
433 -42 434 0
-433 42 434 0
434 43 -435 0
-434 -43 -435 0
434 -43 435 0
-434 43 435 0
435 97 -436 0
-435 -97 -436 0
435 -97 436 0
-435 97 436 0
436 103 -437 0
-436 -103 -437 0
436 -103 437 0
-436 103 437 0
437 106 -438 0
-437 -106 -438 0
437 -106 438 0
-437 106 438 0
438 112 -439 0
-438 -112 -439 0
438 -112 439 0
-438 112 439 0
-439 0
40 41 -440 0
-40 -41 -440 0
40 -41 440 0
-40 41 440 0
440 43 -441 0
-440 -43 -441 0
440 -43 441 0
-440 43 441 0
441 44 -442 0
-441 -44 -442 0
441 -44 442 0
-441 44 442 0
442 98 -443 0
-442 -98 -443 0
442 -98 443 0
-442 98 443 0
443 104 -444 0
-443 -104 -444 0
443 -104 444 0
-443 104 444 0
444 107 -445 0
-444 -107 -445 0
444 -107 445 0
-444 107 445 0
445 113 -446 0
-445 -113 -446 0
445 -113 446 0
-445 113 446 0
-446 0
41 42 -447 0
-41 -42 -447 0
41 -42 447 0
-41 42 447 0
447 44 -448 0
-447 -44 -448 0
447 -44 448 0
-447 44 448 0
448 45 -449 0
-448 -45 -449 0
448 -45 449 0
-448 45 449 0
449 99 -450 0
-449 -99 -450 0
449 -99 450 0
-449 99 450 0
450 105 -451 0
-450 -105 -451 0
450 -105 451 0
-450 105 451 0
451 108 -452 0
-451 -108 -452 0
451 -108 452 0
-451 108 452 0
452 114 -453 0
-452 -114 -453 0
452 -114 453 0
-452 114 453 0
-453 0
42 43 -454 0
-42 -43 -454 0
42 -43 454 0
-42 43 454 0
454 45 -455 0
-454 -45 -455 0
454 -45 455 0
-454 45 455 0
455 46 -456 0
-455 -46 -456 0
455 -46 456 0
-455 46 456 0
456 100 -457 0
-456 -100 -457 0
456 -100 457 0
-456 100 457 0
457 106 -458 0
-457 -106 -458 0
457 -106 458 0
-457 106 458 0
458 109 -459 0
-458 -109 -459 0
458 -109 459 0
-458 109 459 0
459 115 -460 0
-459 -115 -460 0
459 -115 460 0
-459 115 460 0
-460 0
43 44 -461 0
-43 -44 -461 0
43 -44 461 0
-43 44 461 0
461 46 -462 0
-461 -46 -462 0
461 -46 462 0
-461 46 462 0
462 47 -463 0
-462 -47 -463 0
462 -47 463 0
-462 47 463 0
463 101 -464 0
-463 -101 -464 0
463 -101 464 0
-463 101 464 0
464 107 -465 0
-464 -107 -465 0
464 -107 465 0
-464 107 465 0
465 110 -466 0
-465 -110 -466 0
465 -110 466 0
-465 110 466 0
466 116 -467 0
-466 -116 -467 0
466 -116 467 0
-466 116 467 0
-467 0
44 45 -468 0
-44 -45 -468 0
44 -45 468 0
-44 45 468 0
468 47 -469 0
-468 -47 -469 0
468 -47 469 0
-468 47 469 0
469 48 -470 0
-469 -48 -470 0
469 -48 470 0
-469 48 470 0
470 102 -471 0
-470 -102 -471 0
470 -102 471 0
-470 102 471 0
471 108 -472 0
-471 -108 -472 0
471 -108 472 0
-471 108 472 0
472 111 -473 0
-472 -111 -473 0
472 -111 473 0
-472 111 473 0
473 117 -474 0
-473 -117 -474 0
473 -117 474 0
-473 117 474 0
-474 0
45 46 -475 0
-45 -46 -475 0
45 -46 475 0
-45 46 475 0
475 48 -476 0
-475 -48 -476 0
475 -48 476 0
-475 48 476 0
476 49 -477 0
-476 -49 -477 0
476 -49 477 0
-476 49 477 0
477 103 -478 0
-477 -103 -478 0
477 -103 478 0
-477 103 478 0
478 109 -479 0
-478 -109 -479 0
478 -109 479 0
-478 109 479 0
479 112 -480 0
-479 -112 -480 0
479 -112 480 0
-479 112 480 0
480 118 -481 0
-480 -118 -481 0
480 -118 481 0
-480 118 481 0
-481 0
46 47 -482 0
-46 -47 -482 0
46 -47 482 0
-46 47 482 0
482 49 -483 0
-482 -49 -483 0
482 -49 483 0
-482 49 483 0
483 50 -484 0
-483 -50 -484 0
483 -50 484 0
-483 50 484 0
484 104 -485 0
-484 -104 -485 0
484 -104 485 0
-484 104 485 0
485 110 -486 0
-485 -110 -486 0
485 -110 486 0
-485 110 486 0
486 113 -487 0
-486 -113 -487 0
486 -113 487 0
-486 113 487 0
487 119 -488 0
-487 -119 -488 0
487 -119 488 0
-487 119 488 0
-488 0
47 48 -489 0
-47 -48 -489 0
47 -48 489 0
-47 48 489 0
489 50 -490 0
-489 -50 -490 0
489 -50 490 0
-489 50 490 0
490 51 -491 0
-490 -51 -491 0
490 -51 491 0
-490 51 491 0
491 105 -492 0
-491 -105 -492 0
491 -105 492 0
-491 105 492 0
492 111 -493 0
-492 -111 -493 0
492 -111 493 0
-492 111 493 0
493 114 -494 0
-493 -114 -494 0
493 -114 494 0
-493 114 494 0
494 120 -495 0
-494 -120 -495 0
494 -120 495 0
-494 120 495 0
-495 0
48 49 -496 0
-48 -49 -496 0
48 -49 496 0
-48 49 496 0
496 51 -497 0
-496 -51 -497 0
496 -51 497 0
-496 51 497 0
497 52 -498 0
-497 -52 -498 0
497 -52 498 0
-497 52 498 0
498 106 -499 0
-498 -106 -499 0
498 -106 499 0
-498 106 499 0
499 112 -500 0
-499 -112 -500 0
499 -112 500 0
-499 112 500 0
500 115 -501 0
-500 -115 -501 0
500 -115 501 0
-500 115 501 0
501 121 -502 0
-501 -121 -502 0
501 -121 502 0
-501 121 502 0
-502 0
49 50 -503 0
-49 -50 -503 0
49 -50 503 0
-49 50 503 0
503 52 -504 0
-503 -52 -504 0
503 -52 504 0
-503 52 504 0
504 53 -505 0
-504 -53 -505 0
504 -53 505 0
-504 53 505 0
505 107 -506 0
-505 -107 -506 0
505 -107 506 0
-505 107 506 0
506 113 -507 0
-506 -113 -507 0
506 -113 507 0
-506 113 507 0
507 116 -508 0
-507 -116 -508 0
507 -116 508 0
-507 116 508 0
508 122 -509 0
-508 -122 -509 0
508 -122 509 0
-508 122 509 0
-509 0
50 51 -510 0
-50 -51 -510 0
50 -51 510 0
-50 51 510 0
510 53 -511 0
-510 -53 -511 0
510 -53 511 0
-510 53 511 0
511 54 -512 0
-511 -54 -512 0
511 -54 512 0
-511 54 512 0
512 108 -513 0
-512 -108 -513 0
512 -108 513 0
-512 108 513 0
513 114 -514 0
-513 -114 -514 0
513 -114 514 0
-513 114 514 0
514 117 -515 0
-514 -117 -515 0
514 -117 515 0
-514 117 515 0
515 123 -516 0
-515 -123 -516 0
515 -123 516 0
-515 123 516 0
-516 0
51 52 -517 0
-51 -52 -517 0
51 -52 517 0
-51 52 517 0
517 54 -518 0
-517 -54 -518 0
517 -54 518 0
-517 54 518 0
518 55 -519 0
-518 -55 -519 0
518 -55 519 0
-518 55 519 0
519 109 -520 0
-519 -109 -520 0
519 -109 520 0
-519 109 520 0
520 115 -521 0
-520 -115 -521 0
520 -115 521 0
-520 115 521 0
521 118 -522 0
-521 -118 -522 0
521 -118 522 0
-521 118 522 0
522 124 -523 0
-522 -124 -523 0
522 -124 523 0
-522 124 523 0
-523 0
52 53 -524 0
-52 -53 -524 0
52 -53 524 0
-52 53 524 0
524 55 -525 0
-524 -55 -525 0
524 -55 525 0
-524 55 525 0
525 56 -526 0
-525 -56 -526 0
525 -56 526 0
-525 56 526 0
526 110 -527 0
-526 -110 -527 0
526 -110 527 0
-526 110 527 0
527 116 -528 0
-527 -116 -528 0
527 -116 528 0
-527 116 528 0
528 119 -529 0
-528 -119 -529 0
528 -119 529 0
-528 119 529 0
529 125 -530 0
-529 -125 -530 0
529 -125 530 0
-529 125 530 0
-530 0
53 54 -531 0
-53 -54 -531 0
53 -54 531 0
-53 54 531 0
531 56 -532 0
-531 -56 -532 0
531 -56 532 0
-531 56 532 0
532 57 -533 0
-532 -57 -533 0
532 -57 533 0
-532 57 533 0
533 111 -534 0
-533 -111 -534 0
533 -111 534 0
-533 111 534 0
534 117 -535 0
-534 -117 -535 0
534 -117 535 0
-534 117 535 0
535 120 -536 0
-535 -120 -536 0
535 -120 536 0
-535 120 536 0
536 126 -537 0
-536 -126 -537 0
536 -126 537 0
-536 126 537 0
-537 0
54 55 -538 0
-54 -55 -538 0
54 -55 538 0
-54 55 538 0
538 57 -539 0
-538 -57 -539 0
538 -57 539 0
-538 57 539 0
539 58 -540 0
-539 -58 -540 0
539 -58 540 0
-539 58 540 0
540 112 -541 0
-540 -112 -541 0
540 -112 541 0
-540 112 541 0
541 118 -542 0
-541 -118 -542 0
541 -118 542 0
-541 118 542 0
542 121 -543 0
-542 -121 -543 0
542 -121 543 0
-542 121 543 0
543 127 -544 0
-543 -127 -544 0
543 -127 544 0
-543 127 544 0
-544 0
55 56 -545 0
-55 -56 -545 0
55 -56 545 0
-55 56 545 0
545 58 -546 0
-545 -58 -546 0
545 -58 546 0
-545 58 546 0
546 59 -547 0
-546 -59 -547 0
546 -59 547 0
-546 59 547 0
547 113 -548 0
-547 -113 -548 0
547 -113 548 0
-547 113 548 0
548 119 -549 0
-548 -119 -549 0
548 -119 549 0
-548 119 549 0
549 122 -550 0
-549 -122 -550 0
549 -122 550 0
-549 122 550 0
550 128 -551 0
-550 -128 -551 0
550 -128 551 0
-550 128 551 0
-551 0
56 57 -552 0
-56 -57 -552 0
56 -57 552 0
-56 57 552 0
552 59 -553 0
-552 -59 -553 0
552 -59 553 0
-552 59 553 0
553 60 -554 0
-553 -60 -554 0
553 -60 554 0
-553 60 554 0
554 114 -555 0
-554 -114 -555 0
554 -114 555 0
-554 114 555 0
555 120 -556 0
-555 -120 -556 0
555 -120 556 0
-555 120 556 0
556 123 -557 0
-556 -123 -557 0
556 -123 557 0
-556 123 557 0
557 129 -558 0
-557 -129 -558 0
557 -129 558 0
-557 129 558 0
-558 0
57 58 -559 0
-57 -58 -559 0
57 -58 559 0
-57 58 559 0
559 60 -560 0
-559 -60 -560 0
559 -60 560 0
-559 60 560 0
560 61 -561 0
-560 -61 -561 0
560 -61 561 0
-560 61 561 0
561 115 -562 0
-561 -115 -562 0
561 -115 562 0
-561 115 562 0
562 121 -563 0
-562 -121 -563 0
562 -121 563 0
-562 121 563 0
563 124 -564 0
-563 -124 -564 0
563 -124 564 0
-563 124 564 0
564 130 -565 0
-564 -130 -565 0
564 -130 565 0
-564 130 565 0
-565 0
58 59 -566 0
-58 -59 -566 0
58 -59 566 0
-58 59 566 0
566 61 -567 0
-566 -61 -567 0
566 -61 567 0
-566 61 567 0
567 62 -568 0
-567 -62 -568 0
567 -62 568 0
-567 62 568 0
568 116 -569 0
-568 -116 -569 0
568 -116 569 0
-568 116 569 0
569 122 -570 0
-569 -122 -570 0
569 -122 570 0
-569 122 570 0
570 125 -571 0
-570 -125 -571 0
570 -125 571 0
-570 125 571 0
571 131 -572 0
-571 -131 -572 0
571 -131 572 0
-571 131 572 0
-572 0
59 60 -573 0
-59 -60 -573 0
59 -60 573 0
-59 60 573 0
573 62 -574 0
-573 -62 -574 0
573 -62 574 0
-573 62 574 0
574 63 -575 0
-574 -63 -575 0
574 -63 575 0
-574 63 575 0
575 117 -576 0
-575 -117 -576 0
575 -117 576 0
-575 117 576 0
576 123 -577 0
-576 -123 -577 0
576 -123 577 0
-576 123 577 0
577 126 -578 0
-577 -126 -578 0
577 -126 578 0
-577 126 578 0
578 132 -579 0
-578 -132 -579 0
578 -132 579 0
-578 132 579 0
-579 0
60 61 -580 0
-60 -61 -580 0
60 -61 580 0
-60 61 580 0
580 63 -581 0
-580 -63 -581 0
580 -63 581 0
-580 63 581 0
581 64 -582 0
-581 -64 -582 0
581 -64 582 0
-581 64 582 0
582 118 -583 0
-582 -118 -583 0
582 -118 583 0
-582 118 583 0
583 124 -584 0
-583 -124 -584 0
583 -124 584 0
-583 124 584 0
584 127 -585 0
-584 -127 -585 0
584 -127 585 0
-584 127 585 0
585 133 -586 0
-585 -133 -586 0
585 -133 586 0
-585 133 586 0
-586 0
61 62 -587 0
-61 -62 -587 0
61 -62 587 0
-61 62 587 0
587 64 -588 0
-587 -64 -588 0
587 -64 588 0
-587 64 588 0
588 65 -589 0
-588 -65 -589 0
588 -65 589 0
-588 65 589 0
589 119 -590 0
-589 -119 -590 0
589 -119 590 0
-589 119 590 0
590 125 -591 0
-590 -125 -591 0
590 -125 591 0
-590 125 591 0
591 128 -592 0
-591 -128 -592 0
591 -128 592 0
-591 128 592 0
592 134 -593 0
-592 -134 -593 0
592 -134 593 0
-592 134 593 0
-593 0
62 63 -594 0
-62 -63 -594 0
62 -63 594 0
-62 63 594 0
594 65 -595 0
-594 -65 -595 0
594 -65 595 0
-594 65 595 0
595 66 -596 0
-595 -66 -596 0
595 -66 596 0
-595 66 596 0
596 120 -597 0
-596 -120 -597 0
596 -120 597 0
-596 120 597 0
597 126 -598 0
-597 -126 -598 0
597 -126 598 0
-597 126 598 0
598 129 -599 0
-598 -129 -599 0
598 -129 599 0
-598 129 599 0
599 135 -600 0
-599 -135 -600 0
599 -135 600 0
-599 135 600 0
-600 0
63 64 -601 0
-63 -64 -601 0
63 -64 601 0
-63 64 601 0
601 66 -602 0
-601 -66 -602 0
601 -66 602 0
-601 66 602 0
602 67 -603 0
-602 -67 -603 0
602 -67 603 0
-602 67 603 0
603 121 -604 0
-603 -121 -604 0
603 -121 604 0
-603 121 604 0
604 127 -605 0
-604 -127 -605 0
604 -127 605 0
-604 127 605 0
605 130 -606 0
-605 -130 -606 0
605 -130 606 0
-605 130 606 0
606 136 -607 0
-606 -136 -607 0
606 -136 607 0
-606 136 607 0
-607 0
64 65 -608 0
-64 -65 -608 0
64 -65 608 0
-64 65 608 0
608 67 -609 0
-608 -67 -609 0
608 -67 609 0
-608 67 609 0
609 68 -610 0
-609 -68 -610 0
609 -68 610 0
-609 68 610 0
610 122 -611 0
-610 -122 -611 0
610 -122 611 0
-610 122 611 0
611 128 -612 0
-611 -128 -612 0
611 -128 612 0
-611 128 612 0
612 131 -613 0
-612 -131 -613 0
612 -131 613 0
-612 131 613 0
613 137 -614 0
-613 -137 -614 0
613 -137 614 0
-613 137 614 0
-614 0
65 66 -615 0
-65 -66 -615 0
65 -66 615 0
-65 66 615 0
615 68 -616 0
-615 -68 -616 0
615 -68 616 0
-615 68 616 0
616 69 -617 0
-616 -69 -617 0
616 -69 617 0
-616 69 617 0
617 123 -618 0
-617 -123 -618 0
617 -123 618 0
-617 123 618 0
618 129 -619 0
-618 -129 -619 0
618 -129 619 0
-618 129 619 0
619 132 -620 0
-619 -132 -620 0
619 -132 620 0
-619 132 620 0
620 138 -621 0
-620 -138 -621 0
620 -138 621 0
-620 138 621 0
-621 0
1 73 -622 0
-1 -73 -622 0
1 -73 622 0
-1 73 622 0
622 76 -623 0
-622 -76 -623 0
622 -76 623 0
-622 76 623 0
623 79 -624 0
-623 -79 -624 0
623 -79 624 0
-623 79 624 0
624 82 -625 0
-624 -82 -625 0
624 -82 625 0
-624 82 625 0
625 85 -626 0
-625 -85 -626 0
625 -85 626 0
-625 85 626 0
626 88 -627 0
-626 -88 -627 0
626 -88 627 0
-626 88 627 0
627 91 -628 0
-627 -91 -628 0
627 -91 628 0
-627 91 628 0
628 94 -629 0
-628 -94 -629 0
628 -94 629 0
-628 94 629 0
629 97 -630 0
-629 -97 -630 0
629 -97 630 0
-629 97 630 0
630 100 -631 0
-630 -100 -631 0
630 -100 631 0
-630 100 631 0
631 103 -632 0
-631 -103 -632 0
631 -103 632 0
-631 103 632 0
632 106 -633 0
-632 -106 -633 0
632 -106 633 0
-632 106 633 0
633 109 -634 0
-633 -109 -634 0
633 -109 634 0
-633 109 634 0
634 112 -635 0
-634 -112 -635 0
634 -112 635 0
-634 112 635 0
635 115 -636 0
-635 -115 -636 0
635 -115 636 0
-635 115 636 0
636 118 -637 0
-636 -118 -637 0
636 -118 637 0
-636 118 637 0
637 121 -638 0
-637 -121 -638 0
637 -121 638 0
-637 121 638 0
638 124 -639 0
-638 -124 -639 0
638 -124 639 0
-638 124 639 0
639 127 -640 0
-639 -127 -640 0
639 -127 640 0
-639 127 640 0
640 128 -641 0
-640 -128 -641 0
640 -128 641 0
-640 128 641 0
641 129 -642 0
-641 -129 -642 0
641 -129 642 0
-641 129 642 0
642 133 -643 0
-642 -133 -643 0
642 -133 643 0
-642 133 643 0
643 136 -644 0
-643 -136 -644 0
643 -136 644 0
-643 136 644 0
644 137 -645 0
-644 -137 -645 0
644 -137 645 0
-644 137 645 0
645 138 -646 0
-645 -138 -646 0
645 -138 646 0
-645 138 646 0
2 73 -647 0
-2 -73 -647 0
2 -73 647 0
-2 73 647 0
647 74 -648 0
-647 -74 -648 0
647 -74 648 0
-647 74 648 0
648 76 -649 0
-648 -76 -649 0
648 -76 649 0
-648 76 649 0
649 77 -650 0
-649 -77 -650 0
649 -77 650 0
-649 77 650 0
650 79 -651 0
-650 -79 -651 0
650 -79 651 0
-650 79 651 0
651 80 -652 0
-651 -80 -652 0
651 -80 652 0
-651 80 652 0
652 82 -653 0
-652 -82 -653 0
652 -82 653 0
-652 82 653 0
653 83 -654 0
-653 -83 -654 0
653 -83 654 0
-653 83 654 0
654 85 -655 0
-654 -85 -655 0
654 -85 655 0
-654 85 655 0
655 86 -656 0
-655 -86 -656 0
655 -86 656 0
-655 86 656 0
656 88 -657 0
-656 -88 -657 0
656 -88 657 0
-656 88 657 0
657 89 -658 0
-657 -89 -658 0
657 -89 658 0
-657 89 658 0
658 91 -659 0
-658 -91 -659 0
658 -91 659 0
-658 91 659 0
659 92 -660 0
-659 -92 -660 0
659 -92 660 0
-659 92 660 0
660 94 -661 0
-660 -94 -661 0
660 -94 661 0
-660 94 661 0
661 95 -662 0
-661 -95 -662 0
661 -95 662 0
-661 95 662 0
662 97 -663 0
-662 -97 -663 0
662 -97 663 0
-662 97 663 0
663 98 -664 0
-663 -98 -664 0
663 -98 664 0
-663 98 664 0
664 100 -665 0
-664 -100 -665 0
664 -100 665 0
-664 100 665 0
665 101 -666 0
-665 -101 -666 0
665 -101 666 0
-665 101 666 0
666 103 -667 0
-666 -103 -667 0
666 -103 667 0
-666 103 667 0
667 104 -668 0
-667 -104 -668 0
667 -104 668 0
-667 104 668 0
668 106 -669 0
-668 -106 -669 0
668 -106 669 0
-668 106 669 0
669 107 -670 0
-669 -107 -670 0
669 -107 670 0
-669 107 670 0
670 109 -671 0
-670 -109 -671 0
670 -109 671 0
-670 109 671 0
671 110 -672 0
-671 -110 -672 0
671 -110 672 0
-671 110 672 0
672 112 -673 0
-672 -112 -673 0
672 -112 673 0
-672 112 673 0
673 113 -674 0
-673 -113 -674 0
673 -113 674 0
-673 113 674 0
674 115 -675 0
-674 -115 -675 0
674 -115 675 0
-674 115 675 0
675 116 -676 0
-675 -116 -676 0
675 -116 676 0
-675 116 676 0
676 118 -677 0
-676 -118 -677 0
676 -118 677 0
-676 118 677 0
677 119 -678 0
-677 -119 -678 0
677 -119 678 0
-677 119 678 0
678 121 -679 0
-678 -121 -679 0
678 -121 679 0
-678 121 679 0
679 122 -680 0
-679 -122 -680 0
679 -122 680 0
-679 122 680 0
680 124 -681 0
-680 -124 -681 0
680 -124 681 0
-680 124 681 0
681 125 -682 0
-681 -125 -682 0
681 -125 682 0
-681 125 682 0
682 127 -683 0
-682 -127 -683 0
682 -127 683 0
-682 127 683 0
683 128 -684 0
-683 -128 -684 0
683 -128 684 0
-683 128 684 0
684 129 -685 0
-684 -129 -685 0
684 -129 685 0
-684 129 685 0
685 133 -686 0
-685 -133 -686 0
685 -133 686 0
-685 133 686 0
686 134 -687 0
-686 -134 -687 0
686 -134 687 0
-686 134 687 0
687 136 -688 0
-687 -136 -688 0
687 -136 688 0
-687 136 688 0
688 137 -689 0
-688 -137 -689 0
688 -137 689 0
-688 137 689 0
689 138 -690 0
-689 -138 -690 0
689 -138 690 0
-689 138 690 0
3 73 -691 0
-3 -73 -691 0
3 -73 691 0
-3 73 691 0
691 74 -692 0
-691 -74 -692 0
691 -74 692 0
-691 74 692 0
692 75 -693 0
-692 -75 -693 0
692 -75 693 0
-692 75 693 0
693 76 -694 0
-693 -76 -694 0
693 -76 694 0
-693 76 694 0
694 77 -695 0
-694 -77 -695 0
694 -77 695 0
-694 77 695 0
695 78 -696 0
-695 -78 -696 0
695 -78 696 0
-695 78 696 0
696 79 -697 0
-696 -79 -697 0
696 -79 697 0
-696 79 697 0
697 80 -698 0
-697 -80 -698 0
697 -80 698 0
-697 80 698 0
698 81 -699 0
-698 -81 -699 0
698 -81 699 0
-698 81 699 0
699 82 -700 0
-699 -82 -700 0
699 -82 700 0
-699 82 700 0
700 83 -701 0
-700 -83 -701 0
700 -83 701 0
-700 83 701 0
701 84 -702 0
-701 -84 -702 0
701 -84 702 0
-701 84 702 0
702 85 -703 0
-702 -85 -703 0
702 -85 703 0
-702 85 703 0
703 86 -704 0
-703 -86 -704 0
703 -86 704 0
-703 86 704 0
704 87 -705 0
-704 -87 -705 0
704 -87 705 0
-704 87 705 0
705 88 -706 0
-705 -88 -706 0
705 -88 706 0
-705 88 706 0
706 89 -707 0
-706 -89 -707 0
706 -89 707 0
-706 89 707 0
707 90 -708 0
-707 -90 -708 0
707 -90 708 0
-707 90 708 0
708 91 -709 0
-708 -91 -709 0
708 -91 709 0
-708 91 709 0
709 92 -710 0
-709 -92 -710 0
709 -92 710 0
-709 92 710 0
710 93 -711 0
-710 -93 -711 0
710 -93 711 0
-710 93 711 0
711 94 -712 0
-711 -94 -712 0
711 -94 712 0
-711 94 712 0
712 95 -713 0
-712 -95 -713 0
712 -95 713 0
-712 95 713 0
713 96 -714 0
-713 -96 -714 0
713 -96 714 0
-713 96 714 0
714 97 -715 0
-714 -97 -715 0
714 -97 715 0
-714 97 715 0
715 98 -716 0
-715 -98 -716 0
715 -98 716 0
-715 98 716 0
716 99 -717 0
-716 -99 -717 0
716 -99 717 0
-716 99 717 0
717 100 -718 0
-717 -100 -718 0
717 -100 718 0
-717 100 718 0
718 101 -719 0
-718 -101 -719 0
718 -101 719 0
-718 101 719 0
719 102 -720 0
-719 -102 -720 0
719 -102 720 0
-719 102 720 0
720 103 -721 0
-720 -103 -721 0
720 -103 721 0
-720 103 721 0
721 104 -722 0
-721 -104 -722 0
721 -104 722 0
-721 104 722 0
722 105 -723 0
-722 -105 -723 0
722 -105 723 0
-722 105 723 0
723 106 -724 0
-723 -106 -724 0
723 -106 724 0
-723 106 724 0
724 107 -725 0
-724 -107 -725 0
724 -107 725 0
-724 107 725 0
725 108 -726 0
-725 -108 -726 0
725 -108 726 0
-725 108 726 0
726 109 -727 0
-726 -109 -727 0
726 -109 727 0
-726 109 727 0
727 110 -728 0
-727 -110 -728 0
727 -110 728 0
-727 110 728 0
728 111 -729 0
-728 -111 -729 0
728 -111 729 0
-728 111 729 0
729 112 -730 0
-729 -112 -730 0
729 -112 730 0
-729 112 730 0
730 113 -731 0
-730 -113 -731 0
730 -113 731 0
-730 113 731 0
731 114 -732 0
-731 -114 -732 0
731 -114 732 0
-731 114 732 0
732 115 -733 0
-732 -115 -733 0
732 -115 733 0
-732 115 733 0
733 116 -734 0
-733 -116 -734 0
733 -116 734 0
-733 116 734 0
734 117 -735 0
-734 -117 -735 0
734 -117 735 0
-734 117 735 0
735 118 -736 0
-735 -118 -736 0
735 -118 736 0
-735 118 736 0
736 119 -737 0
-736 -119 -737 0
736 -119 737 0
-736 119 737 0
737 120 -738 0
-737 -120 -738 0
737 -120 738 0
-737 120 738 0
738 121 -739 0
-738 -121 -739 0
738 -121 739 0
-738 121 739 0
739 122 -740 0
-739 -122 -740 0
739 -122 740 0
-739 122 740 0
740 123 -741 0
-740 -123 -741 0
740 -123 741 0
-740 123 741 0
741 124 -742 0
-741 -124 -742 0
741 -124 742 0
-741 124 742 0
742 125 -743 0
-742 -125 -743 0
742 -125 743 0
-742 125 743 0
743 126 -744 0
-743 -126 -744 0
743 -126 744 0
-743 126 744 0
744 127 -745 0
-744 -127 -745 0
744 -127 745 0
-744 127 745 0
745 128 -746 0
-745 -128 -746 0
745 -128 746 0
-745 128 746 0
746 129 -747 0
-746 -129 -747 0
746 -129 747 0
-746 129 747 0
747 133 -748 0
-747 -133 -748 0
747 -133 748 0
-747 133 748 0
748 134 -749 0
-748 -134 -749 0
748 -134 749 0
-748 134 749 0
749 135 -750 0
-749 -135 -750 0
749 -135 750 0
-749 135 750 0
750 136 -751 0
-750 -136 -751 0
750 -136 751 0
-750 136 751 0
751 137 -752 0
-751 -137 -752 0
751 -137 752 0
-751 137 752 0
752 138 -753 0
-752 -138 -753 0
752 -138 753 0
-752 138 753 0
4 73 -754 0
-4 -73 -754 0
4 -73 754 0
-4 73 754 0
754 74 -755 0
-754 -74 -755 0
754 -74 755 0
-754 74 755 0
755 75 -756 0
-755 -75 -756 0
755 -75 756 0
-755 75 756 0
756 77 -757 0
-756 -77 -757 0
756 -77 757 0
-756 77 757 0
757 78 -758 0
-757 -78 -758 0
757 -78 758 0
-757 78 758 0
758 80 -759 0
-758 -80 -759 0
758 -80 759 0
-758 80 759 0
759 81 -760 0
-759 -81 -760 0
759 -81 760 0
-759 81 760 0
760 83 -761 0
-760 -83 -761 0
760 -83 761 0
-760 83 761 0
761 84 -762 0
-761 -84 -762 0
761 -84 762 0
-761 84 762 0
762 86 -763 0
-762 -86 -763 0
762 -86 763 0
-762 86 763 0
763 87 -764 0
-763 -87 -764 0
763 -87 764 0
-763 87 764 0
764 89 -765 0
-764 -89 -765 0
764 -89 765 0
-764 89 765 0
765 90 -766 0
-765 -90 -766 0
765 -90 766 0
-765 90 766 0
766 92 -767 0
-766 -92 -767 0
766 -92 767 0
-766 92 767 0
767 93 -768 0
-767 -93 -768 0
767 -93 768 0
-767 93 768 0
768 95 -769 0
-768 -95 -769 0
768 -95 769 0
-768 95 769 0
769 96 -770 0
-769 -96 -770 0
769 -96 770 0
-769 96 770 0
770 98 -771 0
-770 -98 -771 0
770 -98 771 0
-770 98 771 0
771 99 -772 0
-771 -99 -772 0
771 -99 772 0
-771 99 772 0
772 101 -773 0
-772 -101 -773 0
772 -101 773 0
-772 101 773 0
773 102 -774 0
-773 -102 -774 0
773 -102 774 0
-773 102 774 0
774 104 -775 0
-774 -104 -775 0
774 -104 775 0
-774 104 775 0
775 105 -776 0
-775 -105 -776 0
775 -105 776 0
-775 105 776 0
776 107 -777 0
-776 -107 -777 0
776 -107 777 0
-776 107 777 0
777 108 -778 0
-777 -108 -778 0
777 -108 778 0
-777 108 778 0
778 110 -779 0
-778 -110 -779 0
778 -110 779 0
-778 110 779 0
779 111 -780 0
-779 -111 -780 0
779 -111 780 0
-779 111 780 0
780 113 -781 0
-780 -113 -781 0
780 -113 781 0
-780 113 781 0
781 114 -782 0
-781 -114 -782 0
781 -114 782 0
-781 114 782 0
782 116 -783 0
-782 -116 -783 0
782 -116 783 0
-782 116 783 0
783 117 -784 0
-783 -117 -784 0
783 -117 784 0
-783 117 784 0
784 119 -785 0
-784 -119 -785 0
784 -119 785 0
-784 119 785 0
785 120 -786 0
-785 -120 -786 0
785 -120 786 0
-785 120 786 0
786 122 -787 0
-786 -122 -787 0
786 -122 787 0
-786 122 787 0
787 123 -788 0
-787 -123 -788 0
787 -123 788 0
-787 123 788 0
788 125 -789 0
-788 -125 -789 0
788 -125 789 0
-788 125 789 0
789 126 -790 0
-789 -126 -790 0
789 -126 790 0
-789 126 790 0
790 128 -791 0
-790 -128 -791 0
790 -128 791 0
-790 128 791 0
791 129 -792 0
-791 -129 -792 0
791 -129 792 0
-791 129 792 0
792 133 -793 0
-792 -133 -793 0
792 -133 793 0
-792 133 793 0
793 134 -794 0
-793 -134 -794 0
793 -134 794 0
-793 134 794 0
794 135 -795 0
-794 -135 -795 0
794 -135 795 0
-794 135 795 0
795 137 -796 0
-795 -137 -796 0
795 -137 796 0
-795 137 796 0
796 138 -797 0
-796 -138 -797 0
796 -138 797 0
-796 138 797 0
7 74 -798 0
-7 -74 -798 0
7 -74 798 0
-7 74 798 0
798 75 -799 0
-798 -75 -799 0
798 -75 799 0
-798 75 799 0
799 76 -800 0
-799 -76 -800 0
799 -76 800 0
-799 76 800 0
800 134 -801 0
-800 -134 -801 0
800 -134 801 0
-800 134 801 0
801 135 -802 0
-801 -135 -802 0
801 -135 802 0
-801 135 802 0
802 136 -803 0
-802 -136 -803 0
802 -136 803 0
-802 136 803 0
8 75 -804 0
-8 -75 -804 0
8 -75 804 0
-8 75 804 0
804 76 -805 0
-804 -76 -805 0
804 -76 805 0
-804 76 805 0
805 77 -806 0
-805 -77 -806 0
805 -77 806 0
-805 77 806 0
806 135 -807 0
-806 -135 -807 0
806 -135 807 0
-806 135 807 0
807 136 -808 0
-807 -136 -808 0
807 -136 808 0
-807 136 808 0
808 137 -809 0
-808 -137 -809 0
808 -137 809 0
-808 137 809 0
646 690 753 797 803 809 0
1 0
-818 812 819 0
-815 812 819 0
-815 -818 819 0
-819 810 0
-816 810 0
-819 -816 811 0
-817 811 0
-819 -817 0
-813 810 0
-819 -813 811 0
-814 811 0
-819 -814 0
-813 -816 811 0
-819 -813 -816 0
-813 -817 0
-819 -813 -817 0
-814 -816 0
-819 -814 -816 0
-814 -817 0
-819 -814 -817 0
-825 818 826 0
-822 818 826 0
-822 -825 826 0
-826 816 0
-823 816 0
-826 -823 817 0
-824 817 0
-826 -824 0
-820 816 0
-826 -820 817 0
-821 817 0
-826 -821 0
-820 -823 817 0
-826 -820 -823 0
-820 -824 0
-826 -820 -824 0
-821 -823 0
-826 -821 -823 0
-821 -824 0
-826 -821 -824 0
-832 825 833 0
-829 825 833 0
-829 -832 833 0
-833 823 0
-830 823 0
-833 -830 824 0
-831 824 0
-833 -831 0
-827 823 0
-833 -827 824 0
-828 824 0
-833 -828 0
-827 -830 824 0
-833 -827 -830 0
-827 -831 0
-833 -827 -831 0
-828 -830 0
-833 -828 -830 0
-828 -831 0
-833 -828 -831 0
-839 832 840 0
-836 832 840 0
-836 -839 840 0
-840 830 0
-837 830 0
-840 -837 831 0
-838 831 0
-840 -838 0
-834 830 0
-840 -834 831 0
-835 831 0
-840 -835 0
-834 -837 831 0
-840 -834 -837 0
-834 -838 0
-840 -834 -838 0
-835 -837 0
-840 -835 -837 0
-835 -838 0
-840 -835 -838 0
-846 839 847 0
-843 839 847 0
-843 -846 847 0
-847 837 0
-844 837 0
-847 -844 838 0
-845 838 0
-847 -845 0
-841 837 0
-847 -841 838 0
-842 838 0
-847 -842 0
-841 -844 838 0
-847 -841 -844 0
-841 -845 0
-847 -841 -845 0
-842 -844 0
-847 -842 -844 0
-842 -845 0
-847 -842 -845 0
-851 846 852 0
-849 846 852 0
-849 -851 852 0
-852 844 0
-850 844 0
-852 -850 845 0
-848 844 0
-852 -848 845 0
-848 -850 845 0
-852 -848 -850 0
-138 851 853 0
-137 851 853 0
-137 -138 853 0
-853 850 0
-136 849 854 0
-135 849 854 0
-135 -136 854 0
-854 848 0
-858 843 859 0
-856 843 859 0
-856 -858 859 0
-859 841 0
-857 841 0
-859 -857 842 0
-855 841 0
-859 -855 842 0
-855 -857 842 0
-859 -855 -857 0
-134 858 860 0
-133 858 860 0
-133 -134 860 0
-860 857 0
-132 856 861 0
-131 856 861 0
-131 -132 861 0
-861 855 0
-867 836 868 0
-864 836 868 0
-864 -867 868 0
-868 834 0
-865 834 0
-868 -865 835 0
-866 835 0
-868 -866 0
-862 834 0
-868 -862 835 0
-863 835 0
-868 -863 0
-862 -865 835 0
-868 -862 -865 0
-862 -866 0
-868 -862 -866 0
-863 -865 0
-868 -863 -865 0
-863 -866 0
-868 -863 -866 0
-872 867 873 0
-870 867 873 0
-870 -872 873 0
-873 865 0
-871 865 0
-873 -871 866 0
-869 865 0
-873 -869 866 0
-869 -871 866 0
-873 -869 -871 0
-130 872 874 0
-129 872 874 0
-129 -130 874 0
-874 871 0
-128 870 875 0
-127 870 875 0
-127 -128 875 0
-875 869 0
-879 864 880 0
-877 864 880 0
-877 -879 880 0
-880 862 0
-878 862 0
-880 -878 863 0
-876 862 0
-880 -876 863 0
-876 -878 863 0
-880 -876 -878 0
-126 879 881 0
-125 879 881 0
-125 -126 881 0
-881 878 0
-124 877 884 0
-883 877 884 0
-883 -124 884 0
-884 876 0
-882 876 0
-884 -882 0
-123 883 885 0
-122 883 885 0
-122 -123 885 0
-885 882 0
-891 829 892 0
-888 829 892 0
-888 -891 892 0
-892 827 0
-889 827 0
-892 -889 828 0
-890 828 0
-892 -890 0
-886 827 0
-892 -886 828 0
-887 828 0
-892 -887 0
-886 -889 828 0
-892 -886 -889 0
-886 -890 0
-892 -886 -890 0
-887 -889 0
-892 -887 -889 0
-887 -890 0
-892 -887 -890 0
-898 891 899 0
-895 891 899 0
-895 -898 899 0
-899 889 0
-896 889 0
-899 -896 890 0
-897 890 0
-899 -897 0
-893 889 0
-899 -893 890 0
-894 890 0
-899 -894 0
-893 -896 890 0
-899 -893 -896 0
-893 -897 0
-899 -893 -897 0
-894 -896 0
-899 -894 -896 0
-894 -897 0
-899 -894 -897 0
-903 898 904 0
-901 898 904 0
-901 -903 904 0
-904 896 0
-902 896 0
-904 -902 897 0
-900 896 0
-904 -900 897 0
-900 -902 897 0
-904 -900 -902 0
-121 903 905 0
-120 903 905 0
-120 -121 905 0
-905 902 0
-119 901 906 0
-118 901 906 0
-118 -119 906 0
-906 900 0
-910 895 911 0
-908 895 911 0
-908 -910 911 0
-911 893 0
-909 893 0
-911 -909 894 0
-907 893 0
-911 -907 894 0
-907 -909 894 0
-911 -907 -909 0
-117 910 912 0
-116 910 912 0
-116 -117 912 0
-912 909 0
-115 908 913 0
-114 908 913 0
-114 -115 913 0
-913 907 0
-919 888 920 0
-916 888 920 0
-916 -919 920 0
-920 886 0
-917 886 0
-920 -917 887 0
-918 887 0
-920 -918 0
-914 886 0
-920 -914 887 0
-915 887 0
-920 -915 0
-914 -917 887 0
-920 -914 -917 0
-914 -918 0
-920 -914 -918 0
-915 -917 0
-920 -915 -917 0
-915 -918 0
-920 -915 -918 0
-924 919 925 0
-922 919 925 0
-922 -924 925 0
-925 917 0
-923 917 0
-925 -923 918 0
-921 917 0
-925 -921 918 0
-921 -923 918 0
-925 -921 -923 0
-113 924 926 0
-112 924 926 0
-112 -113 926 0
-926 923 0
-111 922 927 0
-110 922 927 0
-110 -111 927 0
-927 921 0
-931 916 932 0
-929 916 932 0
-929 -931 932 0
-932 914 0
-930 914 0
-932 -930 915 0
-928 914 0
-932 -928 915 0
-928 -930 915 0
-932 -928 -930 0
-109 931 933 0
-108 931 933 0
-108 -109 933 0
-933 930 0
-107 929 936 0
-935 929 936 0
-935 -107 936 0
-936 928 0
-934 928 0
-936 -934 0
-106 935 937 0
-105 935 937 0
-105 -106 937 0
-937 934 0
-943 822 944 0
-940 822 944 0
-940 -943 944 0
-944 820 0
-941 820 0
-944 -941 821 0
-942 821 0
-944 -942 0
-938 820 0
-944 -938 821 0
-939 821 0
-944 -939 0
-938 -941 821 0
-944 -938 -941 0
-938 -942 0
-944 -938 -942 0
-939 -941 0
-944 -939 -941 0
-939 -942 0
-944 -939 -942 0
-950 943 951 0
-947 943 951 0
-947 -950 951 0
-951 941 0
-948 941 0
-951 -948 942 0
-949 942 0
-951 -949 0
-945 941 0
-951 -945 942 0
-946 942 0
-951 -946 0
-945 -948 942 0
-951 -945 -948 0
-945 -949 0
-951 -945 -949 0
-946 -948 0
-951 -946 -948 0
-946 -949 0
-951 -946 -949 0
-957 950 958 0
-954 950 958 0
-954 -957 958 0
-958 948 0
-955 948 0
-958 -955 949 0
-956 949 0
-958 -956 0
-952 948 0
-958 -952 949 0
-953 949 0
-958 -953 0
-952 -955 949 0
-958 -952 -955 0
-952 -956 0
-958 -952 -956 0
-953 -955 0
-958 -953 -955 0
-953 -956 0
-958 -953 -956 0
-962 957 963 0
-960 957 963 0
-960 -962 963 0
-963 955 0
-961 955 0
-963 -961 956 0
-959 955 0
-963 -959 956 0
-959 -961 956 0
-963 -959 -961 0
-104 962 964 0
-103 962 964 0
-103 -104 964 0
-964 961 0
-102 960 965 0
-101 960 965 0
-101 -102 965 0
-965 959 0
-969 954 970 0
-967 954 970 0
-967 -969 970 0
-970 952 0
-968 952 0
-970 -968 953 0
-966 952 0
-970 -966 953 0
-966 -968 953 0
-970 -966 -968 0
-100 969 971 0
-99 969 971 0
-99 -100 971 0
-971 968 0
-98 967 972 0
-97 967 972 0
-97 -98 972 0
-972 966 0
-978 947 979 0
-975 947 979 0
-975 -978 979 0
-979 945 0
-976 945 0
-979 -976 946 0
-977 946 0
-979 -977 0
-973 945 0
-979 -973 946 0
-974 946 0
-979 -974 0
-973 -976 946 0
-979 -973 -976 0
-973 -977 0
-979 -973 -977 0
-974 -976 0
-979 -974 -976 0
-974 -977 0
-979 -974 -977 0
-983 978 984 0
-981 978 984 0
-981 -983 984 0
-984 976 0
-982 976 0
-984 -982 977 0
-980 976 0
-984 -980 977 0
-980 -982 977 0
-984 -980 -982 0
-96 983 985 0
-95 983 985 0
-95 -96 985 0
-985 982 0
-94 981 986 0
-93 981 986 0
-93 -94 986 0
-986 980 0
-990 975 991 0
-988 975 991 0
-988 -990 991 0
-991 973 0
-989 973 0
-991 -989 974 0
-987 973 0
-991 -987 974 0
-987 -989 974 0
-991 -987 -989 0
-92 990 992 0
-91 990 992 0
-91 -92 992 0
-992 989 0
-90 988 995 0
-994 988 995 0
-994 -90 995 0
-995 987 0
-993 987 0
-995 -993 0
-89 994 996 0
-88 994 996 0
-88 -89 996 0
-996 993 0
-1002 940 1003 0
-999 940 1003 0
-999 -1002 1003 0
-1003 938 0
-1000 938 0
-1003 -1000 939 0
-1001 939 0
-1003 -1001 0
-997 938 0
-1003 -997 939 0
-998 939 0
-1003 -998 0
-997 -1000 939 0
-1003 -997 -1000 0
-997 -1001 0
-1003 -997 -1001 0
-998 -1000 0
-1003 -998 -1000 0
-998 -1001 0
-1003 -998 -1001 0
-1009 1002 1010 0
-1006 1002 1010 0
-1006 -1009 1010 0
-1010 1000 0
-1007 1000 0
-1010 -1007 1001 0
-1008 1001 0
-1010 -1008 0
-1004 1000 0
-1010 -1004 1001 0
-1005 1001 0
-1010 -1005 0
-1004 -1007 1001 0
-1010 -1004 -1007 0
-1004 -1008 0
-1010 -1004 -1008 0
-1005 -1007 0
-1010 -1005 -1007 0
-1005 -1008 0
-1010 -1005 -1008 0
-1014 1009 1015 0
-1012 1009 1015 0
-1012 -1014 1015 0
-1015 1007 0
-1013 1007 0
-1015 -1013 1008 0
-1011 1007 0
-1015 -1011 1008 0
-1011 -1013 1008 0
-1015 -1011 -1013 0
-87 1014 1016 0
-86 1014 1016 0
-86 -87 1016 0
-1016 1013 0
-85 1012 1017 0
-84 1012 1017 0
-84 -85 1017 0
-1017 1011 0
-1021 1006 1022 0
-1019 1006 1022 0
-1019 -1021 1022 0
-1022 1004 0
-1020 1004 0
-1022 -1020 1005 0
-1018 1004 0
-1022 -1018 1005 0
-1018 -1020 1005 0
-1022 -1018 -1020 0
-83 1021 1023 0
-82 1021 1023 0
-82 -83 1023 0
-1023 1020 0
-81 1019 1026 0
-1025 1019 1026 0
-1025 -81 1026 0
-1026 1018 0
-1024 1018 0
-1026 -1024 0
-80 1025 1027 0
-79 1025 1027 0
-79 -80 1027 0
-1027 1024 0
-1033 999 1034 0
-1030 999 1034 0
-1030 -1033 1034 0
-1034 997 0
-1031 997 0
-1034 -1031 998 0
-1032 998 0
-1034 -1032 0
-1028 997 0
-1034 -1028 998 0
-1029 998 0
-1034 -1029 0
-1028 -1031 998 0
-1034 -1028 -1031 0
-1028 -1032 0
-1034 -1028 -1032 0
-1029 -1031 0
-1034 -1029 -1031 0
-1029 -1032 0
-1034 -1029 -1032 0
-1038 1033 1039 0
-1036 1033 1039 0
-1036 -1038 1039 0
-1039 1031 0
-1037 1031 0
-1039 -1037 1032 0
-1035 1031 0
-1039 -1035 1032 0
-1035 -1037 1032 0
-1039 -1035 -1037 0
-78 1038 1040 0
-77 1038 1040 0
-77 -78 1040 0
-1040 1037 0
-76 1036 1041 0
-75 1036 1041 0
-75 -76 1041 0
-1041 1035 0
-1045 1030 1046 0
-1043 1030 1046 0
-1043 -1045 1046 0
-1046 1028 0
-1044 1028 0
-1046 -1044 1029 0
-1042 1028 0
-1046 -1042 1029 0
-1042 -1044 1029 0
-1046 -1042 -1044 0
-74 1045 1047 0
-73 1045 1047 0
-73 -74 1047 0
-1047 1044 0
-72 1043 1050 0
-1049 1043 1050 0
-1049 -72 1050 0
-1050 1042 0
-1048 1042 0
-1050 -1048 0
-71 1049 1051 0
-70 1049 1051 0
-70 -71 1051 0
-1051 1048 0
-1057 815 1058 0
-1054 815 1058 0
-1054 -1057 1058 0
-1058 813 0
-1055 813 0
-1058 -1055 814 0
-1056 814 0
-1058 -1056 0
-1052 813 0
-1058 -1052 814 0
-1053 814 0
-1058 -1053 0
-1052 -1055 814 0
-1058 -1052 -1055 0
-1052 -1056 0
-1058 -1052 -1056 0
-1053 -1055 0
-1058 -1053 -1055 0
-1053 -1056 0
-1058 -1053 -1056 0
-1064 1057 1065 0
-1061 1057 1065 0
-1061 -1064 1065 0
-1065 1055 0
-1062 1055 0
-1065 -1062 1056 0
-1063 1056 0
-1065 -1063 0
-1059 1055 0
-1065 -1059 1056 0
-1060 1056 0
-1065 -1060 0
-1059 -1062 1056 0
-1065 -1059 -1062 0
-1059 -1063 0
-1065 -1059 -1063 0
-1060 -1062 0
-1065 -1060 -1062 0
-1060 -1063 0
-1065 -1060 -1063 0
-1071 1064 1072 0
-1068 1064 1072 0
-1068 -1071 1072 0
-1072 1062 0
-1069 1062 0
-1072 -1069 1063 0
-1070 1063 0
-1072 -1070 0
-1066 1062 0
-1072 -1066 1063 0
-1067 1063 0
-1072 -1067 0
-1066 -1069 1063 0
-1072 -1066 -1069 0
-1066 -1070 0
-1072 -1066 -1070 0
-1067 -1069 0
-1072 -1067 -1069 0
-1067 -1070 0
-1072 -1067 -1070 0
-1078 1071 1079 0
-1075 1071 1079 0
-1075 -1078 1079 0
-1079 1069 0
-1076 1069 0
-1079 -1076 1070 0
-1077 1070 0
-1079 -1077 0
-1073 1069 0
-1079 -1073 1070 0
-1074 1070 0
-1079 -1074 0
-1073 -1076 1070 0
-1079 -1073 -1076 0
-1073 -1077 0
-1079 -1073 -1077 0
-1074 -1076 0
-1079 -1074 -1076 0
-1074 -1077 0
-1079 -1074 -1077 0
-1083 1078 1084 0
-1081 1078 1084 0
-1081 -1083 1084 0
-1084 1076 0
-1082 1076 0
-1084 -1082 1077 0
-1080 1076 0
-1084 -1080 1077 0
-1080 -1082 1077 0
-1084 -1080 -1082 0
-69 1083 1085 0
-68 1083 1085 0
-68 -69 1085 0
-1085 1082 0
-67 1081 1086 0
-66 1081 1086 0
-66 -67 1086 0
-1086 1080 0
-1090 1075 1091 0
-1088 1075 1091 0
-1088 -1090 1091 0
-1091 1073 0
-1089 1073 0
-1091 -1089 1074 0
-1087 1073 0
-1091 -1087 1074 0
-1087 -1089 1074 0
-1091 -1087 -1089 0
-65 1090 1092 0
-64 1090 1092 0
-64 -65 1092 0
-1092 1089 0
-63 1088 1093 0
-62 1088 1093 0
-62 -63 1093 0
-1093 1087 0
-1099 1068 1100 0
-1096 1068 1100 0
-1096 -1099 1100 0
-1100 1066 0
-1097 1066 0
-1100 -1097 1067 0
-1098 1067 0
-1100 -1098 0
-1094 1066 0
-1100 -1094 1067 0
-1095 1067 0
-1100 -1095 0
-1094 -1097 1067 0
-1100 -1094 -1097 0
-1094 -1098 0
-1100 -1094 -1098 0
-1095 -1097 0
-1100 -1095 -1097 0
-1095 -1098 0
-1100 -1095 -1098 0
-1104 1099 1105 0
-1102 1099 1105 0
-1102 -1104 1105 0
-1105 1097 0
-1103 1097 0
-1105 -1103 1098 0
-1101 1097 0
-1105 -1101 1098 0
-1101 -1103 1098 0
-1105 -1101 -1103 0
-61 1104 1106 0
-60 1104 1106 0
-60 -61 1106 0
-1106 1103 0
-59 1102 1107 0
-58 1102 1107 0
-58 -59 1107 0
-1107 1101 0
-1111 1096 1112 0
-1109 1096 1112 0
-1109 -1111 1112 0
-1112 1094 0
-1110 1094 0
-1112 -1110 1095 0
-1108 1094 0
-1112 -1108 1095 0
-1108 -1110 1095 0
-1112 -1108 -1110 0
-57 1111 1113 0
-56 1111 1113 0
-56 -57 1113 0
-1113 1110 0
-55 1109 1116 0
-1115 1109 1116 0
-1115 -55 1116 0
-1116 1108 0
-1114 1108 0
-1116 -1114 0
-54 1115 1117 0
-53 1115 1117 0
-53 -54 1117 0
-1117 1114 0
-1123 1061 1124 0
-1120 1061 1124 0
-1120 -1123 1124 0
-1124 1059 0
-1121 1059 0
-1124 -1121 1060 0
-1122 1060 0
-1124 -1122 0
-1118 1059 0
-1124 -1118 1060 0
-1119 1060 0
-1124 -1119 0
-1118 -1121 1060 0
-1124 -1118 -1121 0
-1118 -1122 0
-1124 -1118 -1122 0
-1119 -1121 0
-1124 -1119 -1121 0
-1119 -1122 0
-1124 -1119 -1122 0
-1130 1123 1131 0
-1127 1123 1131 0
-1127 -1130 1131 0
-1131 1121 0
-1128 1121 0
-1131 -1128 1122 0
-1129 1122 0
-1131 -1129 0
-1125 1121 0
-1131 -1125 1122 0
-1126 1122 0
-1131 -1126 0
-1125 -1128 1122 0
-1131 -1125 -1128 0
-1125 -1129 0
-1131 -1125 -1129 0
-1126 -1128 0
-1131 -1126 -1128 0
-1126 -1129 0
-1131 -1126 -1129 0
-1135 1130 1136 0
-1133 1130 1136 0
-1133 -1135 1136 0
-1136 1128 0
-1134 1128 0
-1136 -1134 1129 0
-1132 1128 0
-1136 -1132 1129 0
-1132 -1134 1129 0
-1136 -1132 -1134 0
-52 1135 1137 0
-51 1135 1137 0
-51 -52 1137 0
-1137 1134 0
-50 1133 1138 0
-49 1133 1138 0
-49 -50 1138 0
-1138 1132 0
-1142 1127 1143 0
-1140 1127 1143 0
-1140 -1142 1143 0
-1143 1125 0
-1141 1125 0
-1143 -1141 1126 0
-1139 1125 0
-1143 -1139 1126 0
-1139 -1141 1126 0
-1143 -1139 -1141 0
-48 1142 1144 0
-47 1142 1144 0
-47 -48 1144 0
-1144 1141 0
-46 1140 1145 0
-45 1140 1145 0
-45 -46 1145 0
-1145 1139 0
-1151 1120 1152 0
-1148 1120 1152 0
-1148 -1151 1152 0
-1152 1118 0
-1149 1118 0
-1152 -1149 1119 0
-1150 1119 0
-1152 -1150 0
-1146 1118 0
-1152 -1146 1119 0
-1147 1119 0
-1152 -1147 0
-1146 -1149 1119 0
-1152 -1146 -1149 0
-1146 -1150 0
-1152 -1146 -1150 0
-1147 -1149 0
-1152 -1147 -1149 0
-1147 -1150 0
-1152 -1147 -1150 0
-1156 1151 1157 0
-1154 1151 1157 0
-1154 -1156 1157 0
-1157 1149 0
-1155 1149 0
-1157 -1155 1150 0
-1153 1149 0
-1157 -1153 1150 0
-1153 -1155 1150 0
-1157 -1153 -1155 0
-44 1156 1158 0
-43 1156 1158 0
-43 -44 1158 0
-1158 1155 0
-42 1154 1159 0
-41 1154 1159 0
-41 -42 1159 0
-1159 1153 0
-1163 1148 1164 0
-1161 1148 1164 0
-1161 -1163 1164 0
-1164 1146 0
-1162 1146 0
-1164 -1162 1147 0
-1160 1146 0
-1164 -1160 1147 0
-1160 -1162 1147 0
-1164 -1160 -1162 0
-40 1163 1165 0
-39 1163 1165 0
-39 -40 1165 0
-1165 1162 0
-38 1161 1168 0
-1167 1161 1168 0
-1167 -38 1168 0
-1168 1160 0
-1166 1160 0
-1168 -1166 0
-37 1167 1169 0
-36 1167 1169 0
-36 -37 1169 0
-1169 1166 0
-1175 1054 1176 0
-1172 1054 1176 0
-1172 -1175 1176 0
-1176 1052 0
-1173 1052 0
-1176 -1173 1053 0
-1174 1053 0
-1176 -1174 0
-1170 1052 0
-1176 -1170 1053 0
-1171 1053 0
-1176 -1171 0
-1170 -1173 1053 0
-1176 -1170 -1173 0
-1170 -1174 0
-1176 -1170 -1174 0
-1171 -1173 0
-1176 -1171 -1173 0
-1171 -1174 0
-1176 -1171 -1174 0
-1182 1175 1183 0
-1179 1175 1183 0
-1179 -1182 1183 0
-1183 1173 0
-1180 1173 0
-1183 -1180 1174 0
-1181 1174 0
-1183 -1181 0
-1177 1173 0
-1183 -1177 1174 0
-1178 1174 0
-1183 -1178 0
-1177 -1180 1174 0
-1183 -1177 -1180 0
-1177 -1181 0
-1183 -1177 -1181 0
-1178 -1180 0
-1183 -1178 -1180 0
-1178 -1181 0
-1183 -1178 -1181 0
-1189 1182 1190 0
-1186 1182 1190 0
-1186 -1189 1190 0
-1190 1180 0
-1187 1180 0
-1190 -1187 1181 0
-1188 1181 0
-1190 -1188 0
-1184 1180 0
-1190 -1184 1181 0
-1185 1181 0
-1190 -1185 0
-1184 -1187 1181 0
-1190 -1184 -1187 0
-1184 -1188 0
-1190 -1184 -1188 0
-1185 -1187 0
-1190 -1185 -1187 0
-1185 -1188 0
-1190 -1185 -1188 0
-1194 1189 1195 0
-1192 1189 1195 0
-1192 -1194 1195 0
-1195 1187 0
-1193 1187 0
-1195 -1193 1188 0
-1191 1187 0
-1195 -1191 1188 0
-1191 -1193 1188 0
-1195 -1191 -1193 0
-35 1194 1196 0
-34 1194 1196 0
-34 -35 1196 0
-1196 1193 0
-33 1192 1197 0
-32 1192 1197 0
-32 -33 1197 0
-1197 1191 0
-1201 1186 1202 0
-1199 1186 1202 0
-1199 -1201 1202 0
-1202 1184 0
-1200 1184 0
-1202 -1200 1185 0
-1198 1184 0
-1202 -1198 1185 0
-1198 -1200 1185 0
-1202 -1198 -1200 0
-31 1201 1203 0
-30 1201 1203 0
-30 -31 1203 0
-1203 1200 0
-29 1199 1204 0
-28 1199 1204 0
-28 -29 1204 0
-1204 1198 0
-1210 1179 1211 0
-1207 1179 1211 0
-1207 -1210 1211 0
-1211 1177 0
-1208 1177 0
-1211 -1208 1178 0
-1209 1178 0
-1211 -1209 0
-1205 1177 0
-1211 -1205 1178 0
-1206 1178 0
-1211 -1206 0
-1205 -1208 1178 0
-1211 -1205 -1208 0
-1205 -1209 0
-1211 -1205 -1209 0
-1206 -1208 0
-1211 -1206 -1208 0
-1206 -1209 0
-1211 -1206 -1209 0
-1215 1210 1216 0
-1213 1210 1216 0
-1213 -1215 1216 0
-1216 1208 0
-1214 1208 0
-1216 -1214 1209 0
-1212 1208 0
-1216 -1212 1209 0
-1212 -1214 1209 0
-1216 -1212 -1214 0
-27 1215 1217 0
-26 1215 1217 0
-26 -27 1217 0
-1217 1214 0
-25 1213 1218 0
-24 1213 1218 0
-24 -25 1218 0
-1218 1212 0
-1222 1207 1223 0
-1220 1207 1223 0
-1220 -1222 1223 0
-1223 1205 0
-1221 1205 0
-1223 -1221 1206 0
-1219 1205 0
-1223 -1219 1206 0
-1219 -1221 1206 0
-1223 -1219 -1221 0
-23 1222 1224 0
-22 1222 1224 0
-22 -23 1224 0
-1224 1221 0
-21 1220 1227 0
-1226 1220 1227 0
-1226 -21 1227 0
-1227 1219 0
-1225 1219 0
-1227 -1225 0
-20 1226 1228 0
-19 1226 1228 0
-19 -20 1228 0
-1228 1225 0
-1234 1172 1235 0
-1231 1172 1235 0
-1231 -1234 1235 0
-1235 1170 0
-1232 1170 0
-1235 -1232 1171 0
-1233 1171 0
-1235 -1233 0
-1229 1170 0
-1235 -1229 1171 0
-1230 1171 0
-1235 -1230 0
-1229 -1232 1171 0
-1235 -1229 -1232 0
-1229 -1233 0
-1235 -1229 -1233 0
-1230 -1232 0
-1235 -1230 -1232 0
-1230 -1233 0
-1235 -1230 -1233 0
-1241 1234 1242 0
-1238 1234 1242 0
-1238 -1241 1242 0
-1242 1232 0
-1239 1232 0
-1242 -1239 1233 0
-1240 1233 0
-1242 -1240 0
-1236 1232 0
-1242 -1236 1233 0
-1237 1233 0
-1242 -1237 0
-1236 -1239 1233 0
-1242 -1236 -1239 0
-1236 -1240 0
-1242 -1236 -1240 0
-1237 -1239 0
-1242 -1237 -1239 0
-1237 -1240 0
-1242 -1237 -1240 0
-1246 1241 1247 0
-1244 1241 1247 0
-1244 -1246 1247 0
-1247 1239 0
-1245 1239 0
-1247 -1245 1240 0
-1243 1239 0
-1247 -1243 1240 0
-1243 -1245 1240 0
-1247 -1243 -1245 0
-18 1246 1248 0
-17 1246 1248 0
-17 -18 1248 0
-1248 1245 0
-16 1244 1249 0
-15 1244 1249 0
-15 -16 1249 0
-1249 1243 0
-1253 1238 1254 0
-1251 1238 1254 0
-1251 -1253 1254 0
-1254 1236 0
-1252 1236 0
-1254 -1252 1237 0
-1250 1236 0
-1254 -1250 1237 0
-1250 -1252 1237 0
-1254 -1250 -1252 0
-14 1253 1255 0
-13 1253 1255 0
-13 -14 1255 0
-1255 1252 0
-12 1251 1258 0
-1257 1251 1258 0
-1257 -12 1258 0
-1258 1250 0
-1256 1250 0
-1258 -1256 0
-11 1257 1259 0
-10 1257 1259 0
-10 -11 1259 0
-1259 1256 0
-1265 1231 1266 0
-1262 1231 1266 0
-1262 -1265 1266 0
-1266 1229 0
-1263 1229 0
-1266 -1263 1230 0
-1264 1230 0
-1266 -1264 0
-1260 1229 0
-1266 -1260 1230 0
-1261 1230 0
-1266 -1261 0
-1260 -1263 1230 0
-1266 -1260 -1263 0
-1260 -1264 0
-1266 -1260 -1264 0
-1261 -1263 0
-1266 -1261 -1263 0
-1261 -1264 0
-1266 -1261 -1264 0
-1270 1265 1271 0
-1268 1265 1271 0
-1268 -1270 1271 0
-1271 1263 0
-1269 1263 0
-1271 -1269 1264 0
-1267 1263 0
-1271 -1267 1264 0
-1267 -1269 1264 0
-1271 -1267 -1269 0
-9 1270 1272 0
-8 1270 1272 0
-8 -9 1272 0
-1272 1269 0
-7 1268 1273 0
-6 1268 1273 0
-6 -7 1273 0
-1273 1267 0
-1277 1262 1278 0
-1275 1262 1278 0
-1275 -1277 1278 0
-1278 1260 0
-1276 1260 0
-1278 -1276 1261 0
-1274 1260 0
-1278 -1274 1261 0
-1274 -1276 1261 0
-1278 -1274 -1276 0
-5 1277 1279 0
-4 1277 1279 0
-4 -5 1279 0
-1279 1276 0
-3 1275 1282 0
-1281 1275 1282 0
-1281 -3 1282 0
-1282 1274 0
-1280 1274 0
-1282 -1280 0
-2 1281 1283 0
-1 1281 1283 0
-1 -2 1283 0
-1283 1280 0
