p cnf 4260 13714
1 204 -421 0
-1 -204 -421 0
1 -204 421 0
-1 204 421 0
421 205 -422 0
-421 -205 -422 0
421 -205 422 0
-421 205 422 0
422 210 -423 0
-422 -210 -423 0
422 -210 423 0
-422 210 423 0
423 211 -424 0
-423 -211 -424 0
423 -211 424 0
-423 211 424 0
424 391 -425 0
-424 -391 -425 0
424 -391 425 0
-424 391 425 0
425 403 -426 0
-425 -403 -426 0
425 -403 426 0
-425 403 426 0
426 409 -427 0
-426 -409 -427 0
426 -409 427 0
-426 409 427 0
-427 0
1 2 -428 0
-1 -2 -428 0
1 -2 428 0
-1 2 428 0
428 205 -429 0
-428 -205 -429 0
428 -205 429 0
-428 205 429 0
429 206 -430 0
-429 -206 -430 0
429 -206 430 0
-429 206 430 0
430 212 -431 0
-430 -212 -431 0
430 -212 431 0
-430 212 431 0
431 392 -432 0
-431 -392 -432 0
431 -392 432 0
-431 392 432 0
432 404 -433 0
-432 -404 -433 0
432 -404 433 0
-432 404 433 0
433 410 -434 0
-433 -410 -434 0
433 -410 434 0
-433 410 434 0
-434 0
2 3 -435 0
-2 -3 -435 0
2 -3 435 0
-2 3 435 0
435 206 -436 0
-435 -206 -436 0
435 -206 436 0
-435 206 436 0
436 207 -437 0
-436 -207 -437 0
436 -207 437 0
-436 207 437 0
437 213 -438 0
-437 -213 -438 0
437 -213 438 0
-437 213 438 0
438 393 -439 0
-438 -393 -439 0
438 -393 439 0
-438 393 439 0
439 405 -440 0
-439 -405 -440 0
439 -405 440 0
-439 405 440 0
440 411 -441 0
-440 -411 -441 0
440 -411 441 0
-440 411 441 0
-441 0
3 4 -442 0
-3 -4 -442 0
3 -4 442 0
-3 4 442 0
442 207 -443 0
-442 -207 -443 0
442 -207 443 0
-442 207 443 0
443 208 -444 0
-443 -208 -444 0
443 -208 444 0
-443 208 444 0
444 214 -445 0
-444 -214 -445 0
444 -214 445 0
-444 214 445 0
445 394 -446 0
-445 -394 -446 0
445 -394 446 0
-445 394 446 0
446 406 -447 0
-446 -406 -447 0
446 -406 447 0
-446 406 447 0
447 412 -448 0
-447 -412 -448 0
447 -412 448 0
-447 412 448 0
-448 0
4 5 -449 0
-4 -5 -449 0
4 -5 449 0
-4 5 449 0
449 208 -450 0
-449 -208 -450 0
449 -208 450 0
-449 208 450 0
450 209 -451 0
-450 -209 -451 0
450 -209 451 0
-450 209 451 0
451 215 -452 0
-451 -215 -452 0
451 -215 452 0
-451 215 452 0
452 395 -453 0
-452 -395 -453 0
452 -395 453 0
-452 395 453 0
453 407 -454 0
-453 -407 -454 0
453 -407 454 0
-453 407 454 0
454 413 -455 0
-454 -413 -455 0
454 -413 455 0
-454 413 455 0
-455 0
5 6 -456 0
-5 -6 -456 0
5 -6 456 0
-5 6 456 0
456 209 -457 0
-456 -209 -457 0
456 -209 457 0
-456 209 457 0
457 210 -458 0
-457 -210 -458 0
457 -210 458 0
-457 210 458 0
458 216 -459 0
-458 -216 -459 0
458 -216 459 0
-458 216 459 0
459 396 -460 0
-459 -396 -460 0
459 -396 460 0
-459 396 460 0
460 408 -461 0
-460 -408 -461 0
460 -408 461 0
-460 408 461 0
461 414 -462 0
-461 -414 -462 0
461 -414 462 0
-461 414 462 0
-462 0
1 6 -463 0
-1 -6 -463 0
1 -6 463 0
-1 6 463 0
463 7 -464 0
-463 -7 -464 0
463 -7 464 0
-463 7 464 0
464 210 -465 0
-464 -210 -465 0
464 -210 465 0
-464 210 465 0
465 217 -466 0
-465 -217 -466 0
465 -217 466 0
-465 217 466 0
466 397 -467 0
-466 -397 -467 0
466 -397 467 0
-466 397 467 0
467 409 -468 0
-467 -409 -468 0
467 -409 468 0
-467 409 468 0
468 415 -469 0
-468 -415 -469 0
468 -415 469 0
-468 415 469 0
-469 0
1 2 -470 0
-1 -2 -470 0
1 -2 470 0
-1 2 470 0
470 7 -471 0
-470 -7 -471 0
470 -7 471 0
-470 7 471 0
471 8 -472 0
-471 -8 -472 0
471 -8 472 0
-471 8 472 0
472 218 -473 0
-472 -218 -473 0
472 -218 473 0
-472 218 473 0
473 398 -474 0
-473 -398 -474 0
473 -398 474 0
-473 398 474 0
474 410 -475 0
-474 -410 -475 0
474 -410 475 0
-474 410 475 0
475 416 -476 0
-475 -416 -476 0
475 -416 476 0
-475 416 476 0
-476 0
2 3 -477 0
-2 -3 -477 0
2 -3 477 0
-2 3 477 0
477 8 -478 0
-477 -8 -478 0
477 -8 478 0
-477 8 478 0
478 9 -479 0
-478 -9 -479 0
478 -9 479 0
-478 9 479 0
479 219 -480 0
-479 -219 -480 0
479 -219 480 0
-479 219 480 0
480 399 -481 0
-480 -399 -481 0
480 -399 481 0
-480 399 481 0
481 411 -482 0
-481 -411 -482 0
481 -411 482 0
-481 411 482 0
482 417 -483 0
-482 -417 -483 0
482 -417 483 0
-482 417 483 0
-483 0
3 4 -484 0
-3 -4 -484 0
3 -4 484 0
-3 4 484 0
484 9 -485 0
-484 -9 -485 0
484 -9 485 0
-484 9 485 0
485 10 -486 0
-485 -10 -486 0
485 -10 486 0
-485 10 486 0
486 220 -487 0
-486 -220 -487 0
486 -220 487 0
-486 220 487 0
487 400 -488 0
-487 -400 -488 0
487 -400 488 0
-487 400 488 0
488 412 -489 0
-488 -412 -489 0
488 -412 489 0
-488 412 489 0
489 418 -490 0
-489 -418 -490 0
489 -418 490 0
-489 418 490 0
-490 0
4 5 -491 0
-4 -5 -491 0
4 -5 491 0
-4 5 491 0
491 10 -492 0
-491 -10 -492 0
491 -10 492 0
-491 10 492 0
492 11 -493 0
-492 -11 -493 0
492 -11 493 0
-492 11 493 0
493 221 -494 0
-493 -221 -494 0
493 -221 494 0
-493 221 494 0
494 401 -495 0
-494 -401 -495 0
494 -401 495 0
-494 401 495 0
495 413 -496 0
-495 -413 -496 0
495 -413 496 0
-495 413 496 0
496 419 -497 0
-496 -419 -497 0
496 -419 497 0
-496 419 497 0
-497 0
5 6 -498 0
-5 -6 -498 0
5 -6 498 0
-5 6 498 0
498 11 -499 0
-498 -11 -499 0
498 -11 499 0
-498 11 499 0
499 12 -500 0
-499 -12 -500 0
499 -12 500 0
-499 12 500 0
500 222 -501 0
-500 -222 -501 0
500 -222 501 0
-500 222 501 0
501 402 -502 0
-501 -402 -502 0
501 -402 502 0
-501 402 502 0
502 414 -503 0
-502 -414 -503 0
502 -414 503 0
-502 414 503 0
503 420 -504 0
-503 -420 -504 0
503 -420 504 0
-503 420 504 0
-504 0
6 7 -505 0
-6 -7 -505 0
6 -7 505 0
-6 7 505 0
505 12 -506 0
-505 -12 -506 0
505 -12 506 0
-505 12 506 0
506 13 -507 0
-506 -13 -507 0
506 -13 507 0
-506 13 507 0
507 211 -508 0
-507 -211 -508 0
507 -211 508 0
-507 211 508 0
508 223 -509 0
-508 -223 -509 0
508 -223 509 0
-508 223 509 0
509 403 -510 0
-509 -403 -510 0
509 -403 510 0
-509 403 510 0
510 415 -511 0
-510 -415 -511 0
510 -415 511 0
-510 415 511 0
-511 0
7 8 -512 0
-7 -8 -512 0
7 -8 512 0
-7 8 512 0
512 13 -513 0
-512 -13 -513 0
512 -13 513 0
-512 13 513 0
513 14 -514 0
-513 -14 -514 0
513 -14 514 0
-513 14 514 0
514 212 -515 0
-514 -212 -515 0
514 -212 515 0
-514 212 515 0
515 224 -516 0
-515 -224 -516 0
515 -224 516 0
-515 224 516 0
516 404 -517 0
-516 -404 -517 0
516 -404 517 0
-516 404 517 0
517 416 -518 0
-517 -416 -518 0
517 -416 518 0
-517 416 518 0
-518 0
8 9 -519 0
-8 -9 -519 0
8 -9 519 0
-8 9 519 0
519 14 -520 0
-519 -14 -520 0
519 -14 520 0
-519 14 520 0
520 15 -521 0
-520 -15 -521 0
520 -15 521 0
-520 15 521 0
521 213 -522 0
-521 -213 -522 0
521 -213 522 0
-521 213 522 0
522 225 -523 0
-522 -225 -523 0
522 -225 523 0
-522 225 523 0
523 405 -524 0
-523 -405 -524 0
523 -405 524 0
-523 405 524 0
524 417 -525 0
-524 -417 -525 0
524 -417 525 0
-524 417 525 0
-525 0
9 10 -526 0
-9 -10 -526 0
9 -10 526 0
-9 10 526 0
526 15 -527 0
-526 -15 -527 0
526 -15 527 0
-526 15 527 0
527 16 -528 0
-527 -16 -528 0
527 -16 528 0
-527 16 528 0
528 214 -529 0
-528 -214 -529 0
528 -214 529 0
-528 214 529 0
529 226 -530 0
-529 -226 -530 0
529 -226 530 0
-529 226 530 0
530 406 -531 0
-530 -406 -531 0
530 -406 531 0
-530 406 531 0
531 418 -532 0
-531 -418 -532 0
531 -418 532 0
-531 418 532 0
-532 0
10 11 -533 0
-10 -11 -533 0
10 -11 533 0
-10 11 533 0
533 16 -534 0
-533 -16 -534 0
533 -16 534 0
-533 16 534 0
534 17 -535 0
-534 -17 -535 0
534 -17 535 0
-534 17 535 0
535 215 -536 0
-535 -215 -536 0
535 -215 536 0
-535 215 536 0
536 227 -537 0
-536 -227 -537 0
536 -227 537 0
-536 227 537 0
537 407 -538 0
-537 -407 -538 0
537 -407 538 0
-537 407 538 0
538 419 -539 0
-538 -419 -539 0
538 -419 539 0
-538 419 539 0
-539 0
11 12 -540 0
-11 -12 -540 0
11 -12 540 0
-11 12 540 0
540 17 -541 0
-540 -17 -541 0
540 -17 541 0
-540 17 541 0
541 18 -542 0
-541 -18 -542 0
541 -18 542 0
-541 18 542 0
542 216 -543 0
-542 -216 -543 0
542 -216 543 0
-542 216 543 0
543 228 -544 0
-543 -228 -544 0
543 -228 544 0
-543 228 544 0
544 408 -545 0
-544 -408 -545 0
544 -408 545 0
-544 408 545 0
545 420 -546 0
-545 -420 -546 0
545 -420 546 0
-545 420 546 0
-546 0
12 13 -547 0
-12 -13 -547 0
12 -13 547 0
-12 13 547 0
547 18 -548 0
-547 -18 -548 0
547 -18 548 0
-547 18 548 0
548 19 -549 0
-548 -19 -549 0
548 -19 549 0
-548 19 549 0
549 211 -550 0
-549 -211 -550 0
549 -211 550 0
-549 211 550 0
550 217 -551 0
-550 -217 -551 0
550 -217 551 0
-550 217 551 0
551 229 -552 0
-551 -229 -552 0
551 -229 552 0
-551 229 552 0
552 409 -553 0
-552 -409 -553 0
552 -409 553 0
-552 409 553 0
-553 0
13 14 -554 0
-13 -14 -554 0
13 -14 554 0
-13 14 554 0
554 19 -555 0
-554 -19 -555 0
554 -19 555 0
-554 19 555 0
555 20 -556 0
-555 -20 -556 0
555 -20 556 0
-555 20 556 0
556 212 -557 0
-556 -212 -557 0
556 -212 557 0
-556 212 557 0
557 218 -558 0
-557 -218 -558 0
557 -218 558 0
-557 218 558 0
558 230 -559 0
-558 -230 -559 0
558 -230 559 0
-558 230 559 0
559 410 -560 0
-559 -410 -560 0
559 -410 560 0
-559 410 560 0
-560 0
14 15 -561 0
-14 -15 -561 0
14 -15 561 0
-14 15 561 0
561 20 -562 0
-561 -20 -562 0
561 -20 562 0
-561 20 562 0
562 21 -563 0
-562 -21 -563 0
562 -21 563 0
-562 21 563 0
563 213 -564 0
-563 -213 -564 0
563 -213 564 0
-563 213 564 0
564 219 -565 0
-564 -219 -565 0
564 -219 565 0
-564 219 565 0
565 231 -566 0
-565 -231 -566 0
565 -231 566 0
-565 231 566 0
566 411 -567 0
-566 -411 -567 0
566 -411 567 0
-566 411 567 0
-567 0
15 16 -568 0
-15 -16 -568 0
15 -16 568 0
-15 16 568 0
568 21 -569 0
-568 -21 -569 0
568 -21 569 0
-568 21 569 0
569 22 -570 0
-569 -22 -570 0
569 -22 570 0
-569 22 570 0
570 214 -571 0
-570 -214 -571 0
570 -214 571 0
-570 214 571 0
571 220 -572 0
-571 -220 -572 0
571 -220 572 0
-571 220 572 0
572 232 -573 0
-572 -232 -573 0
572 -232 573 0
-572 232 573 0
573 412 -574 0
-573 -412 -574 0
573 -412 574 0
-573 412 574 0
-574 0
16 17 -575 0
-16 -17 -575 0
16 -17 575 0
-16 17 575 0
575 22 -576 0
-575 -22 -576 0
575 -22 576 0
-575 22 576 0
576 23 -577 0
-576 -23 -577 0
576 -23 577 0
-576 23 577 0
577 215 -578 0
-577 -215 -578 0
577 -215 578 0
-577 215 578 0
578 221 -579 0
-578 -221 -579 0
578 -221 579 0
-578 221 579 0
579 233 -580 0
-579 -233 -580 0
579 -233 580 0
-579 233 580 0
580 413 -581 0
-580 -413 -581 0
580 -413 581 0
-580 413 581 0
-581 0
17 18 -582 0
-17 -18 -582 0
17 -18 582 0
-17 18 582 0
582 23 -583 0
-582 -23 -583 0
582 -23 583 0
-582 23 583 0
583 24 -584 0
-583 -24 -584 0
583 -24 584 0
-583 24 584 0
584 216 -585 0
-584 -216 -585 0
584 -216 585 0
-584 216 585 0
585 222 -586 0
-585 -222 -586 0
585 -222 586 0
-585 222 586 0
586 234 -587 0
-586 -234 -587 0
586 -234 587 0
-586 234 587 0
587 414 -588 0
-587 -414 -588 0
587 -414 588 0
-587 414 588 0
-588 0
18 19 -589 0
-18 -19 -589 0
18 -19 589 0
-18 19 589 0
589 24 -590 0
-589 -24 -590 0
589 -24 590 0
-589 24 590 0
590 25 -591 0
-590 -25 -591 0
590 -25 591 0
-590 25 591 0
591 217 -592 0
-591 -217 -592 0
591 -217 592 0
-591 217 592 0
592 223 -593 0
-592 -223 -593 0
592 -223 593 0
-592 223 593 0
593 235 -594 0
-593 -235 -594 0
593 -235 594 0
-593 235 594 0
594 415 -595 0
-594 -415 -595 0
594 -415 595 0
-594 415 595 0
-595 0
19 20 -596 0
-19 -20 -596 0
19 -20 596 0
-19 20 596 0
596 25 -597 0
-596 -25 -597 0
596 -25 597 0
-596 25 597 0
597 26 -598 0
-597 -26 -598 0
597 -26 598 0
-597 26 598 0
598 218 -599 0
-598 -218 -599 0
598 -218 599 0
-598 218 599 0
599 224 -600 0
-599 -224 -600 0
599 -224 600 0
-599 224 600 0
600 236 -601 0
-600 -236 -601 0
600 -236 601 0
-600 236 601 0
601 416 -602 0
-601 -416 -602 0
601 -416 602 0
-601 416 602 0
-602 0
20 21 -603 0
-20 -21 -603 0
20 -21 603 0
-20 21 603 0
603 26 -604 0
-603 -26 -604 0
603 -26 604 0
-603 26 604 0
604 27 -605 0
-604 -27 -605 0
604 -27 605 0
-604 27 605 0
605 219 -606 0
-605 -219 -606 0
605 -219 606 0
-605 219 606 0
606 225 -607 0
-606 -225 -607 0
606 -225 607 0
-606 225 607 0
607 237 -608 0
-607 -237 -608 0
607 -237 608 0
-607 237 608 0
608 417 -609 0
-608 -417 -609 0
608 -417 609 0
-608 417 609 0
-609 0
21 22 -610 0
-21 -22 -610 0
21 -22 610 0
-21 22 610 0
610 27 -611 0
-610 -27 -611 0
610 -27 611 0
-610 27 611 0
611 28 -612 0
-611 -28 -612 0
611 -28 612 0
-611 28 612 0
612 220 -613 0
-612 -220 -613 0
612 -220 613 0
-612 220 613 0
613 226 -614 0
-613 -226 -614 0
613 -226 614 0
-613 226 614 0
614 238 -615 0
-614 -238 -615 0
614 -238 615 0
-614 238 615 0
615 418 -616 0
-615 -418 -616 0
615 -418 616 0
-615 418 616 0
-616 0
22 23 -617 0
-22 -23 -617 0
22 -23 617 0
-22 23 617 0
617 28 -618 0
-617 -28 -618 0
617 -28 618 0
-617 28 618 0
618 29 -619 0
-618 -29 -619 0
618 -29 619 0
-618 29 619 0
619 221 -620 0
-619 -221 -620 0
619 -221 620 0
-619 221 620 0
620 227 -621 0
-620 -227 -621 0
620 -227 621 0
-620 227 621 0
621 239 -622 0
-621 -239 -622 0
621 -239 622 0
-621 239 622 0
622 419 -623 0
-622 -419 -623 0
622 -419 623 0
-622 419 623 0
-623 0
23 24 -624 0
-23 -24 -624 0
23 -24 624 0
-23 24 624 0
624 29 -625 0
-624 -29 -625 0
624 -29 625 0
-624 29 625 0
625 30 -626 0
-625 -30 -626 0
625 -30 626 0
-625 30 626 0
626 222 -627 0
-626 -222 -627 0
626 -222 627 0
-626 222 627 0
627 228 -628 0
-627 -228 -628 0
627 -228 628 0
-627 228 628 0
628 240 -629 0
-628 -240 -629 0
628 -240 629 0
-628 240 629 0
629 420 -630 0
-629 -420 -630 0
629 -420 630 0
-629 420 630 0
-630 0
24 25 -631 0
-24 -25 -631 0
24 -25 631 0
-24 25 631 0
631 30 -632 0
-631 -30 -632 0
631 -30 632 0
-631 30 632 0
632 31 -633 0
-632 -31 -633 0
632 -31 633 0
-632 31 633 0
633 211 -634 0
-633 -211 -634 0
633 -211 634 0
-633 211 634 0
634 223 -635 0
-634 -223 -635 0
634 -223 635 0
-634 223 635 0
635 229 -636 0
-635 -229 -636 0
635 -229 636 0
-635 229 636 0
636 241 -637 0
-636 -241 -637 0
636 -241 637 0
-636 241 637 0
-637 0
25 26 -638 0
-25 -26 -638 0
25 -26 638 0
-25 26 638 0
638 31 -639 0
-638 -31 -639 0
638 -31 639 0
-638 31 639 0
639 32 -640 0
-639 -32 -640 0
639 -32 640 0
-639 32 640 0
640 212 -641 0
-640 -212 -641 0
640 -212 641 0
-640 212 641 0
641 224 -642 0
-641 -224 -642 0
641 -224 642 0
-641 224 642 0
642 230 -643 0
-642 -230 -643 0
642 -230 643 0
-642 230 643 0
643 242 -644 0
-643 -242 -644 0
643 -242 644 0
-643 242 644 0
-644 0
26 27 -645 0
-26 -27 -645 0
26 -27 645 0
-26 27 645 0
645 32 -646 0
-645 -32 -646 0
645 -32 646 0
-645 32 646 0
646 33 -647 0
-646 -33 -647 0
646 -33 647 0
-646 33 647 0
647 213 -648 0
-647 -213 -648 0
647 -213 648 0
-647 213 648 0
648 225 -649 0
-648 -225 -649 0
648 -225 649 0
-648 225 649 0
649 231 -650 0
-649 -231 -650 0
649 -231 650 0
-649 231 650 0
650 243 -651 0
-650 -243 -651 0
650 -243 651 0
-650 243 651 0
-651 0
27 28 -652 0
-27 -28 -652 0
27 -28 652 0
-27 28 652 0
652 33 -653 0
-652 -33 -653 0
652 -33 653 0
-652 33 653 0
653 34 -654 0
-653 -34 -654 0
653 -34 654 0
-653 34 654 0
654 214 -655 0
-654 -214 -655 0
654 -214 655 0
-654 214 655 0
655 226 -656 0
-655 -226 -656 0
655 -226 656 0
-655 226 656 0
656 232 -657 0
-656 -232 -657 0
656 -232 657 0
-656 232 657 0
657 244 -658 0
-657 -244 -658 0
657 -244 658 0
-657 244 658 0
-658 0
28 29 -659 0
-28 -29 -659 0
28 -29 659 0
-28 29 659 0
659 34 -660 0
-659 -34 -660 0
659 -34 660 0
-659 34 660 0
660 35 -661 0
-660 -35 -661 0
660 -35 661 0
-660 35 661 0
661 215 -662 0
-661 -215 -662 0
661 -215 662 0
-661 215 662 0
662 227 -663 0
-662 -227 -663 0
662 -227 663 0
-662 227 663 0
663 233 -664 0
-663 -233 -664 0
663 -233 664 0
-663 233 664 0
664 245 -665 0
-664 -245 -665 0
664 -245 665 0
-664 245 665 0
-665 0
29 30 -666 0
-29 -30 -666 0
29 -30 666 0
-29 30 666 0
666 35 -667 0
-666 -35 -667 0
666 -35 667 0
-666 35 667 0
667 36 -668 0
-667 -36 -668 0
667 -36 668 0
-667 36 668 0
668 216 -669 0
-668 -216 -669 0
668 -216 669 0
-668 216 669 0
669 228 -670 0
-669 -228 -670 0
669 -228 670 0
-669 228 670 0
670 234 -671 0
-670 -234 -671 0
670 -234 671 0
-670 234 671 0
671 246 -672 0
-671 -246 -672 0
671 -246 672 0
-671 246 672 0
-672 0
30 31 -673 0
-30 -31 -673 0
30 -31 673 0
-30 31 673 0
673 36 -674 0
-673 -36 -674 0
673 -36 674 0
-673 36 674 0
674 37 -675 0
-674 -37 -675 0
674 -37 675 0
-674 37 675 0
675 217 -676 0
-675 -217 -676 0
675 -217 676 0
-675 217 676 0
676 229 -677 0
-676 -229 -677 0
676 -229 677 0
-676 229 677 0
677 235 -678 0
-677 -235 -678 0
677 -235 678 0
-677 235 678 0
678 247 -679 0
-678 -247 -679 0
678 -247 679 0
-678 247 679 0
-679 0
31 32 -680 0
-31 -32 -680 0
31 -32 680 0
-31 32 680 0
680 37 -681 0
-680 -37 -681 0
680 -37 681 0
-680 37 681 0
681 38 -682 0
-681 -38 -682 0
681 -38 682 0
-681 38 682 0
682 218 -683 0
-682 -218 -683 0
682 -218 683 0
-682 218 683 0
683 230 -684 0
-683 -230 -684 0
683 -230 684 0
-683 230 684 0
684 236 -685 0
-684 -236 -685 0
684 -236 685 0
-684 236 685 0
685 248 -686 0
-685 -248 -686 0
685 -248 686 0
-685 248 686 0
-686 0
32 33 -687 0
-32 -33 -687 0
32 -33 687 0
-32 33 687 0
687 38 -688 0
-687 -38 -688 0
687 -38 688 0
-687 38 688 0
688 39 -689 0
-688 -39 -689 0
688 -39 689 0
-688 39 689 0
689 219 -690 0
-689 -219 -690 0
689 -219 690 0
-689 219 690 0
690 231 -691 0
-690 -231 -691 0
690 -231 691 0
-690 231 691 0
691 237 -692 0
-691 -237 -692 0
691 -237 692 0
-691 237 692 0
692 249 -693 0
-692 -249 -693 0
692 -249 693 0
-692 249 693 0
-693 0
33 34 -694 0
-33 -34 -694 0
33 -34 694 0
-33 34 694 0
694 39 -695 0
-694 -39 -695 0
694 -39 695 0
-694 39 695 0
695 40 -696 0
-695 -40 -696 0
695 -40 696 0
-695 40 696 0
696 220 -697 0
-696 -220 -697 0
696 -220 697 0
-696 220 697 0
697 232 -698 0
-697 -232 -698 0
697 -232 698 0
-697 232 698 0
698 238 -699 0
-698 -238 -699 0
698 -238 699 0
-698 238 699 0
699 250 -700 0
-699 -250 -700 0
699 -250 700 0
-699 250 700 0
-700 0
34 35 -701 0
-34 -35 -701 0
34 -35 701 0
-34 35 701 0
701 40 -702 0
-701 -40 -702 0
701 -40 702 0
-701 40 702 0
702 41 -703 0
-702 -41 -703 0
702 -41 703 0
-702 41 703 0
703 221 -704 0
-703 -221 -704 0
703 -221 704 0
-703 221 704 0
704 233 -705 0
-704 -233 -705 0
704 -233 705 0
-704 233 705 0
705 239 -706 0
-705 -239 -706 0
705 -239 706 0
-705 239 706 0
706 251 -707 0
-706 -251 -707 0
706 -251 707 0
-706 251 707 0
-707 0
35 36 -708 0
-35 -36 -708 0
35 -36 708 0
-35 36 708 0
708 41 -709 0
-708 -41 -709 0
708 -41 709 0
-708 41 709 0
709 42 -710 0
-709 -42 -710 0
709 -42 710 0
-709 42 710 0
710 222 -711 0
-710 -222 -711 0
710 -222 711 0
-710 222 711 0
711 234 -712 0
-711 -234 -712 0
711 -234 712 0
-711 234 712 0
712 240 -713 0
-712 -240 -713 0
712 -240 713 0
-712 240 713 0
713 252 -714 0
-713 -252 -714 0
713 -252 714 0
-713 252 714 0
-714 0
36 37 -715 0
-36 -37 -715 0
36 -37 715 0
-36 37 715 0
715 42 -716 0
-715 -42 -716 0
715 -42 716 0
-715 42 716 0
716 43 -717 0
-716 -43 -717 0
716 -43 717 0
-716 43 717 0
717 223 -718 0
-717 -223 -718 0
717 -223 718 0
-717 223 718 0
718 235 -719 0
-718 -235 -719 0
718 -235 719 0
-718 235 719 0
719 241 -720 0
-719 -241 -720 0
719 -241 720 0
-719 241 720 0
720 253 -721 0
-720 -253 -721 0
720 -253 721 0
-720 253 721 0
-721 0
37 38 -722 0
-37 -38 -722 0
37 -38 722 0
-37 38 722 0
722 43 -723 0
-722 -43 -723 0
722 -43 723 0
-722 43 723 0
723 44 -724 0
-723 -44 -724 0
723 -44 724 0
-723 44 724 0
724 224 -725 0
-724 -224 -725 0
724 -224 725 0
-724 224 725 0
725 236 -726 0
-725 -236 -726 0
725 -236 726 0
-725 236 726 0
726 242 -727 0
-726 -242 -727 0
726 -242 727 0
-726 242 727 0
727 254 -728 0
-727 -254 -728 0
727 -254 728 0
-727 254 728 0
-728 0
38 39 -729 0
-38 -39 -729 0
38 -39 729 0
-38 39 729 0
729 44 -730 0
-729 -44 -730 0
729 -44 730 0
-729 44 730 0
730 45 -731 0
-730 -45 -731 0
730 -45 731 0
-730 45 731 0
731 225 -732 0
-731 -225 -732 0
731 -225 732 0
-731 225 732 0
732 237 -733 0
-732 -237 -733 0
732 -237 733 0
-732 237 733 0
733 243 -734 0
-733 -243 -734 0
733 -243 734 0
-733 243 734 0
734 255 -735 0
-734 -255 -735 0
734 -255 735 0
-734 255 735 0
-735 0
39 40 -736 0
-39 -40 -736 0
39 -40 736 0
-39 40 736 0
736 45 -737 0
-736 -45 -737 0
736 -45 737 0
-736 45 737 0
737 46 -738 0
-737 -46 -738 0
737 -46 738 0
-737 46 738 0
738 226 -739 0
-738 -226 -739 0
738 -226 739 0
-738 226 739 0
739 238 -740 0
-739 -238 -740 0
739 -238 740 0
-739 238 740 0
740 244 -741 0
-740 -244 -741 0
740 -244 741 0
-740 244 741 0
741 256 -742 0
-741 -256 -742 0
741 -256 742 0
-741 256 742 0
-742 0
40 41 -743 0
-40 -41 -743 0
40 -41 743 0
-40 41 743 0
743 46 -744 0
-743 -46 -744 0
743 -46 744 0
-743 46 744 0
744 47 -745 0
-744 -47 -745 0
744 -47 745 0
-744 47 745 0
745 227 -746 0
-745 -227 -746 0
745 -227 746 0
-745 227 746 0
746 239 -747 0
-746 -239 -747 0
746 -239 747 0
-746 239 747 0
747 245 -748 0
-747 -245 -748 0
747 -245 748 0
-747 245 748 0
748 257 -749 0
-748 -257 -749 0
748 -257 749 0
-748 257 749 0
-749 0
41 42 -750 0
-41 -42 -750 0
41 -42 750 0
-41 42 750 0
750 47 -751 0
-750 -47 -751 0
750 -47 751 0
-750 47 751 0
751 48 -752 0
-751 -48 -752 0
751 -48 752 0
-751 48 752 0
752 228 -753 0
-752 -228 -753 0
752 -228 753 0
-752 228 753 0
753 240 -754 0
-753 -240 -754 0
753 -240 754 0
-753 240 754 0
754 246 -755 0
-754 -246 -755 0
754 -246 755 0
-754 246 755 0
755 258 -756 0
-755 -258 -756 0
755 -258 756 0
-755 258 756 0
-756 0
42 43 -757 0
-42 -43 -757 0
42 -43 757 0
-42 43 757 0
757 48 -758 0
-757 -48 -758 0
757 -48 758 0
-757 48 758 0
758 49 -759 0
-758 -49 -759 0
758 -49 759 0
-758 49 759 0
759 229 -760 0
-759 -229 -760 0
759 -229 760 0
-759 229 760 0
760 241 -761 0
-760 -241 -761 0
760 -241 761 0
-760 241 761 0
761 247 -762 0
-761 -247 -762 0
761 -247 762 0
-761 247 762 0
762 259 -763 0
-762 -259 -763 0
762 -259 763 0
-762 259 763 0
-763 0
43 44 -764 0
-43 -44 -764 0
43 -44 764 0
-43 44 764 0
764 49 -765 0
-764 -49 -765 0
764 -49 765 0
-764 49 765 0
765 50 -766 0
-765 -50 -766 0
765 -50 766 0
-765 50 766 0
766 230 -767 0
-766 -230 -767 0
766 -230 767 0
-766 230 767 0
767 242 -768 0
-767 -242 -768 0
767 -242 768 0
-767 242 768 0
768 248 -769 0
-768 -248 -769 0
768 -248 769 0
-768 248 769 0
769 260 -770 0
-769 -260 -770 0
769 -260 770 0
-769 260 770 0
-770 0
44 45 -771 0
-44 -45 -771 0
44 -45 771 0
-44 45 771 0
771 50 -772 0
-771 -50 -772 0
771 -50 772 0
-771 50 772 0
772 51 -773 0
-772 -51 -773 0
772 -51 773 0
-772 51 773 0
773 231 -774 0
-773 -231 -774 0
773 -231 774 0
-773 231 774 0
774 243 -775 0
-774 -243 -775 0
774 -243 775 0
-774 243 775 0
775 249 -776 0
-775 -249 -776 0
775 -249 776 0
-775 249 776 0
776 261 -777 0
-776 -261 -777 0
776 -261 777 0
-776 261 777 0
-777 0
45 46 -778 0
-45 -46 -778 0
45 -46 778 0
-45 46 778 0
778 51 -779 0
-778 -51 -779 0
778 -51 779 0
-778 51 779 0
779 52 -780 0
-779 -52 -780 0
779 -52 780 0
-779 52 780 0
780 232 -781 0
-780 -232 -781 0
780 -232 781 0
-780 232 781 0
781 244 -782 0
-781 -244 -782 0
781 -244 782 0
-781 244 782 0
782 250 -783 0
-782 -250 -783 0
782 -250 783 0
-782 250 783 0
783 262 -784 0
-783 -262 -784 0
783 -262 784 0
-783 262 784 0
-784 0
46 47 -785 0
-46 -47 -785 0
46 -47 785 0
-46 47 785 0
785 52 -786 0
-785 -52 -786 0
785 -52 786 0
-785 52 786 0
786 53 -787 0
-786 -53 -787 0
786 -53 787 0
-786 53 787 0
787 233 -788 0
-787 -233 -788 0
787 -233 788 0
-787 233 788 0
788 245 -789 0
-788 -245 -789 0
788 -245 789 0
-788 245 789 0
789 251 -790 0
-789 -251 -790 0
789 -251 790 0
-789 251 790 0
790 263 -791 0
-790 -263 -791 0
790 -263 791 0
-790 263 791 0
-791 0
47 48 -792 0
-47 -48 -792 0
47 -48 792 0
-47 48 792 0
792 53 -793 0
-792 -53 -793 0
792 -53 793 0
-792 53 793 0
793 54 -794 0
-793 -54 -794 0
793 -54 794 0
-793 54 794 0
794 234 -795 0
-794 -234 -795 0
794 -234 795 0
-794 234 795 0
795 246 -796 0
-795 -246 -796 0
795 -246 796 0
-795 246 796 0
796 252 -797 0
-796 -252 -797 0
796 -252 797 0
-796 252 797 0
797 264 -798 0
-797 -264 -798 0
797 -264 798 0
-797 264 798 0
-798 0
48 49 -799 0
-48 -49 -799 0
48 -49 799 0
-48 49 799 0
799 54 -800 0
-799 -54 -800 0
799 -54 800 0
-799 54 800 0
800 55 -801 0
-800 -55 -801 0
800 -55 801 0
-800 55 801 0
801 235 -802 0
-801 -235 -802 0
801 -235 802 0
-801 235 802 0
802 247 -803 0
-802 -247 -803 0
802 -247 803 0
-802 247 803 0
803 253 -804 0
-803 -253 -804 0
803 -253 804 0
-803 253 804 0
804 265 -805 0
-804 -265 -805 0
804 -265 805 0
-804 265 805 0
-805 0
49 50 -806 0
-49 -50 -806 0
49 -50 806 0
-49 50 806 0
806 55 -807 0
-806 -55 -807 0
806 -55 807 0
-806 55 807 0
807 56 -808 0
-807 -56 -808 0
807 -56 808 0
-807 56 808 0
808 236 -809 0
-808 -236 -809 0
808 -236 809 0
-808 236 809 0
809 248 -810 0
-809 -248 -810 0
809 -248 810 0
-809 248 810 0
810 254 -811 0
-810 -254 -811 0
810 -254 811 0
-810 254 811 0
811 266 -812 0
-811 -266 -812 0
811 -266 812 0
-811 266 812 0
-812 0
50 51 -813 0
-50 -51 -813 0
50 -51 813 0
-50 51 813 0
813 56 -814 0
-813 -56 -814 0
813 -56 814 0
-813 56 814 0
814 57 -815 0
-814 -57 -815 0
814 -57 815 0
-814 57 815 0
815 237 -816 0
-815 -237 -816 0
815 -237 816 0
-815 237 816 0
816 249 -817 0
-816 -249 -817 0
816 -249 817 0
-816 249 817 0
817 255 -818 0
-817 -255 -818 0
817 -255 818 0
-817 255 818 0
818 267 -819 0
-818 -267 -819 0
818 -267 819 0
-818 267 819 0
-819 0
51 52 -820 0
-51 -52 -820 0
51 -52 820 0
-51 52 820 0
820 57 -821 0
-820 -57 -821 0
820 -57 821 0
-820 57 821 0
821 58 -822 0
-821 -58 -822 0
821 -58 822 0
-821 58 822 0
822 238 -823 0
-822 -238 -823 0
822 -238 823 0
-822 238 823 0
823 250 -824 0
-823 -250 -824 0
823 -250 824 0
-823 250 824 0
824 256 -825 0
-824 -256 -825 0
824 -256 825 0
-824 256 825 0
825 268 -826 0
-825 -268 -826 0
825 -268 826 0
-825 268 826 0
-826 0
52 53 -827 0
-52 -53 -827 0
52 -53 827 0
-52 53 827 0
827 58 -828 0
-827 -58 -828 0
827 -58 828 0
-827 58 828 0
828 59 -829 0
-828 -59 -829 0
828 -59 829 0
-828 59 829 0
829 239 -830 0
-829 -239 -830 0
829 -239 830 0
-829 239 830 0
830 251 -831 0
-830 -251 -831 0
830 -251 831 0
-830 251 831 0
831 257 -832 0
-831 -257 -832 0
831 -257 832 0
-831 257 832 0
832 269 -833 0
-832 -269 -833 0
832 -269 833 0
-832 269 833 0
-833 0
53 54 -834 0
-53 -54 -834 0
53 -54 834 0
-53 54 834 0
834 59 -835 0
-834 -59 -835 0
834 -59 835 0
-834 59 835 0
835 60 -836 0
-835 -60 -836 0
835 -60 836 0
-835 60 836 0
836 240 -837 0
-836 -240 -837 0
836 -240 837 0
-836 240 837 0
837 252 -838 0
-837 -252 -838 0
837 -252 838 0
-837 252 838 0
838 258 -839 0
-838 -258 -839 0
838 -258 839 0
-838 258 839 0
839 270 -840 0
-839 -270 -840 0
839 -270 840 0
-839 270 840 0
-840 0
54 55 -841 0
-54 -55 -841 0
54 -55 841 0
-54 55 841 0
841 60 -842 0
-841 -60 -842 0
841 -60 842 0
-841 60 842 0
842 61 -843 0
-842 -61 -843 0
842 -61 843 0
-842 61 843 0
843 241 -844 0
-843 -241 -844 0
843 -241 844 0
-843 241 844 0
844 253 -845 0
-844 -253 -845 0
844 -253 845 0
-844 253 845 0
845 259 -846 0
-845 -259 -846 0
845 -259 846 0
-845 259 846 0
846 271 -847 0
-846 -271 -847 0
846 -271 847 0
-846 271 847 0
-847 0
55 56 -848 0
-55 -56 -848 0
55 -56 848 0
-55 56 848 0
848 61 -849 0
-848 -61 -849 0
848 -61 849 0
-848 61 849 0
849 62 -850 0
-849 -62 -850 0
849 -62 850 0
-849 62 850 0
850 242 -851 0
-850 -242 -851 0
850 -242 851 0
-850 242 851 0
851 254 -852 0
-851 -254 -852 0
851 -254 852 0
-851 254 852 0
852 260 -853 0
-852 -260 -853 0
852 -260 853 0
-852 260 853 0
853 272 -854 0
-853 -272 -854 0
853 -272 854 0
-853 272 854 0
-854 0
56 57 -855 0
-56 -57 -855 0
56 -57 855 0
-56 57 855 0
855 62 -856 0
-855 -62 -856 0
855 -62 856 0
-855 62 856 0
856 63 -857 0
-856 -63 -857 0
856 -63 857 0
-856 63 857 0
857 243 -858 0
-857 -243 -858 0
857 -243 858 0
-857 243 858 0
858 255 -859 0
-858 -255 -859 0
858 -255 859 0
-858 255 859 0
859 261 -860 0
-859 -261 -860 0
859 -261 860 0
-859 261 860 0
860 273 -861 0
-860 -273 -861 0
860 -273 861 0
-860 273 861 0
-861 0
57 58 -862 0
-57 -58 -862 0
57 -58 862 0
-57 58 862 0
862 63 -863 0
-862 -63 -863 0
862 -63 863 0
-862 63 863 0
863 64 -864 0
-863 -64 -864 0
863 -64 864 0
-863 64 864 0
864 244 -865 0
-864 -244 -865 0
864 -244 865 0
-864 244 865 0
865 256 -866 0
-865 -256 -866 0
865 -256 866 0
-865 256 866 0
866 262 -867 0
-866 -262 -867 0
866 -262 867 0
-866 262 867 0
867 274 -868 0
-867 -274 -868 0
867 -274 868 0
-867 274 868 0
-868 0
58 59 -869 0
-58 -59 -869 0
58 -59 869 0
-58 59 869 0
869 64 -870 0
-869 -64 -870 0
869 -64 870 0
-869 64 870 0
870 65 -871 0
-870 -65 -871 0
870 -65 871 0
-870 65 871 0
871 245 -872 0
-871 -245 -872 0
871 -245 872 0
-871 245 872 0
872 257 -873 0
-872 -257 -873 0
872 -257 873 0
-872 257 873 0
873 263 -874 0
-873 -263 -874 0
873 -263 874 0
-873 263 874 0
874 275 -875 0
-874 -275 -875 0
874 -275 875 0
-874 275 875 0
-875 0
59 60 -876 0
-59 -60 -876 0
59 -60 876 0
-59 60 876 0
876 65 -877 0
-876 -65 -877 0
876 -65 877 0
-876 65 877 0
877 66 -878 0
-877 -66 -878 0
877 -66 878 0
-877 66 878 0
878 246 -879 0
-878 -246 -879 0
878 -246 879 0
-878 246 879 0
879 258 -880 0
-879 -258 -880 0
879 -258 880 0
-879 258 880 0
880 264 -881 0
-880 -264 -881 0
880 -264 881 0
-880 264 881 0
881 276 -882 0
-881 -276 -882 0
881 -276 882 0
-881 276 882 0
-882 0
60 61 -883 0
-60 -61 -883 0
60 -61 883 0
-60 61 883 0
883 66 -884 0
-883 -66 -884 0
883 -66 884 0
-883 66 884 0
884 67 -885 0
-884 -67 -885 0
884 -67 885 0
-884 67 885 0
885 247 -886 0
-885 -247 -886 0
885 -247 886 0
-885 247 886 0
886 259 -887 0
-886 -259 -887 0
886 -259 887 0
-886 259 887 0
887 265 -888 0
-887 -265 -888 0
887 -265 888 0
-887 265 888 0
888 277 -889 0
-888 -277 -889 0
888 -277 889 0
-888 277 889 0
-889 0
61 62 -890 0
-61 -62 -890 0
61 -62 890 0
-61 62 890 0
890 67 -891 0
-890 -67 -891 0
890 -67 891 0
-890 67 891 0
891 68 -892 0
-891 -68 -892 0
891 -68 892 0
-891 68 892 0
892 248 -893 0
-892 -248 -893 0
892 -248 893 0
-892 248 893 0
893 260 -894 0
-893 -260 -894 0
893 -260 894 0
-893 260 894 0
894 266 -895 0
-894 -266 -895 0
894 -266 895 0
-894 266 895 0
895 278 -896 0
-895 -278 -896 0
895 -278 896 0
-895 278 896 0
-896 0
62 63 -897 0
-62 -63 -897 0
62 -63 897 0
-62 63 897 0
897 68 -898 0
-897 -68 -898 0
897 -68 898 0
-897 68 898 0
898 69 -899 0
-898 -69 -899 0
898 -69 899 0
-898 69 899 0
899 249 -900 0
-899 -249 -900 0
899 -249 900 0
-899 249 900 0
900 261 -901 0
-900 -261 -901 0
900 -261 901 0
-900 261 901 0
901 267 -902 0
-901 -267 -902 0
901 -267 902 0
-901 267 902 0
902 279 -903 0
-902 -279 -903 0
902 -279 903 0
-902 279 903 0
-903 0
63 64 -904 0
-63 -64 -904 0
63 -64 904 0
-63 64 904 0
904 69 -905 0
-904 -69 -905 0
904 -69 905 0
-904 69 905 0
905 70 -906 0
-905 -70 -906 0
905 -70 906 0
-905 70 906 0
906 250 -907 0
-906 -250 -907 0
906 -250 907 0
-906 250 907 0
907 262 -908 0
-907 -262 -908 0
907 -262 908 0
-907 262 908 0
908 268 -909 0
-908 -268 -909 0
908 -268 909 0
-908 268 909 0
909 280 -910 0
-909 -280 -910 0
909 -280 910 0
-909 280 910 0
-910 0
64 65 -911 0
-64 -65 -911 0
64 -65 911 0
-64 65 911 0
911 70 -912 0
-911 -70 -912 0
911 -70 912 0
-911 70 912 0
912 71 -913 0
-912 -71 -913 0
912 -71 913 0
-912 71 913 0
913 251 -914 0
-913 -251 -914 0
913 -251 914 0
-913 251 914 0
914 263 -915 0
-914 -263 -915 0
914 -263 915 0
-914 263 915 0
915 269 -916 0
-915 -269 -916 0
915 -269 916 0
-915 269 916 0
916 281 -917 0
-916 -281 -917 0
916 -281 917 0
-916 281 917 0
-917 0
65 66 -918 0
-65 -66 -918 0
65 -66 918 0
-65 66 918 0
918 71 -919 0
-918 -71 -919 0
918 -71 919 0
-918 71 919 0
919 72 -920 0
-919 -72 -920 0
919 -72 920 0
-919 72 920 0
920 252 -921 0
-920 -252 -921 0
920 -252 921 0
-920 252 921 0
921 264 -922 0
-921 -264 -922 0
921 -264 922 0
-921 264 922 0
922 270 -923 0
-922 -270 -923 0
922 -270 923 0
-922 270 923 0
923 282 -924 0
-923 -282 -924 0
923 -282 924 0
-923 282 924 0
-924 0
66 67 -925 0
-66 -67 -925 0
66 -67 925 0
-66 67 925 0
925 72 -926 0
-925 -72 -926 0
925 -72 926 0
-925 72 926 0
926 73 -927 0
-926 -73 -927 0
926 -73 927 0
-926 73 927 0
927 253 -928 0
-927 -253 -928 0
927 -253 928 0
-927 253 928 0
928 265 -929 0
-928 -265 -929 0
928 -265 929 0
-928 265 929 0
929 271 -930 0
-929 -271 -930 0
929 -271 930 0
-929 271 930 0
930 283 -931 0
-930 -283 -931 0
930 -283 931 0
-930 283 931 0
-931 0
67 68 -932 0
-67 -68 -932 0
67 -68 932 0
-67 68 932 0
932 73 -933 0
-932 -73 -933 0
932 -73 933 0
-932 73 933 0
933 74 -934 0
-933 -74 -934 0
933 -74 934 0
-933 74 934 0
934 254 -935 0
-934 -254 -935 0
934 -254 935 0
-934 254 935 0
935 266 -936 0
-935 -266 -936 0
935 -266 936 0
-935 266 936 0
936 272 -937 0
-936 -272 -937 0
936 -272 937 0
-936 272 937 0
937 284 -938 0
-937 -284 -938 0
937 -284 938 0
-937 284 938 0
-938 0
68 69 -939 0
-68 -69 -939 0
68 -69 939 0
-68 69 939 0
939 74 -940 0
-939 -74 -940 0
939 -74 940 0
-939 74 940 0
940 75 -941 0
-940 -75 -941 0
940 -75 941 0
-940 75 941 0
941 255 -942 0
-941 -255 -942 0
941 -255 942 0
-941 255 942 0
942 267 -943 0
-942 -267 -943 0
942 -267 943 0
-942 267 943 0
943 273 -944 0
-943 -273 -944 0
943 -273 944 0
-943 273 944 0
944 285 -945 0
-944 -285 -945 0
944 -285 945 0
-944 285 945 0
-945 0
69 70 -946 0
-69 -70 -946 0
69 -70 946 0
-69 70 946 0
946 75 -947 0
-946 -75 -947 0
946 -75 947 0
-946 75 947 0
947 76 -948 0
-947 -76 -948 0
947 -76 948 0
-947 76 948 0
948 256 -949 0
-948 -256 -949 0
948 -256 949 0
-948 256 949 0
949 268 -950 0
-949 -268 -950 0
949 -268 950 0
-949 268 950 0
950 274 -951 0
-950 -274 -951 0
950 -274 951 0
-950 274 951 0
951 286 -952 0
-951 -286 -952 0
951 -286 952 0
-951 286 952 0
-952 0
70 71 -953 0
-70 -71 -953 0
70 -71 953 0
-70 71 953 0
953 76 -954 0
-953 -76 -954 0
953 -76 954 0
-953 76 954 0
954 77 -955 0
-954 -77 -955 0
954 -77 955 0
-954 77 955 0
955 257 -956 0
-955 -257 -956 0
955 -257 956 0
-955 257 956 0
956 269 -957 0
-956 -269 -957 0
956 -269 957 0
-956 269 957 0
957 275 -958 0
-957 -275 -958 0
957 -275 958 0
-957 275 958 0
958 287 -959 0
-958 -287 -959 0
958 -287 959 0
-958 287 959 0
-959 0
71 72 -960 0
-71 -72 -960 0
71 -72 960 0
-71 72 960 0
960 77 -961 0
-960 -77 -961 0
960 -77 961 0
-960 77 961 0
961 78 -962 0
-961 -78 -962 0
961 -78 962 0
-961 78 962 0
962 258 -963 0
-962 -258 -963 0
962 -258 963 0
-962 258 963 0
963 270 -964 0
-963 -270 -964 0
963 -270 964 0
-963 270 964 0
964 276 -965 0
-964 -276 -965 0
964 -276 965 0
-964 276 965 0
965 288 -966 0
-965 -288 -966 0
965 -288 966 0
-965 288 966 0
-966 0
72 73 -967 0
-72 -73 -967 0
72 -73 967 0
-72 73 967 0
967 78 -968 0
-967 -78 -968 0
967 -78 968 0
-967 78 968 0
968 79 -969 0
-968 -79 -969 0
968 -79 969 0
-968 79 969 0
969 259 -970 0
-969 -259 -970 0
969 -259 970 0
-969 259 970 0
970 271 -971 0
-970 -271 -971 0
970 -271 971 0
-970 271 971 0
971 277 -972 0
-971 -277 -972 0
971 -277 972 0
-971 277 972 0
972 289 -973 0
-972 -289 -973 0
972 -289 973 0
-972 289 973 0
-973 0
73 74 -974 0
-73 -74 -974 0
73 -74 974 0
-73 74 974 0
974 79 -975 0
-974 -79 -975 0
974 -79 975 0
-974 79 975 0
975 80 -976 0
-975 -80 -976 0
975 -80 976 0
-975 80 976 0
976 260 -977 0
-976 -260 -977 0
976 -260 977 0
-976 260 977 0
977 272 -978 0
-977 -272 -978 0
977 -272 978 0
-977 272 978 0
978 278 -979 0
-978 -278 -979 0
978 -278 979 0
-978 278 979 0
979 290 -980 0
-979 -290 -980 0
979 -290 980 0
-979 290 980 0
-980 0
74 75 -981 0
-74 -75 -981 0
74 -75 981 0
-74 75 981 0
981 80 -982 0
-981 -80 -982 0
981 -80 982 0
-981 80 982 0
982 81 -983 0
-982 -81 -983 0
982 -81 983 0
-982 81 983 0
983 261 -984 0
-983 -261 -984 0
983 -261 984 0
-983 261 984 0
984 273 -985 0
-984 -273 -985 0
984 -273 985 0
-984 273 985 0
985 279 -986 0
-985 -279 -986 0
985 -279 986 0
-985 279 986 0
986 291 -987 0
-986 -291 -987 0
986 -291 987 0
-986 291 987 0
-987 0
75 76 -988 0
-75 -76 -988 0
75 -76 988 0
-75 76 988 0
988 81 -989 0
-988 -81 -989 0
988 -81 989 0
-988 81 989 0
989 82 -990 0
-989 -82 -990 0
989 -82 990 0
-989 82 990 0
990 262 -991 0
-990 -262 -991 0
990 -262 991 0
-990 262 991 0
991 274 -992 0
-991 -274 -992 0
991 -274 992 0
-991 274 992 0
992 280 -993 0
-992 -280 -993 0
992 -280 993 0
-992 280 993 0
993 292 -994 0
-993 -292 -994 0
993 -292 994 0
-993 292 994 0
-994 0
76 77 -995 0
-76 -77 -995 0
76 -77 995 0
-76 77 995 0
995 82 -996 0
-995 -82 -996 0
995 -82 996 0
-995 82 996 0
996 83 -997 0
-996 -83 -997 0
996 -83 997 0
-996 83 997 0
997 263 -998 0
-997 -263 -998 0
997 -263 998 0
-997 263 998 0
998 275 -999 0
-998 -275 -999 0
998 -275 999 0
-998 275 999 0
999 281 -1000 0
-999 -281 -1000 0
999 -281 1000 0
-999 281 1000 0
1000 293 -1001 0
-1000 -293 -1001 0
1000 -293 1001 0
-1000 293 1001 0
-1001 0
77 78 -1002 0
-77 -78 -1002 0
77 -78 1002 0
-77 78 1002 0
1002 83 -1003 0
-1002 -83 -1003 0
1002 -83 1003 0
-1002 83 1003 0
1003 84 -1004 0
-1003 -84 -1004 0
1003 -84 1004 0
-1003 84 1004 0
1004 264 -1005 0
-1004 -264 -1005 0
1004 -264 1005 0
-1004 264 1005 0
1005 276 -1006 0
-1005 -276 -1006 0
1005 -276 1006 0
-1005 276 1006 0
1006 282 -1007 0
-1006 -282 -1007 0
1006 -282 1007 0
-1006 282 1007 0
1007 294 -1008 0
-1007 -294 -1008 0
1007 -294 1008 0
-1007 294 1008 0
-1008 0
78 79 -1009 0
-78 -79 -1009 0
78 -79 1009 0
-78 79 1009 0
1009 84 -1010 0
-1009 -84 -1010 0
1009 -84 1010 0
-1009 84 1010 0
1010 85 -1011 0
-1010 -85 -1011 0
1010 -85 1011 0
-1010 85 1011 0
1011 265 -1012 0
-1011 -265 -1012 0
1011 -265 1012 0
-1011 265 1012 0
1012 277 -1013 0
-1012 -277 -1013 0
1012 -277 1013 0
-1012 277 1013 0
1013 283 -1014 0
-1013 -283 -1014 0
1013 -283 1014 0
-1013 283 1014 0
1014 295 -1015 0
-1014 -295 -1015 0
1014 -295 1015 0
-1014 295 1015 0
-1015 0
79 80 -1016 0
-79 -80 -1016 0
79 -80 1016 0
-79 80 1016 0
1016 85 -1017 0
-1016 -85 -1017 0
1016 -85 1017 0
-1016 85 1017 0
1017 86 -1018 0
-1017 -86 -1018 0
1017 -86 1018 0
-1017 86 1018 0
1018 266 -1019 0
-1018 -266 -1019 0
1018 -266 1019 0
-1018 266 1019 0
1019 278 -1020 0
-1019 -278 -1020 0
1019 -278 1020 0
-1019 278 1020 0
1020 284 -1021 0
-1020 -284 -1021 0
1020 -284 1021 0
-1020 284 1021 0
1021 296 -1022 0
-1021 -296 -1022 0
1021 -296 1022 0
-1021 296 1022 0
-1022 0
80 81 -1023 0
-80 -81 -1023 0
80 -81 1023 0
-80 81 1023 0
1023 86 -1024 0
-1023 -86 -1024 0
1023 -86 1024 0
-1023 86 1024 0
1024 87 -1025 0
-1024 -87 -1025 0
1024 -87 1025 0
-1024 87 1025 0
1025 267 -1026 0
-1025 -267 -1026 0
1025 -267 1026 0
-1025 267 1026 0
1026 279 -1027 0
-1026 -279 -1027 0
1026 -279 1027 0
-1026 279 1027 0
1027 285 -1028 0
-1027 -285 -1028 0
1027 -285 1028 0
-1027 285 1028 0
1028 297 -1029 0
-1028 -297 -1029 0
1028 -297 1029 0
-1028 297 1029 0
-1029 0
81 82 -1030 0
-81 -82 -1030 0
81 -82 1030 0
-81 82 1030 0
1030 87 -1031 0
-1030 -87 -1031 0
1030 -87 1031 0
-1030 87 1031 0
1031 88 -1032 0
-1031 -88 -1032 0
1031 -88 1032 0
-1031 88 1032 0
1032 268 -1033 0
-1032 -268 -1033 0
1032 -268 1033 0
-1032 268 1033 0
1033 280 -1034 0
-1033 -280 -1034 0
1033 -280 1034 0
-1033 280 1034 0
1034 286 -1035 0
-1034 -286 -1035 0
1034 -286 1035 0
-1034 286 1035 0
1035 298 -1036 0
-1035 -298 -1036 0
1035 -298 1036 0
-1035 298 1036 0
-1036 0
82 83 -1037 0
-82 -83 -1037 0
82 -83 1037 0
-82 83 1037 0
1037 88 -1038 0
-1037 -88 -1038 0
1037 -88 1038 0
-1037 88 1038 0
1038 89 -1039 0
-1038 -89 -1039 0
1038 -89 1039 0
-1038 89 1039 0
1039 269 -1040 0
-1039 -269 -1040 0
1039 -269 1040 0
-1039 269 1040 0
1040 281 -1041 0
-1040 -281 -1041 0
1040 -281 1041 0
-1040 281 1041 0
1041 287 -1042 0
-1041 -287 -1042 0
1041 -287 1042 0
-1041 287 1042 0
1042 299 -1043 0
-1042 -299 -1043 0
1042 -299 1043 0
-1042 299 1043 0
-1043 0
83 84 -1044 0
-83 -84 -1044 0
83 -84 1044 0
-83 84 1044 0
1044 89 -1045 0
-1044 -89 -1045 0
1044 -89 1045 0
-1044 89 1045 0
1045 90 -1046 0
-1045 -90 -1046 0
1045 -90 1046 0
-1045 90 1046 0
1046 270 -1047 0
-1046 -270 -1047 0
1046 -270 1047 0
-1046 270 1047 0
1047 282 -1048 0
-1047 -282 -1048 0
1047 -282 1048 0
-1047 282 1048 0
1048 288 -1049 0
-1048 -288 -1049 0
1048 -288 1049 0
-1048 288 1049 0
1049 300 -1050 0
-1049 -300 -1050 0
1049 -300 1050 0
-1049 300 1050 0
-1050 0
84 85 -1051 0
-84 -85 -1051 0
84 -85 1051 0
-84 85 1051 0
1051 90 -1052 0
-1051 -90 -1052 0
1051 -90 1052 0
-1051 90 1052 0
1052 91 -1053 0
-1052 -91 -1053 0
1052 -91 1053 0
-1052 91 1053 0
1053 271 -1054 0
-1053 -271 -1054 0
1053 -271 1054 0
-1053 271 1054 0
1054 283 -1055 0
-1054 -283 -1055 0
1054 -283 1055 0
-1054 283 1055 0
1055 289 -1056 0
-1055 -289 -1056 0
1055 -289 1056 0
-1055 289 1056 0
1056 301 -1057 0
-1056 -301 -1057 0
1056 -301 1057 0
-1056 301 1057 0
-1057 0
85 86 -1058 0
-85 -86 -1058 0
85 -86 1058 0
-85 86 1058 0
1058 91 -1059 0
-1058 -91 -1059 0
1058 -91 1059 0
-1058 91 1059 0
1059 92 -1060 0
-1059 -92 -1060 0
1059 -92 1060 0
-1059 92 1060 0
1060 272 -1061 0
-1060 -272 -1061 0
1060 -272 1061 0
-1060 272 1061 0
1061 284 -1062 0
-1061 -284 -1062 0
1061 -284 1062 0
-1061 284 1062 0
1062 290 -1063 0
-1062 -290 -1063 0
1062 -290 1063 0
-1062 290 1063 0
1063 302 -1064 0
-1063 -302 -1064 0
1063 -302 1064 0
-1063 302 1064 0
-1064 0
86 87 -1065 0
-86 -87 -1065 0
86 -87 1065 0
-86 87 1065 0
1065 92 -1066 0
-1065 -92 -1066 0
1065 -92 1066 0
-1065 92 1066 0
1066 93 -1067 0
-1066 -93 -1067 0
1066 -93 1067 0
-1066 93 1067 0
1067 273 -1068 0
-1067 -273 -1068 0
1067 -273 1068 0
-1067 273 1068 0
1068 285 -1069 0
-1068 -285 -1069 0
1068 -285 1069 0
-1068 285 1069 0
1069 291 -1070 0
-1069 -291 -1070 0
1069 -291 1070 0
-1069 291 1070 0
1070 303 -1071 0
-1070 -303 -1071 0
1070 -303 1071 0
-1070 303 1071 0
-1071 0
87 88 -1072 0
-87 -88 -1072 0
87 -88 1072 0
-87 88 1072 0
1072 93 -1073 0
-1072 -93 -1073 0
1072 -93 1073 0
-1072 93 1073 0
1073 94 -1074 0
-1073 -94 -1074 0
1073 -94 1074 0
-1073 94 1074 0
1074 274 -1075 0
-1074 -274 -1075 0
1074 -274 1075 0
-1074 274 1075 0
1075 286 -1076 0
-1075 -286 -1076 0
1075 -286 1076 0
-1075 286 1076 0
1076 292 -1077 0
-1076 -292 -1077 0
1076 -292 1077 0
-1076 292 1077 0
1077 304 -1078 0
-1077 -304 -1078 0
1077 -304 1078 0
-1077 304 1078 0
-1078 0
88 89 -1079 0
-88 -89 -1079 0
88 -89 1079 0
-88 89 1079 0
1079 94 -1080 0
-1079 -94 -1080 0
1079 -94 1080 0
-1079 94 1080 0
1080 95 -1081 0
-1080 -95 -1081 0
1080 -95 1081 0
-1080 95 1081 0
1081 275 -1082 0
-1081 -275 -1082 0
1081 -275 1082 0
-1081 275 1082 0
1082 287 -1083 0
-1082 -287 -1083 0
1082 -287 1083 0
-1082 287 1083 0
1083 293 -1084 0
-1083 -293 -1084 0
1083 -293 1084 0
-1083 293 1084 0
1084 305 -1085 0
-1084 -305 -1085 0
1084 -305 1085 0
-1084 305 1085 0
-1085 0
89 90 -1086 0
-89 -90 -1086 0
89 -90 1086 0
-89 90 1086 0
1086 95 -1087 0
-1086 -95 -1087 0
1086 -95 1087 0
-1086 95 1087 0
1087 96 -1088 0
-1087 -96 -1088 0
1087 -96 1088 0
-1087 96 1088 0
1088 276 -1089 0
-1088 -276 -1089 0
1088 -276 1089 0
-1088 276 1089 0
1089 288 -1090 0
-1089 -288 -1090 0
1089 -288 1090 0
-1089 288 1090 0
1090 294 -1091 0
-1090 -294 -1091 0
1090 -294 1091 0
-1090 294 1091 0
1091 306 -1092 0
-1091 -306 -1092 0
1091 -306 1092 0
-1091 306 1092 0
-1092 0
90 91 -1093 0
-90 -91 -1093 0
90 -91 1093 0
-90 91 1093 0
1093 96 -1094 0
-1093 -96 -1094 0
1093 -96 1094 0
-1093 96 1094 0
1094 97 -1095 0
-1094 -97 -1095 0
1094 -97 1095 0
-1094 97 1095 0
1095 277 -1096 0
-1095 -277 -1096 0
1095 -277 1096 0
-1095 277 1096 0
1096 289 -1097 0
-1096 -289 -1097 0
1096 -289 1097 0
-1096 289 1097 0
1097 295 -1098 0
-1097 -295 -1098 0
1097 -295 1098 0
-1097 295 1098 0
1098 307 -1099 0
-1098 -307 -1099 0
1098 -307 1099 0
-1098 307 1099 0
-1099 0
91 92 -1100 0
-91 -92 -1100 0
91 -92 1100 0
-91 92 1100 0
1100 97 -1101 0
-1100 -97 -1101 0
1100 -97 1101 0
-1100 97 1101 0
1101 98 -1102 0
-1101 -98 -1102 0
1101 -98 1102 0
-1101 98 1102 0
1102 278 -1103 0
-1102 -278 -1103 0
1102 -278 1103 0
-1102 278 1103 0
1103 290 -1104 0
-1103 -290 -1104 0
1103 -290 1104 0
-1103 290 1104 0
1104 296 -1105 0
-1104 -296 -1105 0
1104 -296 1105 0
-1104 296 1105 0
1105 308 -1106 0
-1105 -308 -1106 0
1105 -308 1106 0
-1105 308 1106 0
-1106 0
92 93 -1107 0
-92 -93 -1107 0
92 -93 1107 0
-92 93 1107 0
1107 98 -1108 0
-1107 -98 -1108 0
1107 -98 1108 0
-1107 98 1108 0
1108 99 -1109 0
-1108 -99 -1109 0
1108 -99 1109 0
-1108 99 1109 0
1109 279 -1110 0
-1109 -279 -1110 0
1109 -279 1110 0
-1109 279 1110 0
1110 291 -1111 0
-1110 -291 -1111 0
1110 -291 1111 0
-1110 291 1111 0
1111 297 -1112 0
-1111 -297 -1112 0
1111 -297 1112 0
-1111 297 1112 0
1112 309 -1113 0
-1112 -309 -1113 0
1112 -309 1113 0
-1112 309 1113 0
-1113 0
93 94 -1114 0
-93 -94 -1114 0
93 -94 1114 0
-93 94 1114 0
1114 99 -1115 0
-1114 -99 -1115 0
1114 -99 1115 0
-1114 99 1115 0
1115 100 -1116 0
-1115 -100 -1116 0
1115 -100 1116 0
-1115 100 1116 0
1116 280 -1117 0
-1116 -280 -1117 0
1116 -280 1117 0
-1116 280 1117 0
1117 292 -1118 0
-1117 -292 -1118 0
1117 -292 1118 0
-1117 292 1118 0
1118 298 -1119 0
-1118 -298 -1119 0
1118 -298 1119 0
-1118 298 1119 0
1119 310 -1120 0
-1119 -310 -1120 0
1119 -310 1120 0
-1119 310 1120 0
-1120 0
94 95 -1121 0
-94 -95 -1121 0
94 -95 1121 0
-94 95 1121 0
1121 100 -1122 0
-1121 -100 -1122 0
1121 -100 1122 0
-1121 100 1122 0
1122 101 -1123 0
-1122 -101 -1123 0
1122 -101 1123 0
-1122 101 1123 0
1123 281 -1124 0
-1123 -281 -1124 0
1123 -281 1124 0
-1123 281 1124 0
1124 293 -1125 0
-1124 -293 -1125 0
1124 -293 1125 0
-1124 293 1125 0
1125 299 -1126 0
-1125 -299 -1126 0
1125 -299 1126 0
-1125 299 1126 0
1126 311 -1127 0
-1126 -311 -1127 0
1126 -311 1127 0
-1126 311 1127 0
-1127 0
95 96 -1128 0
-95 -96 -1128 0
95 -96 1128 0
-95 96 1128 0
1128 101 -1129 0
-1128 -101 -1129 0
1128 -101 1129 0
-1128 101 1129 0
1129 102 -1130 0
-1129 -102 -1130 0
1129 -102 1130 0
-1129 102 1130 0
1130 282 -1131 0
-1130 -282 -1131 0
1130 -282 1131 0
-1130 282 1131 0
1131 294 -1132 0
-1131 -294 -1132 0
1131 -294 1132 0
-1131 294 1132 0
1132 300 -1133 0
-1132 -300 -1133 0
1132 -300 1133 0
-1132 300 1133 0
1133 312 -1134 0
-1133 -312 -1134 0
1133 -312 1134 0
-1133 312 1134 0
-1134 0
96 97 -1135 0
-96 -97 -1135 0
96 -97 1135 0
-96 97 1135 0
1135 102 -1136 0
-1135 -102 -1136 0
1135 -102 1136 0
-1135 102 1136 0
1136 103 -1137 0
-1136 -103 -1137 0
1136 -103 1137 0
-1136 103 1137 0
1137 283 -1138 0
-1137 -283 -1138 0
1137 -283 1138 0
-1137 283 1138 0
1138 295 -1139 0
-1138 -295 -1139 0
1138 -295 1139 0
-1138 295 1139 0
1139 301 -1140 0
-1139 -301 -1140 0
1139 -301 1140 0
-1139 301 1140 0
1140 313 -1141 0
-1140 -313 -1141 0
1140 -313 1141 0
-1140 313 1141 0
-1141 0
97 98 -1142 0
-97 -98 -1142 0
97 -98 1142 0
-97 98 1142 0
1142 103 -1143 0
-1142 -103 -1143 0
1142 -103 1143 0
-1142 103 1143 0
1143 104 -1144 0
-1143 -104 -1144 0
1143 -104 1144 0
-1143 104 1144 0
1144 284 -1145 0
-1144 -284 -1145 0
1144 -284 1145 0
-1144 284 1145 0
1145 296 -1146 0
-1145 -296 -1146 0
1145 -296 1146 0
-1145 296 1146 0
1146 302 -1147 0
-1146 -302 -1147 0
1146 -302 1147 0
-1146 302 1147 0
1147 314 -1148 0
-1147 -314 -1148 0
1147 -314 1148 0
-1147 314 1148 0
-1148 0
98 99 -1149 0
-98 -99 -1149 0
98 -99 1149 0
-98 99 1149 0
1149 104 -1150 0
-1149 -104 -1150 0
1149 -104 1150 0
-1149 104 1150 0
1150 105 -1151 0
-1150 -105 -1151 0
1150 -105 1151 0
-1150 105 1151 0
1151 285 -1152 0
-1151 -285 -1152 0
1151 -285 1152 0
-1151 285 1152 0
1152 297 -1153 0
-1152 -297 -1153 0
1152 -297 1153 0
-1152 297 1153 0
1153 303 -1154 0
-1153 -303 -1154 0
1153 -303 1154 0
-1153 303 1154 0
1154 315 -1155 0
-1154 -315 -1155 0
1154 -315 1155 0
-1154 315 1155 0
-1155 0
99 100 -1156 0
-99 -100 -1156 0
99 -100 1156 0
-99 100 1156 0
1156 105 -1157 0
-1156 -105 -1157 0
1156 -105 1157 0
-1156 105 1157 0
1157 106 -1158 0
-1157 -106 -1158 0
1157 -106 1158 0
-1157 106 1158 0
1158 286 -1159 0
-1158 -286 -1159 0
1158 -286 1159 0
-1158 286 1159 0
1159 298 -1160 0
-1159 -298 -1160 0
1159 -298 1160 0
-1159 298 1160 0
1160 304 -1161 0
-1160 -304 -1161 0
1160 -304 1161 0
-1160 304 1161 0
1161 316 -1162 0
-1161 -316 -1162 0
1161 -316 1162 0
-1161 316 1162 0
-1162 0
100 101 -1163 0
-100 -101 -1163 0
100 -101 1163 0
-100 101 1163 0
1163 106 -1164 0
-1163 -106 -1164 0
1163 -106 1164 0
-1163 106 1164 0
1164 107 -1165 0
-1164 -107 -1165 0
1164 -107 1165 0
-1164 107 1165 0
1165 287 -1166 0
-1165 -287 -1166 0
1165 -287 1166 0
-1165 287 1166 0
1166 299 -1167 0
-1166 -299 -1167 0
1166 -299 1167 0
-1166 299 1167 0
1167 305 -1168 0
-1167 -305 -1168 0
1167 -305 1168 0
-1167 305 1168 0
1168 317 -1169 0
-1168 -317 -1169 0
1168 -317 1169 0
-1168 317 1169 0
-1169 0
101 102 -1170 0
-101 -102 -1170 0
101 -102 1170 0
-101 102 1170 0
1170 107 -1171 0
-1170 -107 -1171 0
1170 -107 1171 0
-1170 107 1171 0
1171 108 -1172 0
-1171 -108 -1172 0
1171 -108 1172 0
-1171 108 1172 0
1172 288 -1173 0
-1172 -288 -1173 0
1172 -288 1173 0
-1172 288 1173 0
1173 300 -1174 0
-1173 -300 -1174 0
1173 -300 1174 0
-1173 300 1174 0
1174 306 -1175 0
-1174 -306 -1175 0
1174 -306 1175 0
-1174 306 1175 0
1175 318 -1176 0
-1175 -318 -1176 0
1175 -318 1176 0
-1175 318 1176 0
-1176 0
102 103 -1177 0
-102 -103 -1177 0
102 -103 1177 0
-102 103 1177 0
1177 108 -1178 0
-1177 -108 -1178 0
1177 -108 1178 0
-1177 108 1178 0
1178 109 -1179 0
-1178 -109 -1179 0
1178 -109 1179 0
-1178 109 1179 0
1179 289 -1180 0
-1179 -289 -1180 0
1179 -289 1180 0
-1179 289 1180 0
1180 301 -1181 0
-1180 -301 -1181 0
1180 -301 1181 0
-1180 301 1181 0
1181 307 -1182 0
-1181 -307 -1182 0
1181 -307 1182 0
-1181 307 1182 0
1182 319 -1183 0
-1182 -319 -1183 0
1182 -319 1183 0
-1182 319 1183 0
-1183 0
103 104 -1184 0
-103 -104 -1184 0
103 -104 1184 0
-103 104 1184 0
1184 109 -1185 0
-1184 -109 -1185 0
1184 -109 1185 0
-1184 109 1185 0
1185 110 -1186 0
-1185 -110 -1186 0
1185 -110 1186 0
-1185 110 1186 0
1186 290 -1187 0
-1186 -290 -1187 0
1186 -290 1187 0
-1186 290 1187 0
1187 302 -1188 0
-1187 -302 -1188 0
1187 -302 1188 0
-1187 302 1188 0
1188 308 -1189 0
-1188 -308 -1189 0
1188 -308 1189 0
-1188 308 1189 0
1189 320 -1190 0
-1189 -320 -1190 0
1189 -320 1190 0
-1189 320 1190 0
-1190 0
104 105 -1191 0
-104 -105 -1191 0
104 -105 1191 0
-104 105 1191 0
1191 110 -1192 0
-1191 -110 -1192 0
1191 -110 1192 0
-1191 110 1192 0
1192 111 -1193 0
-1192 -111 -1193 0
1192 -111 1193 0
-1192 111 1193 0
1193 291 -1194 0
-1193 -291 -1194 0
1193 -291 1194 0
-1193 291 1194 0
1194 303 -1195 0
-1194 -303 -1195 0
1194 -303 1195 0
-1194 303 1195 0
1195 309 -1196 0
-1195 -309 -1196 0
1195 -309 1196 0
-1195 309 1196 0
1196 321 -1197 0
-1196 -321 -1197 0
1196 -321 1197 0
-1196 321 1197 0
-1197 0
105 106 -1198 0
-105 -106 -1198 0
105 -106 1198 0
-105 106 1198 0
1198 111 -1199 0
-1198 -111 -1199 0
1198 -111 1199 0
-1198 111 1199 0
1199 112 -1200 0
-1199 -112 -1200 0
1199 -112 1200 0
-1199 112 1200 0
1200 292 -1201 0
-1200 -292 -1201 0
1200 -292 1201 0
-1200 292 1201 0
1201 304 -1202 0
-1201 -304 -1202 0
1201 -304 1202 0
-1201 304 1202 0
1202 310 -1203 0
-1202 -310 -1203 0
1202 -310 1203 0
-1202 310 1203 0
1203 322 -1204 0
-1203 -322 -1204 0
1203 -322 1204 0
-1203 322 1204 0
-1204 0
106 107 -1205 0
-106 -107 -1205 0
106 -107 1205 0
-106 107 1205 0
1205 112 -1206 0
-1205 -112 -1206 0
1205 -112 1206 0
-1205 112 1206 0
1206 113 -1207 0
-1206 -113 -1207 0
1206 -113 1207 0
-1206 113 1207 0
1207 293 -1208 0
-1207 -293 -1208 0
1207 -293 1208 0
-1207 293 1208 0
1208 305 -1209 0
-1208 -305 -1209 0
1208 -305 1209 0
-1208 305 1209 0
1209 311 -1210 0
-1209 -311 -1210 0
1209 -311 1210 0
-1209 311 1210 0
1210 323 -1211 0
-1210 -323 -1211 0
1210 -323 1211 0
-1210 323 1211 0
-1211 0
107 108 -1212 0
-107 -108 -1212 0
107 -108 1212 0
-107 108 1212 0
1212 113 -1213 0
-1212 -113 -1213 0
1212 -113 1213 0
-1212 113 1213 0
1213 114 -1214 0
-1213 -114 -1214 0
1213 -114 1214 0
-1213 114 1214 0
1214 294 -1215 0
-1214 -294 -1215 0
1214 -294 1215 0
-1214 294 1215 0
1215 306 -1216 0
-1215 -306 -1216 0
1215 -306 1216 0
-1215 306 1216 0
1216 312 -1217 0
-1216 -312 -1217 0
1216 -312 1217 0
-1216 312 1217 0
1217 324 -1218 0
-1217 -324 -1218 0
1217 -324 1218 0
-1217 324 1218 0
-1218 0
108 109 -1219 0
-108 -109 -1219 0
108 -109 1219 0
-108 109 1219 0
1219 114 -1220 0
-1219 -114 -1220 0
1219 -114 1220 0
-1219 114 1220 0
1220 115 -1221 0
-1220 -115 -1221 0
1220 -115 1221 0
-1220 115 1221 0
1221 295 -1222 0
-1221 -295 -1222 0
1221 -295 1222 0
-1221 295 1222 0
1222 307 -1223 0
-1222 -307 -1223 0
1222 -307 1223 0
-1222 307 1223 0
1223 313 -1224 0
-1223 -313 -1224 0
1223 -313 1224 0
-1223 313 1224 0
1224 325 -1225 0
-1224 -325 -1225 0
1224 -325 1225 0
-1224 325 1225 0
-1225 0
109 110 -1226 0
-109 -110 -1226 0
109 -110 1226 0
-109 110 1226 0
1226 115 -1227 0
-1226 -115 -1227 0
1226 -115 1227 0
-1226 115 1227 0
1227 116 -1228 0
-1227 -116 -1228 0
1227 -116 1228 0
-1227 116 1228 0
1228 296 -1229 0
-1228 -296 -1229 0
1228 -296 1229 0
-1228 296 1229 0
1229 308 -1230 0
-1229 -308 -1230 0
1229 -308 1230 0
-1229 308 1230 0
1230 314 -1231 0
-1230 -314 -1231 0
1230 -314 1231 0
-1230 314 1231 0
1231 326 -1232 0
-1231 -326 -1232 0
1231 -326 1232 0
-1231 326 1232 0
-1232 0
110 111 -1233 0
-110 -111 -1233 0
110 -111 1233 0
-110 111 1233 0
1233 116 -1234 0
-1233 -116 -1234 0
1233 -116 1234 0
-1233 116 1234 0
1234 117 -1235 0
-1234 -117 -1235 0
1234 -117 1235 0
-1234 117 1235 0
1235 297 -1236 0
-1235 -297 -1236 0
1235 -297 1236 0
-1235 297 1236 0
1236 309 -1237 0
-1236 -309 -1237 0
1236 -309 1237 0
-1236 309 1237 0
1237 315 -1238 0
-1237 -315 -1238 0
1237 -315 1238 0
-1237 315 1238 0
1238 327 -1239 0
-1238 -327 -1239 0
1238 -327 1239 0
-1238 327 1239 0
-1239 0
111 112 -1240 0
-111 -112 -1240 0
111 -112 1240 0
-111 112 1240 0
1240 117 -1241 0
-1240 -117 -1241 0
1240 -117 1241 0
-1240 117 1241 0
1241 118 -1242 0
-1241 -118 -1242 0
1241 -118 1242 0
-1241 118 1242 0
1242 298 -1243 0
-1242 -298 -1243 0
1242 -298 1243 0
-1242 298 1243 0
1243 310 -1244 0
-1243 -310 -1244 0
1243 -310 1244 0
-1243 310 1244 0
1244 316 -1245 0
-1244 -316 -1245 0
1244 -316 1245 0
-1244 316 1245 0
1245 328 -1246 0
-1245 -328 -1246 0
1245 -328 1246 0
-1245 328 1246 0
-1246 0
112 113 -1247 0
-112 -113 -1247 0
112 -113 1247 0
-112 113 1247 0
1247 118 -1248 0
-1247 -118 -1248 0
1247 -118 1248 0
-1247 118 1248 0
1248 119 -1249 0
-1248 -119 -1249 0
1248 -119 1249 0
-1248 119 1249 0
1249 299 -1250 0
-1249 -299 -1250 0
1249 -299 1250 0
-1249 299 1250 0
1250 311 -1251 0
-1250 -311 -1251 0
1250 -311 1251 0
-1250 311 1251 0
1251 317 -1252 0
-1251 -317 -1252 0
1251 -317 1252 0
-1251 317 1252 0
1252 329 -1253 0
-1252 -329 -1253 0
1252 -329 1253 0
-1252 329 1253 0
-1253 0
113 114 -1254 0
-113 -114 -1254 0
113 -114 1254 0
-113 114 1254 0
1254 119 -1255 0
-1254 -119 -1255 0
1254 -119 1255 0
-1254 119 1255 0
1255 120 -1256 0
-1255 -120 -1256 0
1255 -120 1256 0
-1255 120 1256 0
1256 300 -1257 0
-1256 -300 -1257 0
1256 -300 1257 0
-1256 300 1257 0
1257 312 -1258 0
-1257 -312 -1258 0
1257 -312 1258 0
-1257 312 1258 0
1258 318 -1259 0
-1258 -318 -1259 0
1258 -318 1259 0
-1258 318 1259 0
1259 330 -1260 0
-1259 -330 -1260 0
1259 -330 1260 0
-1259 330 1260 0
-1260 0
114 115 -1261 0
-114 -115 -1261 0
114 -115 1261 0
-114 115 1261 0
1261 120 -1262 0
-1261 -120 -1262 0
1261 -120 1262 0
-1261 120 1262 0
1262 121 -1263 0
-1262 -121 -1263 0
1262 -121 1263 0
-1262 121 1263 0
1263 301 -1264 0
-1263 -301 -1264 0
1263 -301 1264 0
-1263 301 1264 0
1264 313 -1265 0
-1264 -313 -1265 0
1264 -313 1265 0
-1264 313 1265 0
1265 319 -1266 0
-1265 -319 -1266 0
1265 -319 1266 0
-1265 319 1266 0
1266 331 -1267 0
-1266 -331 -1267 0
1266 -331 1267 0
-1266 331 1267 0
-1267 0
115 116 -1268 0
-115 -116 -1268 0
115 -116 1268 0
-115 116 1268 0
1268 121 -1269 0
-1268 -121 -1269 0
1268 -121 1269 0
-1268 121 1269 0
1269 122 -1270 0
-1269 -122 -1270 0
1269 -122 1270 0
-1269 122 1270 0
1270 302 -1271 0
-1270 -302 -1271 0
1270 -302 1271 0
-1270 302 1271 0
1271 314 -1272 0
-1271 -314 -1272 0
1271 -314 1272 0
-1271 314 1272 0
1272 320 -1273 0
-1272 -320 -1273 0
1272 -320 1273 0
-1272 320 1273 0
1273 332 -1274 0
-1273 -332 -1274 0
1273 -332 1274 0
-1273 332 1274 0
-1274 0
116 117 -1275 0
-116 -117 -1275 0
116 -117 1275 0
-116 117 1275 0
1275 122 -1276 0
-1275 -122 -1276 0
1275 -122 1276 0
-1275 122 1276 0
1276 123 -1277 0
-1276 -123 -1277 0
1276 -123 1277 0
-1276 123 1277 0
1277 303 -1278 0
-1277 -303 -1278 0
1277 -303 1278 0
-1277 303 1278 0
1278 315 -1279 0
-1278 -315 -1279 0
1278 -315 1279 0
-1278 315 1279 0
1279 321 -1280 0
-1279 -321 -1280 0
1279 -321 1280 0
-1279 321 1280 0
1280 333 -1281 0
-1280 -333 -1281 0
1280 -333 1281 0
-1280 333 1281 0
-1281 0
117 118 -1282 0
-117 -118 -1282 0
117 -118 1282 0
-117 118 1282 0
1282 123 -1283 0
-1282 -123 -1283 0
1282 -123 1283 0
-1282 123 1283 0
1283 124 -1284 0
-1283 -124 -1284 0
1283 -124 1284 0
-1283 124 1284 0
1284 304 -1285 0
-1284 -304 -1285 0
1284 -304 1285 0
-1284 304 1285 0
1285 316 -1286 0
-1285 -316 -1286 0
1285 -316 1286 0
-1285 316 1286 0
1286 322 -1287 0
-1286 -322 -1287 0
1286 -322 1287 0
-1286 322 1287 0
1287 334 -1288 0
-1287 -334 -1288 0
1287 -334 1288 0
-1287 334 1288 0
-1288 0
118 119 -1289 0
-118 -119 -1289 0
118 -119 1289 0
-118 119 1289 0
1289 124 -1290 0
-1289 -124 -1290 0
1289 -124 1290 0
-1289 124 1290 0
1290 125 -1291 0
-1290 -125 -1291 0
1290 -125 1291 0
-1290 125 1291 0
1291 305 -1292 0
-1291 -305 -1292 0
1291 -305 1292 0
-1291 305 1292 0
1292 317 -1293 0
-1292 -317 -1293 0
1292 -317 1293 0
-1292 317 1293 0
1293 323 -1294 0
-1293 -323 -1294 0
1293 -323 1294 0
-1293 323 1294 0
1294 335 -1295 0
-1294 -335 -1295 0
1294 -335 1295 0
-1294 335 1295 0
-1295 0
119 120 -1296 0
-119 -120 -1296 0
119 -120 1296 0
-119 120 1296 0
1296 125 -1297 0
-1296 -125 -1297 0
1296 -125 1297 0
-1296 125 1297 0
1297 126 -1298 0
-1297 -126 -1298 0
1297 -126 1298 0
-1297 126 1298 0
1298 306 -1299 0
-1298 -306 -1299 0
1298 -306 1299 0
-1298 306 1299 0
1299 318 -1300 0
-1299 -318 -1300 0
1299 -318 1300 0
-1299 318 1300 0
1300 324 -1301 0
-1300 -324 -1301 0
1300 -324 1301 0
-1300 324 1301 0
1301 336 -1302 0
-1301 -336 -1302 0
1301 -336 1302 0
-1301 336 1302 0
-1302 0
120 121 -1303 0
-120 -121 -1303 0
120 -121 1303 0
-120 121 1303 0
1303 126 -1304 0
-1303 -126 -1304 0
1303 -126 1304 0
-1303 126 1304 0
1304 127 -1305 0
-1304 -127 -1305 0
1304 -127 1305 0
-1304 127 1305 0
1305 307 -1306 0
-1305 -307 -1306 0
1305 -307 1306 0
-1305 307 1306 0
1306 319 -1307 0
-1306 -319 -1307 0
1306 -319 1307 0
-1306 319 1307 0
1307 325 -1308 0
-1307 -325 -1308 0
1307 -325 1308 0
-1307 325 1308 0
1308 337 -1309 0
-1308 -337 -1309 0
1308 -337 1309 0
-1308 337 1309 0
-1309 0
121 122 -1310 0
-121 -122 -1310 0
121 -122 1310 0
-121 122 1310 0
1310 127 -1311 0
-1310 -127 -1311 0
1310 -127 1311 0
-1310 127 1311 0
1311 128 -1312 0
-1311 -128 -1312 0
1311 -128 1312 0
-1311 128 1312 0
1312 308 -1313 0
-1312 -308 -1313 0
1312 -308 1313 0
-1312 308 1313 0
1313 320 -1314 0
-1313 -320 -1314 0
1313 -320 1314 0
-1313 320 1314 0
1314 326 -1315 0
-1314 -326 -1315 0
1314 -326 1315 0
-1314 326 1315 0
1315 338 -1316 0
-1315 -338 -1316 0
1315 -338 1316 0
-1315 338 1316 0
-1316 0
122 123 -1317 0
-122 -123 -1317 0
122 -123 1317 0
-122 123 1317 0
1317 128 -1318 0
-1317 -128 -1318 0
1317 -128 1318 0
-1317 128 1318 0
1318 129 -1319 0
-1318 -129 -1319 0
1318 -129 1319 0
-1318 129 1319 0
1319 309 -1320 0
-1319 -309 -1320 0
1319 -309 1320 0
-1319 309 1320 0
1320 321 -1321 0
-1320 -321 -1321 0
1320 -321 1321 0
-1320 321 1321 0
1321 327 -1322 0
-1321 -327 -1322 0
1321 -327 1322 0
-1321 327 1322 0
1322 339 -1323 0
-1322 -339 -1323 0
1322 -339 1323 0
-1322 339 1323 0
-1323 0
123 124 -1324 0
-123 -124 -1324 0
123 -124 1324 0
-123 124 1324 0
1324 129 -1325 0
-1324 -129 -1325 0
1324 -129 1325 0
-1324 129 1325 0
1325 130 -1326 0
-1325 -130 -1326 0
1325 -130 1326 0
-1325 130 1326 0
1326 310 -1327 0
-1326 -310 -1327 0
1326 -310 1327 0
-1326 310 1327 0
1327 322 -1328 0
-1327 -322 -1328 0
1327 -322 1328 0
-1327 322 1328 0
1328 328 -1329 0
-1328 -328 -1329 0
1328 -328 1329 0
-1328 328 1329 0
1329 340 -1330 0
-1329 -340 -1330 0
1329 -340 1330 0
-1329 340 1330 0
-1330 0
124 125 -1331 0
-124 -125 -1331 0
124 -125 1331 0
-124 125 1331 0
1331 130 -1332 0
-1331 -130 -1332 0
1331 -130 1332 0
-1331 130 1332 0
1332 131 -1333 0
-1332 -131 -1333 0
1332 -131 1333 0
-1332 131 1333 0
1333 311 -1334 0
-1333 -311 -1334 0
1333 -311 1334 0
-1333 311 1334 0
1334 323 -1335 0
-1334 -323 -1335 0
1334 -323 1335 0
-1334 323 1335 0
1335 329 -1336 0
-1335 -329 -1336 0
1335 -329 1336 0
-1335 329 1336 0
1336 341 -1337 0
-1336 -341 -1337 0
1336 -341 1337 0
-1336 341 1337 0
-1337 0
125 126 -1338 0
-125 -126 -1338 0
125 -126 1338 0
-125 126 1338 0
1338 131 -1339 0
-1338 -131 -1339 0
1338 -131 1339 0
-1338 131 1339 0
1339 132 -1340 0
-1339 -132 -1340 0
1339 -132 1340 0
-1339 132 1340 0
1340 312 -1341 0
-1340 -312 -1341 0
1340 -312 1341 0
-1340 312 1341 0
1341 324 -1342 0
-1341 -324 -1342 0
1341 -324 1342 0
-1341 324 1342 0
1342 330 -1343 0
-1342 -330 -1343 0
1342 -330 1343 0
-1342 330 1343 0
1343 342 -1344 0
-1343 -342 -1344 0
1343 -342 1344 0
-1343 342 1344 0
-1344 0
126 127 -1345 0
-126 -127 -1345 0
126 -127 1345 0
-126 127 1345 0
1345 132 -1346 0
-1345 -132 -1346 0
1345 -132 1346 0
-1345 132 1346 0
1346 133 -1347 0
-1346 -133 -1347 0
1346 -133 1347 0
-1346 133 1347 0
1347 313 -1348 0
-1347 -313 -1348 0
1347 -313 1348 0
-1347 313 1348 0
1348 325 -1349 0
-1348 -325 -1349 0
1348 -325 1349 0
-1348 325 1349 0
1349 331 -1350 0
-1349 -331 -1350 0
1349 -331 1350 0
-1349 331 1350 0
1350 343 -1351 0
-1350 -343 -1351 0
1350 -343 1351 0
-1350 343 1351 0
-1351 0
127 128 -1352 0
-127 -128 -1352 0
127 -128 1352 0
-127 128 1352 0
1352 133 -1353 0
-1352 -133 -1353 0
1352 -133 1353 0
-1352 133 1353 0
1353 134 -1354 0
-1353 -134 -1354 0
1353 -134 1354 0
-1353 134 1354 0
1354 314 -1355 0
-1354 -314 -1355 0
1354 -314 1355 0
-1354 314 1355 0
1355 326 -1356 0
-1355 -326 -1356 0
1355 -326 1356 0
-1355 326 1356 0
1356 332 -1357 0
-1356 -332 -1357 0
1356 -332 1357 0
-1356 332 1357 0
1357 344 -1358 0
-1357 -344 -1358 0
1357 -344 1358 0
-1357 344 1358 0
-1358 0
128 129 -1359 0
-128 -129 -1359 0
128 -129 1359 0
-128 129 1359 0
1359 134 -1360 0
-1359 -134 -1360 0
1359 -134 1360 0
-1359 134 1360 0
1360 135 -1361 0
-1360 -135 -1361 0
1360 -135 1361 0
-1360 135 1361 0
1361 315 -1362 0
-1361 -315 -1362 0
1361 -315 1362 0
-1361 315 1362 0
1362 327 -1363 0
-1362 -327 -1363 0
1362 -327 1363 0
-1362 327 1363 0
1363 333 -1364 0
-1363 -333 -1364 0
1363 -333 1364 0
-1363 333 1364 0
1364 345 -1365 0
-1364 -345 -1365 0
1364 -345 1365 0
-1364 345 1365 0
-1365 0
129 130 -1366 0
-129 -130 -1366 0
129 -130 1366 0
-129 130 1366 0
1366 135 -1367 0
-1366 -135 -1367 0
1366 -135 1367 0
-1366 135 1367 0
1367 136 -1368 0
-1367 -136 -1368 0
1367 -136 1368 0
-1367 136 1368 0
1368 316 -1369 0
-1368 -316 -1369 0
1368 -316 1369 0
-1368 316 1369 0
1369 328 -1370 0
-1369 -328 -1370 0
1369 -328 1370 0
-1369 328 1370 0
1370 334 -1371 0
-1370 -334 -1371 0
1370 -334 1371 0
-1370 334 1371 0
1371 346 -1372 0
-1371 -346 -1372 0
1371 -346 1372 0
-1371 346 1372 0
-1372 0
130 131 -1373 0
-130 -131 -1373 0
130 -131 1373 0
-130 131 1373 0
1373 136 -1374 0
-1373 -136 -1374 0
1373 -136 1374 0
-1373 136 1374 0
1374 137 -1375 0
-1374 -137 -1375 0
1374 -137 1375 0
-1374 137 1375 0
1375 317 -1376 0
-1375 -317 -1376 0
1375 -317 1376 0
-1375 317 1376 0
1376 329 -1377 0
-1376 -329 -1377 0
1376 -329 1377 0
-1376 329 1377 0
1377 335 -1378 0
-1377 -335 -1378 0
1377 -335 1378 0
-1377 335 1378 0
1378 347 -1379 0
-1378 -347 -1379 0
1378 -347 1379 0
-1378 347 1379 0
-1379 0
131 132 -1380 0
-131 -132 -1380 0
131 -132 1380 0
-131 132 1380 0
1380 137 -1381 0
-1380 -137 -1381 0
1380 -137 1381 0
-1380 137 1381 0
1381 138 -1382 0
-1381 -138 -1382 0
1381 -138 1382 0
-1381 138 1382 0
1382 318 -1383 0
-1382 -318 -1383 0
1382 -318 1383 0
-1382 318 1383 0
1383 330 -1384 0
-1383 -330 -1384 0
1383 -330 1384 0
-1383 330 1384 0
1384 336 -1385 0
-1384 -336 -1385 0
1384 -336 1385 0
-1384 336 1385 0
1385 348 -1386 0
-1385 -348 -1386 0
1385 -348 1386 0
-1385 348 1386 0
-1386 0
132 133 -1387 0
-132 -133 -1387 0
132 -133 1387 0
-132 133 1387 0
1387 138 -1388 0
-1387 -138 -1388 0
1387 -138 1388 0
-1387 138 1388 0
1388 139 -1389 0
-1388 -139 -1389 0
1388 -139 1389 0
-1388 139 1389 0
1389 319 -1390 0
-1389 -319 -1390 0
1389 -319 1390 0
-1389 319 1390 0
1390 331 -1391 0
-1390 -331 -1391 0
1390 -331 1391 0
-1390 331 1391 0
1391 337 -1392 0
-1391 -337 -1392 0
1391 -337 1392 0
-1391 337 1392 0
1392 349 -1393 0
-1392 -349 -1393 0
1392 -349 1393 0
-1392 349 1393 0
-1393 0
133 134 -1394 0
-133 -134 -1394 0
133 -134 1394 0
-133 134 1394 0
1394 139 -1395 0
-1394 -139 -1395 0
1394 -139 1395 0
-1394 139 1395 0
1395 140 -1396 0
-1395 -140 -1396 0
1395 -140 1396 0
-1395 140 1396 0
1396 320 -1397 0
-1396 -320 -1397 0
1396 -320 1397 0
-1396 320 1397 0
1397 332 -1398 0
-1397 -332 -1398 0
1397 -332 1398 0
-1397 332 1398 0
1398 338 -1399 0
-1398 -338 -1399 0
1398 -338 1399 0
-1398 338 1399 0
1399 350 -1400 0
-1399 -350 -1400 0
1399 -350 1400 0
-1399 350 1400 0
-1400 0
134 135 -1401 0
-134 -135 -1401 0
134 -135 1401 0
-134 135 1401 0
1401 140 -1402 0
-1401 -140 -1402 0
1401 -140 1402 0
-1401 140 1402 0
1402 141 -1403 0
-1402 -141 -1403 0
1402 -141 1403 0
-1402 141 1403 0
1403 321 -1404 0
-1403 -321 -1404 0
1403 -321 1404 0
-1403 321 1404 0
1404 333 -1405 0
-1404 -333 -1405 0
1404 -333 1405 0
-1404 333 1405 0
1405 339 -1406 0
-1405 -339 -1406 0
1405 -339 1406 0
-1405 339 1406 0
1406 351 -1407 0
-1406 -351 -1407 0
1406 -351 1407 0
-1406 351 1407 0
-1407 0
135 136 -1408 0
-135 -136 -1408 0
135 -136 1408 0
-135 136 1408 0
1408 141 -1409 0
-1408 -141 -1409 0
1408 -141 1409 0
-1408 141 1409 0
1409 142 -1410 0
-1409 -142 -1410 0
1409 -142 1410 0
-1409 142 1410 0
1410 322 -1411 0
-1410 -322 -1411 0
1410 -322 1411 0
-1410 322 1411 0
1411 334 -1412 0
-1411 -334 -1412 0
1411 -334 1412 0
-1411 334 1412 0
1412 340 -1413 0
-1412 -340 -1413 0
1412 -340 1413 0
-1412 340 1413 0
1413 352 -1414 0
-1413 -352 -1414 0
1413 -352 1414 0
-1413 352 1414 0
-1414 0
136 137 -1415 0
-136 -137 -1415 0
136 -137 1415 0
-136 137 1415 0
1415 142 -1416 0
-1415 -142 -1416 0
1415 -142 1416 0
-1415 142 1416 0
1416 143 -1417 0
-1416 -143 -1417 0
1416 -143 1417 0
-1416 143 1417 0
1417 323 -1418 0
-1417 -323 -1418 0
1417 -323 1418 0
-1417 323 1418 0
1418 335 -1419 0
-1418 -335 -1419 0
1418 -335 1419 0
-1418 335 1419 0
1419 341 -1420 0
-1419 -341 -1420 0
1419 -341 1420 0
-1419 341 1420 0
1420 353 -1421 0
-1420 -353 -1421 0
1420 -353 1421 0
-1420 353 1421 0
-1421 0
137 138 -1422 0
-137 -138 -1422 0
137 -138 1422 0
-137 138 1422 0
1422 143 -1423 0
-1422 -143 -1423 0
1422 -143 1423 0
-1422 143 1423 0
1423 144 -1424 0
-1423 -144 -1424 0
1423 -144 1424 0
-1423 144 1424 0
1424 324 -1425 0
-1424 -324 -1425 0
1424 -324 1425 0
-1424 324 1425 0
1425 336 -1426 0
-1425 -336 -1426 0
1425 -336 1426 0
-1425 336 1426 0
1426 342 -1427 0
-1426 -342 -1427 0
1426 -342 1427 0
-1426 342 1427 0
1427 354 -1428 0
-1427 -354 -1428 0
1427 -354 1428 0
-1427 354 1428 0
-1428 0
138 139 -1429 0
-138 -139 -1429 0
138 -139 1429 0
-138 139 1429 0
1429 144 -1430 0
-1429 -144 -1430 0
1429 -144 1430 0
-1429 144 1430 0
1430 145 -1431 0
-1430 -145 -1431 0
1430 -145 1431 0
-1430 145 1431 0
1431 325 -1432 0
-1431 -325 -1432 0
1431 -325 1432 0
-1431 325 1432 0
1432 337 -1433 0
-1432 -337 -1433 0
1432 -337 1433 0
-1432 337 1433 0
1433 343 -1434 0
-1433 -343 -1434 0
1433 -343 1434 0
-1433 343 1434 0
1434 355 -1435 0
-1434 -355 -1435 0
1434 -355 1435 0
-1434 355 1435 0
-1435 0
139 140 -1436 0
-139 -140 -1436 0
139 -140 1436 0
-139 140 1436 0
1436 145 -1437 0
-1436 -145 -1437 0
1436 -145 1437 0
-1436 145 1437 0
1437 146 -1438 0
-1437 -146 -1438 0
1437 -146 1438 0
-1437 146 1438 0
1438 326 -1439 0
-1438 -326 -1439 0
1438 -326 1439 0
-1438 326 1439 0
1439 338 -1440 0
-1439 -338 -1440 0
1439 -338 1440 0
-1439 338 1440 0
1440 344 -1441 0
-1440 -344 -1441 0
1440 -344 1441 0
-1440 344 1441 0
1441 356 -1442 0
-1441 -356 -1442 0
1441 -356 1442 0
-1441 356 1442 0
-1442 0
140 141 -1443 0
-140 -141 -1443 0
140 -141 1443 0
-140 141 1443 0
1443 146 -1444 0
-1443 -146 -1444 0
1443 -146 1444 0
-1443 146 1444 0
1444 147 -1445 0
-1444 -147 -1445 0
1444 -147 1445 0
-1444 147 1445 0
1445 327 -1446 0
-1445 -327 -1446 0
1445 -327 1446 0
-1445 327 1446 0
1446 339 -1447 0
-1446 -339 -1447 0
1446 -339 1447 0
-1446 339 1447 0
1447 345 -1448 0
-1447 -345 -1448 0
1447 -345 1448 0
-1447 345 1448 0
1448 357 -1449 0
-1448 -357 -1449 0
1448 -357 1449 0
-1448 357 1449 0
-1449 0
141 142 -1450 0
-141 -142 -1450 0
141 -142 1450 0
-141 142 1450 0
1450 147 -1451 0
-1450 -147 -1451 0
1450 -147 1451 0
-1450 147 1451 0
1451 148 -1452 0
-1451 -148 -1452 0
1451 -148 1452 0
-1451 148 1452 0
1452 328 -1453 0
-1452 -328 -1453 0
1452 -328 1453 0
-1452 328 1453 0
1453 340 -1454 0
-1453 -340 -1454 0
1453 -340 1454 0
-1453 340 1454 0
1454 346 -1455 0
-1454 -346 -1455 0
1454 -346 1455 0
-1454 346 1455 0
1455 358 -1456 0
-1455 -358 -1456 0
1455 -358 1456 0
-1455 358 1456 0
-1456 0
142 143 -1457 0
-142 -143 -1457 0
142 -143 1457 0
-142 143 1457 0
1457 148 -1458 0
-1457 -148 -1458 0
1457 -148 1458 0
-1457 148 1458 0
1458 149 -1459 0
-1458 -149 -1459 0
1458 -149 1459 0
-1458 149 1459 0
1459 329 -1460 0
-1459 -329 -1460 0
1459 -329 1460 0
-1459 329 1460 0
1460 341 -1461 0
-1460 -341 -1461 0
1460 -341 1461 0
-1460 341 1461 0
1461 347 -1462 0
-1461 -347 -1462 0
1461 -347 1462 0
-1461 347 1462 0
1462 359 -1463 0
-1462 -359 -1463 0
1462 -359 1463 0
-1462 359 1463 0
-1463 0
143 144 -1464 0
-143 -144 -1464 0
143 -144 1464 0
-143 144 1464 0
1464 149 -1465 0
-1464 -149 -1465 0
1464 -149 1465 0
-1464 149 1465 0
1465 150 -1466 0
-1465 -150 -1466 0
1465 -150 1466 0
-1465 150 1466 0
1466 330 -1467 0
-1466 -330 -1467 0
1466 -330 1467 0
-1466 330 1467 0
1467 342 -1468 0
-1467 -342 -1468 0
1467 -342 1468 0
-1467 342 1468 0
1468 348 -1469 0
-1468 -348 -1469 0
1468 -348 1469 0
-1468 348 1469 0
1469 360 -1470 0
-1469 -360 -1470 0
1469 -360 1470 0
-1469 360 1470 0
-1470 0
144 145 -1471 0
-144 -145 -1471 0
144 -145 1471 0
-144 145 1471 0
1471 150 -1472 0
-1471 -150 -1472 0
1471 -150 1472 0
-1471 150 1472 0
1472 151 -1473 0
-1472 -151 -1473 0
1472 -151 1473 0
-1472 151 1473 0
1473 331 -1474 0
-1473 -331 -1474 0
1473 -331 1474 0
-1473 331 1474 0
1474 343 -1475 0
-1474 -343 -1475 0
1474 -343 1475 0
-1474 343 1475 0
1475 349 -1476 0
-1475 -349 -1476 0
1475 -349 1476 0
-1475 349 1476 0
1476 361 -1477 0
-1476 -361 -1477 0
1476 -361 1477 0
-1476 361 1477 0
-1477 0
145 146 -1478 0
-145 -146 -1478 0
145 -146 1478 0
-145 146 1478 0
1478 151 -1479 0
-1478 -151 -1479 0
1478 -151 1479 0
-1478 151 1479 0
1479 152 -1480 0
-1479 -152 -1480 0
1479 -152 1480 0
-1479 152 1480 0
1480 332 -1481 0
-1480 -332 -1481 0
1480 -332 1481 0
-1480 332 1481 0
1481 344 -1482 0
-1481 -344 -1482 0
1481 -344 1482 0
-1481 344 1482 0
1482 350 -1483 0
-1482 -350 -1483 0
1482 -350 1483 0
-1482 350 1483 0
1483 362 -1484 0
-1483 -362 -1484 0
1483 -362 1484 0
-1483 362 1484 0
-1484 0
146 147 -1485 0
-146 -147 -1485 0
146 -147 1485 0
-146 147 1485 0
1485 152 -1486 0
-1485 -152 -1486 0
1485 -152 1486 0
-1485 152 1486 0
1486 153 -1487 0
-1486 -153 -1487 0
1486 -153 1487 0
-1486 153 1487 0
1487 333 -1488 0
-1487 -333 -1488 0
1487 -333 1488 0
-1487 333 1488 0
1488 345 -1489 0
-1488 -345 -1489 0
1488 -345 1489 0
-1488 345 1489 0
1489 351 -1490 0
-1489 -351 -1490 0
1489 -351 1490 0
-1489 351 1490 0
1490 363 -1491 0
-1490 -363 -1491 0
1490 -363 1491 0
-1490 363 1491 0
-1491 0
147 148 -1492 0
-147 -148 -1492 0
147 -148 1492 0
-147 148 1492 0
1492 153 -1493 0
-1492 -153 -1493 0
1492 -153 1493 0
-1492 153 1493 0
1493 154 -1494 0
-1493 -154 -1494 0
1493 -154 1494 0
-1493 154 1494 0
1494 334 -1495 0
-1494 -334 -1495 0
1494 -334 1495 0
-1494 334 1495 0
1495 346 -1496 0
-1495 -346 -1496 0
1495 -346 1496 0
-1495 346 1496 0
1496 352 -1497 0
-1496 -352 -1497 0
1496 -352 1497 0
-1496 352 1497 0
1497 364 -1498 0
-1497 -364 -1498 0
1497 -364 1498 0
-1497 364 1498 0
-1498 0
148 149 -1499 0
-148 -149 -1499 0
148 -149 1499 0
-148 149 1499 0
1499 154 -1500 0
-1499 -154 -1500 0
1499 -154 1500 0
-1499 154 1500 0
1500 155 -1501 0
-1500 -155 -1501 0
1500 -155 1501 0
-1500 155 1501 0
1501 335 -1502 0
-1501 -335 -1502 0
1501 -335 1502 0
-1501 335 1502 0
1502 347 -1503 0
-1502 -347 -1503 0
1502 -347 1503 0
-1502 347 1503 0
1503 353 -1504 0
-1503 -353 -1504 0
1503 -353 1504 0
-1503 353 1504 0
1504 365 -1505 0
-1504 -365 -1505 0
1504 -365 1505 0
-1504 365 1505 0
-1505 0
149 150 -1506 0
-149 -150 -1506 0
149 -150 1506 0
-149 150 1506 0
1506 155 -1507 0
-1506 -155 -1507 0
1506 -155 1507 0
-1506 155 1507 0
1507 156 -1508 0
-1507 -156 -1508 0
1507 -156 1508 0
-1507 156 1508 0
1508 336 -1509 0
-1508 -336 -1509 0
1508 -336 1509 0
-1508 336 1509 0
1509 348 -1510 0
-1509 -348 -1510 0
1509 -348 1510 0
-1509 348 1510 0
1510 354 -1511 0
-1510 -354 -1511 0
1510 -354 1511 0
-1510 354 1511 0
1511 366 -1512 0
-1511 -366 -1512 0
1511 -366 1512 0
-1511 366 1512 0
-1512 0
150 151 -1513 0
-150 -151 -1513 0
150 -151 1513 0
-150 151 1513 0
1513 156 -1514 0
-1513 -156 -1514 0
1513 -156 1514 0
-1513 156 1514 0
1514 157 -1515 0
-1514 -157 -1515 0
1514 -157 1515 0
-1514 157 1515 0
1515 337 -1516 0
-1515 -337 -1516 0
1515 -337 1516 0
-1515 337 1516 0
1516 349 -1517 0
-1516 -349 -1517 0
1516 -349 1517 0
-1516 349 1517 0
1517 355 -1518 0
-1517 -355 -1518 0
1517 -355 1518 0
-1517 355 1518 0
1518 367 -1519 0
-1518 -367 -1519 0
1518 -367 1519 0
-1518 367 1519 0
-1519 0
151 152 -1520 0
-151 -152 -1520 0
151 -152 1520 0
-151 152 1520 0
1520 157 -1521 0
-1520 -157 -1521 0
1520 -157 1521 0
-1520 157 1521 0
1521 158 -1522 0
-1521 -158 -1522 0
1521 -158 1522 0
-1521 158 1522 0
1522 338 -1523 0
-1522 -338 -1523 0
1522 -338 1523 0
-1522 338 1523 0
1523 350 -1524 0
-1523 -350 -1524 0
1523 -350 1524 0
-1523 350 1524 0
1524 356 -1525 0
-1524 -356 -1525 0
1524 -356 1525 0
-1524 356 1525 0
1525 368 -1526 0
-1525 -368 -1526 0
1525 -368 1526 0
-1525 368 1526 0
-1526 0
152 153 -1527 0
-152 -153 -1527 0
152 -153 1527 0
-152 153 1527 0
1527 158 -1528 0
-1527 -158 -1528 0
1527 -158 1528 0
-1527 158 1528 0
1528 159 -1529 0
-1528 -159 -1529 0
1528 -159 1529 0
-1528 159 1529 0
1529 339 -1530 0
-1529 -339 -1530 0
1529 -339 1530 0
-1529 339 1530 0
1530 351 -1531 0
-1530 -351 -1531 0
1530 -351 1531 0
-1530 351 1531 0
1531 357 -1532 0
-1531 -357 -1532 0
1531 -357 1532 0
-1531 357 1532 0
1532 369 -1533 0
-1532 -369 -1533 0
1532 -369 1533 0
-1532 369 1533 0
-1533 0
153 154 -1534 0
-153 -154 -1534 0
153 -154 1534 0
-153 154 1534 0
1534 159 -1535 0
-1534 -159 -1535 0
1534 -159 1535 0
-1534 159 1535 0
1535 160 -1536 0
-1535 -160 -1536 0
1535 -160 1536 0
-1535 160 1536 0
1536 340 -1537 0
-1536 -340 -1537 0
1536 -340 1537 0
-1536 340 1537 0
1537 352 -1538 0
-1537 -352 -1538 0
1537 -352 1538 0
-1537 352 1538 0
1538 358 -1539 0
-1538 -358 -1539 0
1538 -358 1539 0
-1538 358 1539 0
1539 370 -1540 0
-1539 -370 -1540 0
1539 -370 1540 0
-1539 370 1540 0
-1540 0
154 155 -1541 0
-154 -155 -1541 0
154 -155 1541 0
-154 155 1541 0
1541 160 -1542 0
-1541 -160 -1542 0
1541 -160 1542 0
-1541 160 1542 0
1542 161 -1543 0
-1542 -161 -1543 0
1542 -161 1543 0
-1542 161 1543 0
1543 341 -1544 0
-1543 -341 -1544 0
1543 -341 1544 0
-1543 341 1544 0
1544 353 -1545 0
-1544 -353 -1545 0
1544 -353 1545 0
-1544 353 1545 0
1545 359 -1546 0
-1545 -359 -1546 0
1545 -359 1546 0
-1545 359 1546 0
1546 371 -1547 0
-1546 -371 -1547 0
1546 -371 1547 0
-1546 371 1547 0
-1547 0
155 156 -1548 0
-155 -156 -1548 0
155 -156 1548 0
-155 156 1548 0
1548 161 -1549 0
-1548 -161 -1549 0
1548 -161 1549 0
-1548 161 1549 0
1549 162 -1550 0
-1549 -162 -1550 0
1549 -162 1550 0
-1549 162 1550 0
1550 342 -1551 0
-1550 -342 -1551 0
1550 -342 1551 0
-1550 342 1551 0
1551 354 -1552 0
-1551 -354 -1552 0
1551 -354 1552 0
-1551 354 1552 0
1552 360 -1553 0
-1552 -360 -1553 0
1552 -360 1553 0
-1552 360 1553 0
1553 372 -1554 0
-1553 -372 -1554 0
1553 -372 1554 0
-1553 372 1554 0
-1554 0
156 157 -1555 0
-156 -157 -1555 0
156 -157 1555 0
-156 157 1555 0
1555 162 -1556 0
-1555 -162 -1556 0
1555 -162 1556 0
-1555 162 1556 0
1556 163 -1557 0
-1556 -163 -1557 0
1556 -163 1557 0
-1556 163 1557 0
1557 343 -1558 0
-1557 -343 -1558 0
1557 -343 1558 0
-1557 343 1558 0
1558 355 -1559 0
-1558 -355 -1559 0
1558 -355 1559 0
-1558 355 1559 0
1559 361 -1560 0
-1559 -361 -1560 0
1559 -361 1560 0
-1559 361 1560 0
1560 373 -1561 0
-1560 -373 -1561 0
1560 -373 1561 0
-1560 373 1561 0
-1561 0
157 158 -1562 0
-157 -158 -1562 0
157 -158 1562 0
-157 158 1562 0
1562 163 -1563 0
-1562 -163 -1563 0
1562 -163 1563 0
-1562 163 1563 0
1563 164 -1564 0
-1563 -164 -1564 0
1563 -164 1564 0
-1563 164 1564 0
1564 344 -1565 0
-1564 -344 -1565 0
1564 -344 1565 0
-1564 344 1565 0
1565 356 -1566 0
-1565 -356 -1566 0
1565 -356 1566 0
-1565 356 1566 0
1566 362 -1567 0
-1566 -362 -1567 0
1566 -362 1567 0
-1566 362 1567 0
1567 374 -1568 0
-1567 -374 -1568 0
1567 -374 1568 0
-1567 374 1568 0
-1568 0
158 159 -1569 0
-158 -159 -1569 0
158 -159 1569 0
-158 159 1569 0
1569 164 -1570 0
-1569 -164 -1570 0
1569 -164 1570 0
-1569 164 1570 0
1570 165 -1571 0
-1570 -165 -1571 0
1570 -165 1571 0
-1570 165 1571 0
1571 345 -1572 0
-1571 -345 -1572 0
1571 -345 1572 0
-1571 345 1572 0
1572 357 -1573 0
-1572 -357 -1573 0
1572 -357 1573 0
-1572 357 1573 0
1573 363 -1574 0
-1573 -363 -1574 0
1573 -363 1574 0
-1573 363 1574 0
1574 375 -1575 0
-1574 -375 -1575 0
1574 -375 1575 0
-1574 375 1575 0
-1575 0
159 160 -1576 0
-159 -160 -1576 0
159 -160 1576 0
-159 160 1576 0
1576 165 -1577 0
-1576 -165 -1577 0
1576 -165 1577 0
-1576 165 1577 0
1577 166 -1578 0
-1577 -166 -1578 0
1577 -166 1578 0
-1577 166 1578 0
1578 346 -1579 0
-1578 -346 -1579 0
1578 -346 1579 0
-1578 346 1579 0
1579 358 -1580 0
-1579 -358 -1580 0
1579 -358 1580 0
-1579 358 1580 0
1580 364 -1581 0
-1580 -364 -1581 0
1580 -364 1581 0
-1580 364 1581 0
1581 376 -1582 0
-1581 -376 -1582 0
1581 -376 1582 0
-1581 376 1582 0
-1582 0
160 161 -1583 0
-160 -161 -1583 0
160 -161 1583 0
-160 161 1583 0
1583 166 -1584 0
-1583 -166 -1584 0
1583 -166 1584 0
-1583 166 1584 0
1584 167 -1585 0
-1584 -167 -1585 0
1584 -167 1585 0
-1584 167 1585 0
1585 347 -1586 0
-1585 -347 -1586 0
1585 -347 1586 0
-1585 347 1586 0
1586 359 -1587 0
-1586 -359 -1587 0
1586 -359 1587 0
-1586 359 1587 0
1587 365 -1588 0
-1587 -365 -1588 0
1587 -365 1588 0
-1587 365 1588 0
1588 377 -1589 0
-1588 -377 -1589 0
1588 -377 1589 0
-1588 377 1589 0
-1589 0
161 162 -1590 0
-161 -162 -1590 0
161 -162 1590 0
-161 162 1590 0
1590 167 -1591 0
-1590 -167 -1591 0
1590 -167 1591 0
-1590 167 1591 0
1591 168 -1592 0
-1591 -168 -1592 0
1591 -168 1592 0
-1591 168 1592 0
1592 348 -1593 0
-1592 -348 -1593 0
1592 -348 1593 0
-1592 348 1593 0
1593 360 -1594 0
-1593 -360 -1594 0
1593 -360 1594 0
-1593 360 1594 0
1594 366 -1595 0
-1594 -366 -1595 0
1594 -366 1595 0
-1594 366 1595 0
1595 378 -1596 0
-1595 -378 -1596 0
1595 -378 1596 0
-1595 378 1596 0
-1596 0
162 163 -1597 0
-162 -163 -1597 0
162 -163 1597 0
-162 163 1597 0
1597 168 -1598 0
-1597 -168 -1598 0
1597 -168 1598 0
-1597 168 1598 0
1598 169 -1599 0
-1598 -169 -1599 0
1598 -169 1599 0
-1598 169 1599 0
1599 349 -1600 0
-1599 -349 -1600 0
1599 -349 1600 0
-1599 349 1600 0
1600 361 -1601 0
-1600 -361 -1601 0
1600 -361 1601 0
-1600 361 1601 0
1601 367 -1602 0
-1601 -367 -1602 0
1601 -367 1602 0
-1601 367 1602 0
1602 379 -1603 0
-1602 -379 -1603 0
1602 -379 1603 0
-1602 379 1603 0
-1603 0
163 164 -1604 0
-163 -164 -1604 0
163 -164 1604 0
-163 164 1604 0
1604 169 -1605 0
-1604 -169 -1605 0
1604 -169 1605 0
-1604 169 1605 0
1605 170 -1606 0
-1605 -170 -1606 0
1605 -170 1606 0
-1605 170 1606 0
1606 350 -1607 0
-1606 -350 -1607 0
1606 -350 1607 0
-1606 350 1607 0
1607 362 -1608 0
-1607 -362 -1608 0
1607 -362 1608 0
-1607 362 1608 0
1608 368 -1609 0
-1608 -368 -1609 0
1608 -368 1609 0
-1608 368 1609 0
1609 380 -1610 0
-1609 -380 -1610 0
1609 -380 1610 0
-1609 380 1610 0
-1610 0
164 165 -1611 0
-164 -165 -1611 0
164 -165 1611 0
-164 165 1611 0
1611 170 -1612 0
-1611 -170 -1612 0
1611 -170 1612 0
-1611 170 1612 0
1612 171 -1613 0
-1612 -171 -1613 0
1612 -171 1613 0
-1612 171 1613 0
1613 351 -1614 0
-1613 -351 -1614 0
1613 -351 1614 0
-1613 351 1614 0
1614 363 -1615 0
-1614 -363 -1615 0
1614 -363 1615 0
-1614 363 1615 0
1615 369 -1616 0
-1615 -369 -1616 0
1615 -369 1616 0
-1615 369 1616 0
1616 381 -1617 0
-1616 -381 -1617 0
1616 -381 1617 0
-1616 381 1617 0
-1617 0
165 166 -1618 0
-165 -166 -1618 0
165 -166 1618 0
-165 166 1618 0
1618 171 -1619 0
-1618 -171 -1619 0
1618 -171 1619 0
-1618 171 1619 0
1619 172 -1620 0
-1619 -172 -1620 0
1619 -172 1620 0
-1619 172 1620 0
1620 352 -1621 0
-1620 -352 -1621 0
1620 -352 1621 0
-1620 352 1621 0
1621 364 -1622 0
-1621 -364 -1622 0
1621 -364 1622 0
-1621 364 1622 0
1622 370 -1623 0
-1622 -370 -1623 0
1622 -370 1623 0
-1622 370 1623 0
1623 382 -1624 0
-1623 -382 -1624 0
1623 -382 1624 0
-1623 382 1624 0
-1624 0
166 167 -1625 0
-166 -167 -1625 0
166 -167 1625 0
-166 167 1625 0
1625 172 -1626 0
-1625 -172 -1626 0
1625 -172 1626 0
-1625 172 1626 0
1626 173 -1627 0
-1626 -173 -1627 0
1626 -173 1627 0
-1626 173 1627 0
1627 353 -1628 0
-1627 -353 -1628 0
1627 -353 1628 0
-1627 353 1628 0
1628 365 -1629 0
-1628 -365 -1629 0
1628 -365 1629 0
-1628 365 1629 0
1629 371 -1630 0
-1629 -371 -1630 0
1629 -371 1630 0
-1629 371 1630 0
1630 383 -1631 0
-1630 -383 -1631 0
1630 -383 1631 0
-1630 383 1631 0
-1631 0
167 168 -1632 0
-167 -168 -1632 0
167 -168 1632 0
-167 168 1632 0
1632 173 -1633 0
-1632 -173 -1633 0
1632 -173 1633 0
-1632 173 1633 0
1633 174 -1634 0
-1633 -174 -1634 0
1633 -174 1634 0
-1633 174 1634 0
1634 354 -1635 0
-1634 -354 -1635 0
1634 -354 1635 0
-1634 354 1635 0
1635 366 -1636 0
-1635 -366 -1636 0
1635 -366 1636 0
-1635 366 1636 0
1636 372 -1637 0
-1636 -372 -1637 0
1636 -372 1637 0
-1636 372 1637 0
1637 384 -1638 0
-1637 -384 -1638 0
1637 -384 1638 0
-1637 384 1638 0
-1638 0
168 169 -1639 0
-168 -169 -1639 0
168 -169 1639 0
-168 169 1639 0
1639 174 -1640 0
-1639 -174 -1640 0
1639 -174 1640 0
-1639 174 1640 0
1640 175 -1641 0
-1640 -175 -1641 0
1640 -175 1641 0
-1640 175 1641 0
1641 355 -1642 0
-1641 -355 -1642 0
1641 -355 1642 0
-1641 355 1642 0
1642 367 -1643 0
-1642 -367 -1643 0
1642 -367 1643 0
-1642 367 1643 0
1643 373 -1644 0
-1643 -373 -1644 0
1643 -373 1644 0
-1643 373 1644 0
1644 385 -1645 0
-1644 -385 -1645 0
1644 -385 1645 0
-1644 385 1645 0
-1645 0
169 170 -1646 0
-169 -170 -1646 0
169 -170 1646 0
-169 170 1646 0
1646 175 -1647 0
-1646 -175 -1647 0
1646 -175 1647 0
-1646 175 1647 0
1647 176 -1648 0
-1647 -176 -1648 0
1647 -176 1648 0
-1647 176 1648 0
1648 356 -1649 0
-1648 -356 -1649 0
1648 -356 1649 0
-1648 356 1649 0
1649 368 -1650 0
-1649 -368 -1650 0
1649 -368 1650 0
-1649 368 1650 0
1650 374 -1651 0
-1650 -374 -1651 0
1650 -374 1651 0
-1650 374 1651 0
1651 386 -1652 0
-1651 -386 -1652 0
1651 -386 1652 0
-1651 386 1652 0
-1652 0
170 171 -1653 0
-170 -171 -1653 0
170 -171 1653 0
-170 171 1653 0
1653 176 -1654 0
-1653 -176 -1654 0
1653 -176 1654 0
-1653 176 1654 0
1654 177 -1655 0
-1654 -177 -1655 0
1654 -177 1655 0
-1654 177 1655 0
1655 357 -1656 0
-1655 -357 -1656 0
1655 -357 1656 0
-1655 357 1656 0
1656 369 -1657 0
-1656 -369 -1657 0
1656 -369 1657 0
-1656 369 1657 0
1657 375 -1658 0
-1657 -375 -1658 0
1657 -375 1658 0
-1657 375 1658 0
1658 387 -1659 0
-1658 -387 -1659 0
1658 -387 1659 0
-1658 387 1659 0
-1659 0
171 172 -1660 0
-171 -172 -1660 0
171 -172 1660 0
-171 172 1660 0
1660 177 -1661 0
-1660 -177 -1661 0
1660 -177 1661 0
-1660 177 1661 0
1661 178 -1662 0
-1661 -178 -1662 0
1661 -178 1662 0
-1661 178 1662 0
1662 358 -1663 0
-1662 -358 -1663 0
1662 -358 1663 0
-1662 358 1663 0
1663 370 -1664 0
-1663 -370 -1664 0
1663 -370 1664 0
-1663 370 1664 0
1664 376 -1665 0
-1664 -376 -1665 0
1664 -376 1665 0
-1664 376 1665 0
1665 388 -1666 0
-1665 -388 -1666 0
1665 -388 1666 0
-1665 388 1666 0
-1666 0
172 173 -1667 0
-172 -173 -1667 0
172 -173 1667 0
-172 173 1667 0
1667 178 -1668 0
-1667 -178 -1668 0
1667 -178 1668 0
-1667 178 1668 0
1668 179 -1669 0
-1668 -179 -1669 0
1668 -179 1669 0
-1668 179 1669 0
1669 359 -1670 0
-1669 -359 -1670 0
1669 -359 1670 0
-1669 359 1670 0
1670 371 -1671 0
-1670 -371 -1671 0
1670 -371 1671 0
-1670 371 1671 0
1671 377 -1672 0
-1671 -377 -1672 0
1671 -377 1672 0
-1671 377 1672 0
1672 389 -1673 0
-1672 -389 -1673 0
1672 -389 1673 0
-1672 389 1673 0
-1673 0
173 174 -1674 0
-173 -174 -1674 0
173 -174 1674 0
-173 174 1674 0
1674 179 -1675 0
-1674 -179 -1675 0
1674 -179 1675 0
-1674 179 1675 0
1675 180 -1676 0
-1675 -180 -1676 0
1675 -180 1676 0
-1675 180 1676 0
1676 360 -1677 0
-1676 -360 -1677 0
1676 -360 1677 0
-1676 360 1677 0
1677 372 -1678 0
-1677 -372 -1678 0
1677 -372 1678 0
-1677 372 1678 0
1678 378 -1679 0
-1678 -378 -1679 0
1678 -378 1679 0
-1678 378 1679 0
1679 390 -1680 0
-1679 -390 -1680 0
1679 -390 1680 0
-1679 390 1680 0
-1680 0
174 175 -1681 0
-174 -175 -1681 0
174 -175 1681 0
-174 175 1681 0
1681 180 -1682 0
-1681 -180 -1682 0
1681 -180 1682 0
-1681 180 1682 0
1682 181 -1683 0
-1682 -181 -1683 0
1682 -181 1683 0
-1682 181 1683 0
1683 361 -1684 0
-1683 -361 -1684 0
1683 -361 1684 0
-1683 361 1684 0
1684 373 -1685 0
-1684 -373 -1685 0
1684 -373 1685 0
-1684 373 1685 0
1685 379 -1686 0
-1685 -379 -1686 0
1685 -379 1686 0
-1685 379 1686 0
1686 391 -1687 0
-1686 -391 -1687 0
1686 -391 1687 0
-1686 391 1687 0
-1687 0
175 176 -1688 0
-175 -176 -1688 0
175 -176 1688 0
-175 176 1688 0
1688 181 -1689 0
-1688 -181 -1689 0
1688 -181 1689 0
-1688 181 1689 0
1689 182 -1690 0
-1689 -182 -1690 0
1689 -182 1690 0
-1689 182 1690 0
1690 362 -1691 0
-1690 -362 -1691 0
1690 -362 1691 0
-1690 362 1691 0
1691 374 -1692 0
-1691 -374 -1692 0
1691 -374 1692 0
-1691 374 1692 0
1692 380 -1693 0
-1692 -380 -1693 0
1692 -380 1693 0
-1692 380 1693 0
1693 392 -1694 0
-1693 -392 -1694 0
1693 -392 1694 0
-1693 392 1694 0
-1694 0
176 177 -1695 0
-176 -177 -1695 0
176 -177 1695 0
-176 177 1695 0
1695 182 -1696 0
-1695 -182 -1696 0
1695 -182 1696 0
-1695 182 1696 0
1696 183 -1697 0
-1696 -183 -1697 0
1696 -183 1697 0
-1696 183 1697 0
1697 363 -1698 0
-1697 -363 -1698 0
1697 -363 1698 0
-1697 363 1698 0
1698 375 -1699 0
-1698 -375 -1699 0
1698 -375 1699 0
-1698 375 1699 0
1699 381 -1700 0
-1699 -381 -1700 0
1699 -381 1700 0
-1699 381 1700 0
1700 393 -1701 0
-1700 -393 -1701 0
1700 -393 1701 0
-1700 393 1701 0
-1701 0
177 178 -1702 0
-177 -178 -1702 0
177 -178 1702 0
-177 178 1702 0
1702 183 -1703 0
-1702 -183 -1703 0
1702 -183 1703 0
-1702 183 1703 0
1703 184 -1704 0
-1703 -184 -1704 0
1703 -184 1704 0
-1703 184 1704 0
1704 364 -1705 0
-1704 -364 -1705 0
1704 -364 1705 0
-1704 364 1705 0
1705 376 -1706 0
-1705 -376 -1706 0
1705 -376 1706 0
-1705 376 1706 0
1706 382 -1707 0
-1706 -382 -1707 0
1706 -382 1707 0
-1706 382 1707 0
1707 394 -1708 0
-1707 -394 -1708 0
1707 -394 1708 0
-1707 394 1708 0
-1708 0
178 179 -1709 0
-178 -179 -1709 0
178 -179 1709 0
-178 179 1709 0
1709 184 -1710 0
-1709 -184 -1710 0
1709 -184 1710 0
-1709 184 1710 0
1710 185 -1711 0
-1710 -185 -1711 0
1710 -185 1711 0
-1710 185 1711 0
1711 365 -1712 0
-1711 -365 -1712 0
1711 -365 1712 0
-1711 365 1712 0
1712 377 -1713 0
-1712 -377 -1713 0
1712 -377 1713 0
-1712 377 1713 0
1713 383 -1714 0
-1713 -383 -1714 0
1713 -383 1714 0
-1713 383 1714 0
1714 395 -1715 0
-1714 -395 -1715 0
1714 -395 1715 0
-1714 395 1715 0
-1715 0
179 180 -1716 0
-179 -180 -1716 0
179 -180 1716 0
-179 180 1716 0
1716 185 -1717 0
-1716 -185 -1717 0
1716 -185 1717 0
-1716 185 1717 0
1717 186 -1718 0
-1717 -186 -1718 0
1717 -186 1718 0
-1717 186 1718 0
1718 366 -1719 0
-1718 -366 -1719 0
1718 -366 1719 0
-1718 366 1719 0
1719 378 -1720 0
-1719 -378 -1720 0
1719 -378 1720 0
-1719 378 1720 0
1720 384 -1721 0
-1720 -384 -1721 0
1720 -384 1721 0
-1720 384 1721 0
1721 396 -1722 0
-1721 -396 -1722 0
1721 -396 1722 0
-1721 396 1722 0
-1722 0
180 181 -1723 0
-180 -181 -1723 0
180 -181 1723 0
-180 181 1723 0
1723 186 -1724 0
-1723 -186 -1724 0
1723 -186 1724 0
-1723 186 1724 0
1724 187 -1725 0
-1724 -187 -1725 0
1724 -187 1725 0
-1724 187 1725 0
1725 367 -1726 0
-1725 -367 -1726 0
1725 -367 1726 0
-1725 367 1726 0
1726 379 -1727 0
-1726 -379 -1727 0
1726 -379 1727 0
-1726 379 1727 0
1727 385 -1728 0
-1727 -385 -1728 0
1727 -385 1728 0
-1727 385 1728 0
1728 397 -1729 0
-1728 -397 -1729 0
1728 -397 1729 0
-1728 397 1729 0
-1729 0
181 182 -1730 0
-181 -182 -1730 0
181 -182 1730 0
-181 182 1730 0
1730 187 -1731 0
-1730 -187 -1731 0
1730 -187 1731 0
-1730 187 1731 0
1731 188 -1732 0
-1731 -188 -1732 0
1731 -188 1732 0
-1731 188 1732 0
1732 368 -1733 0
-1732 -368 -1733 0
1732 -368 1733 0
-1732 368 1733 0
1733 380 -1734 0
-1733 -380 -1734 0
1733 -380 1734 0
-1733 380 1734 0
1734 386 -1735 0
-1734 -386 -1735 0
1734 -386 1735 0
-1734 386 1735 0
1735 398 -1736 0
-1735 -398 -1736 0
1735 -398 1736 0
-1735 398 1736 0
-1736 0
182 183 -1737 0
-182 -183 -1737 0
182 -183 1737 0
-182 183 1737 0
1737 188 -1738 0
-1737 -188 -1738 0
1737 -188 1738 0
-1737 188 1738 0
1738 189 -1739 0
-1738 -189 -1739 0
1738 -189 1739 0
-1738 189 1739 0
1739 369 -1740 0
-1739 -369 -1740 0
1739 -369 1740 0
-1739 369 1740 0
1740 381 -1741 0
-1740 -381 -1741 0
1740 -381 1741 0
-1740 381 1741 0
1741 387 -1742 0
-1741 -387 -1742 0
1741 -387 1742 0
-1741 387 1742 0
1742 399 -1743 0
-1742 -399 -1743 0
1742 -399 1743 0
-1742 399 1743 0
-1743 0
183 184 -1744 0
-183 -184 -1744 0
183 -184 1744 0
-183 184 1744 0
1744 189 -1745 0
-1744 -189 -1745 0
1744 -189 1745 0
-1744 189 1745 0
1745 190 -1746 0
-1745 -190 -1746 0
1745 -190 1746 0
-1745 190 1746 0
1746 370 -1747 0
-1746 -370 -1747 0
1746 -370 1747 0
-1746 370 1747 0
1747 382 -1748 0
-1747 -382 -1748 0
1747 -382 1748 0
-1747 382 1748 0
1748 388 -1749 0
-1748 -388 -1749 0
1748 -388 1749 0
-1748 388 1749 0
1749 400 -1750 0
-1749 -400 -1750 0
1749 -400 1750 0
-1749 400 1750 0
-1750 0
184 185 -1751 0
-184 -185 -1751 0
184 -185 1751 0
-184 185 1751 0
1751 190 -1752 0
-1751 -190 -1752 0
1751 -190 1752 0
-1751 190 1752 0
1752 191 -1753 0
-1752 -191 -1753 0
1752 -191 1753 0
-1752 191 1753 0
1753 371 -1754 0
-1753 -371 -1754 0
1753 -371 1754 0
-1753 371 1754 0
1754 383 -1755 0
-1754 -383 -1755 0
1754 -383 1755 0
-1754 383 1755 0
1755 389 -1756 0
-1755 -389 -1756 0
1755 -389 1756 0
-1755 389 1756 0
1756 401 -1757 0
-1756 -401 -1757 0
1756 -401 1757 0
-1756 401 1757 0
-1757 0
185 186 -1758 0
-185 -186 -1758 0
185 -186 1758 0
-185 186 1758 0
1758 191 -1759 0
-1758 -191 -1759 0
1758 -191 1759 0
-1758 191 1759 0
1759 192 -1760 0
-1759 -192 -1760 0
1759 -192 1760 0
-1759 192 1760 0
1760 372 -1761 0
-1760 -372 -1761 0
1760 -372 1761 0
-1760 372 1761 0
1761 384 -1762 0
-1761 -384 -1762 0
1761 -384 1762 0
-1761 384 1762 0
1762 390 -1763 0
-1762 -390 -1763 0
1762 -390 1763 0
-1762 390 1763 0
1763 402 -1764 0
-1763 -402 -1764 0
1763 -402 1764 0
-1763 402 1764 0
-1764 0
186 187 -1765 0
-186 -187 -1765 0
186 -187 1765 0
-186 187 1765 0
1765 192 -1766 0
-1765 -192 -1766 0
1765 -192 1766 0
-1765 192 1766 0
1766 193 -1767 0
-1766 -193 -1767 0
1766 -193 1767 0
-1766 193 1767 0
1767 373 -1768 0
-1767 -373 -1768 0
1767 -373 1768 0
-1767 373 1768 0
1768 385 -1769 0
-1768 -385 -1769 0
1768 -385 1769 0
-1768 385 1769 0
1769 391 -1770 0
-1769 -391 -1770 0
1769 -391 1770 0
-1769 391 1770 0
1770 403 -1771 0
-1770 -403 -1771 0
1770 -403 1771 0
-1770 403 1771 0
-1771 0
187 188 -1772 0
-187 -188 -1772 0
187 -188 1772 0
-187 188 1772 0
1772 193 -1773 0
-1772 -193 -1773 0
1772 -193 1773 0
-1772 193 1773 0
1773 194 -1774 0
-1773 -194 -1774 0
1773 -194 1774 0
-1773 194 1774 0
1774 374 -1775 0
-1774 -374 -1775 0
1774 -374 1775 0
-1774 374 1775 0
1775 386 -1776 0
-1775 -386 -1776 0
1775 -386 1776 0
-1775 386 1776 0
1776 392 -1777 0
-1776 -392 -1777 0
1776 -392 1777 0
-1776 392 1777 0
1777 404 -1778 0
-1777 -404 -1778 0
1777 -404 1778 0
-1777 404 1778 0
-1778 0
188 189 -1779 0
-188 -189 -1779 0
188 -189 1779 0
-188 189 1779 0
1779 194 -1780 0
-1779 -194 -1780 0
1779 -194 1780 0
-1779 194 1780 0
1780 195 -1781 0
-1780 -195 -1781 0
1780 -195 1781 0
-1780 195 1781 0
1781 375 -1782 0
-1781 -375 -1782 0
1781 -375 1782 0
-1781 375 1782 0
1782 387 -1783 0
-1782 -387 -1783 0
1782 -387 1783 0
-1782 387 1783 0
1783 393 -1784 0
-1783 -393 -1784 0
1783 -393 1784 0
-1783 393 1784 0
1784 405 -1785 0
-1784 -405 -1785 0
1784 -405 1785 0
-1784 405 1785 0
-1785 0
189 190 -1786 0
-189 -190 -1786 0
189 -190 1786 0
-189 190 1786 0
1786 195 -1787 0
-1786 -195 -1787 0
1786 -195 1787 0
-1786 195 1787 0
1787 196 -1788 0
-1787 -196 -1788 0
1787 -196 1788 0
-1787 196 1788 0
1788 376 -1789 0
-1788 -376 -1789 0
1788 -376 1789 0
-1788 376 1789 0
1789 388 -1790 0
-1789 -388 -1790 0
1789 -388 1790 0
-1789 388 1790 0
1790 394 -1791 0
-1790 -394 -1791 0
1790 -394 1791 0
-1790 394 1791 0
1791 406 -1792 0
-1791 -406 -1792 0
1791 -406 1792 0
-1791 406 1792 0
-1792 0
190 191 -1793 0
-190 -191 -1793 0
190 -191 1793 0
-190 191 1793 0
1793 196 -1794 0
-1793 -196 -1794 0
1793 -196 1794 0
-1793 196 1794 0
1794 197 -1795 0
-1794 -197 -1795 0
1794 -197 1795 0
-1794 197 1795 0
1795 377 -1796 0
-1795 -377 -1796 0
1795 -377 1796 0
-1795 377 1796 0
1796 389 -1797 0
-1796 -389 -1797 0
1796 -389 1797 0
-1796 389 1797 0
1797 395 -1798 0
-1797 -395 -1798 0
1797 -395 1798 0
-1797 395 1798 0
1798 407 -1799 0
-1798 -407 -1799 0
1798 -407 1799 0
-1798 407 1799 0
-1799 0
191 192 -1800 0
-191 -192 -1800 0
191 -192 1800 0
-191 192 1800 0
1800 197 -1801 0
-1800 -197 -1801 0
1800 -197 1801 0
-1800 197 1801 0
1801 198 -1802 0
-1801 -198 -1802 0
1801 -198 1802 0
-1801 198 1802 0
1802 378 -1803 0
-1802 -378 -1803 0
1802 -378 1803 0
-1802 378 1803 0
1803 390 -1804 0
-1803 -390 -1804 0
1803 -390 1804 0
-1803 390 1804 0
1804 396 -1805 0
-1804 -396 -1805 0
1804 -396 1805 0
-1804 396 1805 0
1805 408 -1806 0
-1805 -408 -1806 0
1805 -408 1806 0
-1805 408 1806 0
-1806 0
192 193 -1807 0
-192 -193 -1807 0
192 -193 1807 0
-192 193 1807 0
1807 198 -1808 0
-1807 -198 -1808 0
1807 -198 1808 0
-1807 198 1808 0
1808 199 -1809 0
-1808 -199 -1809 0
1808 -199 1809 0
-1808 199 1809 0
1809 379 -1810 0
-1809 -379 -1810 0
1809 -379 1810 0
-1809 379 1810 0
1810 391 -1811 0
-1810 -391 -1811 0
1810 -391 1811 0
-1810 391 1811 0
1811 397 -1812 0
-1811 -397 -1812 0
1811 -397 1812 0
-1811 397 1812 0
1812 409 -1813 0
-1812 -409 -1813 0
1812 -409 1813 0
-1812 409 1813 0
-1813 0
193 194 -1814 0
-193 -194 -1814 0
193 -194 1814 0
-193 194 1814 0
1814 199 -1815 0
-1814 -199 -1815 0
1814 -199 1815 0
-1814 199 1815 0
1815 200 -1816 0
-1815 -200 -1816 0
1815 -200 1816 0
-1815 200 1816 0
1816 380 -1817 0
-1816 -380 -1817 0
1816 -380 1817 0
-1816 380 1817 0
1817 392 -1818 0
-1817 -392 -1818 0
1817 -392 1818 0
-1817 392 1818 0
1818 398 -1819 0
-1818 -398 -1819 0
1818 -398 1819 0
-1818 398 1819 0
1819 410 -1820 0
-1819 -410 -1820 0
1819 -410 1820 0
-1819 410 1820 0
-1820 0
194 195 -1821 0
-194 -195 -1821 0
194 -195 1821 0
-194 195 1821 0
1821 200 -1822 0
-1821 -200 -1822 0
1821 -200 1822 0
-1821 200 1822 0
1822 201 -1823 0
-1822 -201 -1823 0
1822 -201 1823 0
-1822 201 1823 0
1823 381 -1824 0
-1823 -381 -1824 0
1823 -381 1824 0
-1823 381 1824 0
1824 393 -1825 0
-1824 -393 -1825 0
1824 -393 1825 0
-1824 393 1825 0
1825 399 -1826 0
-1825 -399 -1826 0
1825 -399 1826 0
-1825 399 1826 0
1826 411 -1827 0
-1826 -411 -1827 0
1826 -411 1827 0
-1826 411 1827 0
-1827 0
195 196 -1828 0
-195 -196 -1828 0
195 -196 1828 0
-195 196 1828 0
1828 201 -1829 0
-1828 -201 -1829 0
1828 -201 1829 0
-1828 201 1829 0
1829 202 -1830 0
-1829 -202 -1830 0
1829 -202 1830 0
-1829 202 1830 0
1830 382 -1831 0
-1830 -382 -1831 0
1830 -382 1831 0
-1830 382 1831 0
1831 394 -1832 0
-1831 -394 -1832 0
1831 -394 1832 0
-1831 394 1832 0
1832 400 -1833 0
-1832 -400 -1833 0
1832 -400 1833 0
-1832 400 1833 0
1833 412 -1834 0
-1833 -412 -1834 0
1833 -412 1834 0
-1833 412 1834 0
-1834 0
196 197 -1835 0
-196 -197 -1835 0
196 -197 1835 0
-196 197 1835 0
1835 202 -1836 0
-1835 -202 -1836 0
1835 -202 1836 0
-1835 202 1836 0
1836 203 -1837 0
-1836 -203 -1837 0
1836 -203 1837 0
-1836 203 1837 0
1837 383 -1838 0
-1837 -383 -1838 0
1837 -383 1838 0
-1837 383 1838 0
1838 395 -1839 0
-1838 -395 -1839 0
1838 -395 1839 0
-1838 395 1839 0
1839 401 -1840 0
-1839 -401 -1840 0
1839 -401 1840 0
-1839 401 1840 0
1840 413 -1841 0
-1840 -413 -1841 0
1840 -413 1841 0
-1840 413 1841 0
-1841 0
197 198 -1842 0
-197 -198 -1842 0
197 -198 1842 0
-197 198 1842 0
1842 203 -1843 0
-1842 -203 -1843 0
1842 -203 1843 0
-1842 203 1843 0
1843 204 -1844 0
-1843 -204 -1844 0
1843 -204 1844 0
-1843 204 1844 0
1844 384 -1845 0
-1844 -384 -1845 0
1844 -384 1845 0
-1844 384 1845 0
1845 396 -1846 0
-1845 -396 -1846 0
1845 -396 1846 0
-1845 396 1846 0
1846 402 -1847 0
-1846 -402 -1847 0
1846 -402 1847 0
-1846 402 1847 0
1847 414 -1848 0
-1847 -414 -1848 0
1847 -414 1848 0
-1847 414 1848 0
-1848 0
198 199 -1849 0
-198 -199 -1849 0
198 -199 1849 0
-198 199 1849 0
1849 204 -1850 0
-1849 -204 -1850 0
1849 -204 1850 0
-1849 204 1850 0
1850 205 -1851 0
-1850 -205 -1851 0
1850 -205 1851 0
-1850 205 1851 0
1851 385 -1852 0
-1851 -385 -1852 0
1851 -385 1852 0
-1851 385 1852 0
1852 397 -1853 0
-1852 -397 -1853 0
1852 -397 1853 0
-1852 397 1853 0
1853 403 -1854 0
-1853 -403 -1854 0
1853 -403 1854 0
-1853 403 1854 0
1854 415 -1855 0
-1854 -415 -1855 0
1854 -415 1855 0
-1854 415 1855 0
-1855 0
199 200 -1856 0
-199 -200 -1856 0
199 -200 1856 0
-199 200 1856 0
1856 205 -1857 0
-1856 -205 -1857 0
1856 -205 1857 0
-1856 205 1857 0
1857 206 -1858 0
-1857 -206 -1858 0
1857 -206 1858 0
-1857 206 1858 0
1858 386 -1859 0
-1858 -386 -1859 0
1858 -386 1859 0
-1858 386 1859 0
1859 398 -1860 0
-1859 -398 -1860 0
1859 -398 1860 0
-1859 398 1860 0
1860 404 -1861 0
-1860 -404 -1861 0
1860 -404 1861 0
-1860 404 1861 0
1861 416 -1862 0
-1861 -416 -1862 0
1861 -416 1862 0
-1861 416 1862 0
-1862 0
200 201 -1863 0
-200 -201 -1863 0
200 -201 1863 0
-200 201 1863 0
1863 206 -1864 0
-1863 -206 -1864 0
1863 -206 1864 0
-1863 206 1864 0
1864 207 -1865 0
-1864 -207 -1865 0
1864 -207 1865 0
-1864 207 1865 0
1865 387 -1866 0
-1865 -387 -1866 0
1865 -387 1866 0
-1865 387 1866 0
1866 399 -1867 0
-1866 -399 -1867 0
1866 -399 1867 0
-1866 399 1867 0
1867 405 -1868 0
-1867 -405 -1868 0
1867 -405 1868 0
-1867 405 1868 0
1868 417 -1869 0
-1868 -417 -1869 0
1868 -417 1869 0
-1868 417 1869 0
-1869 0
201 202 -1870 0
-201 -202 -1870 0
201 -202 1870 0
-201 202 1870 0
1870 207 -1871 0
-1870 -207 -1871 0
1870 -207 1871 0
-1870 207 1871 0
1871 208 -1872 0
-1871 -208 -1872 0
1871 -208 1872 0
-1871 208 1872 0
1872 388 -1873 0
-1872 -388 -1873 0
1872 -388 1873 0
-1872 388 1873 0
1873 400 -1874 0
-1873 -400 -1874 0
1873 -400 1874 0
-1873 400 1874 0
1874 406 -1875 0
-1874 -406 -1875 0
1874 -406 1875 0
-1874 406 1875 0
1875 418 -1876 0
-1875 -418 -1876 0
1875 -418 1876 0
-1875 418 1876 0
-1876 0
202 203 -1877 0
-202 -203 -1877 0
202 -203 1877 0
-202 203 1877 0
1877 208 -1878 0
-1877 -208 -1878 0
1877 -208 1878 0
-1877 208 1878 0
1878 209 -1879 0
-1878 -209 -1879 0
1878 -209 1879 0
-1878 209 1879 0
1879 389 -1880 0
-1879 -389 -1880 0
1879 -389 1880 0
-1879 389 1880 0
1880 401 -1881 0
-1880 -401 -1881 0
1880 -401 1881 0
-1880 401 1881 0
1881 407 -1882 0
-1881 -407 -1882 0
1881 -407 1882 0
-1881 407 1882 0
1882 419 -1883 0
-1882 -419 -1883 0
1882 -419 1883 0
-1882 419 1883 0
-1883 0
203 204 -1884 0
-203 -204 -1884 0
203 -204 1884 0
-203 204 1884 0
1884 209 -1885 0
-1884 -209 -1885 0
1884 -209 1885 0
-1884 209 1885 0
1885 210 -1886 0
-1885 -210 -1886 0
1885 -210 1886 0
-1885 210 1886 0
1886 390 -1887 0
-1886 -390 -1887 0
1886 -390 1887 0
-1886 390 1887 0
1887 402 -1888 0
-1887 -402 -1888 0
1887 -402 1888 0
-1887 402 1888 0
1888 408 -1889 0
-1888 -408 -1889 0
1888 -408 1889 0
-1888 408 1889 0
1889 420 -1890 0
-1889 -420 -1890 0
1889 -420 1890 0
-1889 420 1890 0
-1890 0
1 217 -1891 0
-1 -217 -1891 0
1 -217 1891 0
-1 217 1891 0
1891 223 -1892 0
-1891 -223 -1892 0
1891 -223 1892 0
-1891 223 1892 0
1892 229 -1893 0
-1892 -229 -1893 0
1892 -229 1893 0
-1892 229 1893 0
1893 235 -1894 0
-1893 -235 -1894 0
1893 -235 1894 0
-1893 235 1894 0
1894 241 -1895 0
-1894 -241 -1895 0
1894 -241 1895 0
-1894 241 1895 0
1895 247 -1896 0
-1895 -247 -1896 0
1895 -247 1896 0
-1895 247 1896 0
1896 253 -1897 0
-1896 -253 -1897 0
1896 -253 1897 0
-1896 253 1897 0
1897 259 -1898 0
-1897 -259 -1898 0
1897 -259 1898 0
-1897 259 1898 0
1898 265 -1899 0
-1898 -265 -1899 0
1898 -265 1899 0
-1898 265 1899 0
1899 271 -1900 0
-1899 -271 -1900 0
1899 -271 1900 0
-1899 271 1900 0
1900 277 -1901 0
-1900 -277 -1901 0
1900 -277 1901 0
-1900 277 1901 0
1901 283 -1902 0
-1901 -283 -1902 0
1901 -283 1902 0
-1901 283 1902 0
1902 289 -1903 0
-1902 -289 -1903 0
1902 -289 1903 0
-1902 289 1903 0
1903 295 -1904 0
-1903 -295 -1904 0
1903 -295 1904 0
-1903 295 1904 0
1904 301 -1905 0
-1904 -301 -1905 0
1904 -301 1905 0
-1904 301 1905 0
1905 307 -1906 0
-1905 -307 -1906 0
1905 -307 1906 0
-1905 307 1906 0
1906 313 -1907 0
-1906 -313 -1907 0
1906 -313 1907 0
-1906 313 1907 0
1907 319 -1908 0
-1907 -319 -1908 0
1907 -319 1908 0
-1907 319 1908 0
1908 325 -1909 0
-1908 -325 -1909 0
1908 -325 1909 0
-1908 325 1909 0
1909 331 -1910 0
-1909 -331 -1910 0
1909 -331 1910 0
-1909 331 1910 0
1910 337 -1911 0
-1910 -337 -1911 0
1910 -337 1911 0
-1910 337 1911 0
1911 343 -1912 0
-1911 -343 -1912 0
1911 -343 1912 0
-1911 343 1912 0
1912 349 -1913 0
-1912 -349 -1913 0
1912 -349 1913 0
-1912 349 1913 0
1913 355 -1914 0
-1913 -355 -1914 0
1913 -355 1914 0
-1913 355 1914 0
1914 361 -1915 0
-1914 -361 -1915 0
1914 -361 1915 0
-1914 361 1915 0
1915 367 -1916 0
-1915 -367 -1916 0
1915 -367 1916 0
-1915 367 1916 0
1916 373 -1917 0
-1916 -373 -1917 0
1916 -373 1917 0
-1916 373 1917 0
1917 379 -1918 0
-1917 -379 -1918 0
1917 -379 1918 0
-1917 379 1918 0
1918 385 -1919 0
-1918 -385 -1919 0
1918 -385 1919 0
-1918 385 1919 0
1919 391 -1920 0
-1919 -391 -1920 0
1919 -391 1920 0
-1919 391 1920 0
1920 397 -1921 0
-1920 -397 -1921 0
1920 -397 1921 0
-1920 397 1921 0
1921 398 -1922 0
-1921 -398 -1922 0
1921 -398 1922 0
-1921 398 1922 0
1922 399 -1923 0
-1922 -399 -1923 0
1922 -399 1923 0
-1922 399 1923 0
1923 400 -1924 0
-1923 -400 -1924 0
1923 -400 1924 0
-1923 400 1924 0
1924 401 -1925 0
-1924 -401 -1925 0
1924 -401 1925 0
-1924 401 1925 0
1925 402 -1926 0
-1925 -402 -1926 0
1925 -402 1926 0
-1925 402 1926 0
1926 409 -1927 0
-1926 -409 -1927 0
1926 -409 1927 0
-1926 409 1927 0
1927 415 -1928 0
-1927 -415 -1928 0
1927 -415 1928 0
-1927 415 1928 0
1928 416 -1929 0
-1928 -416 -1929 0
1928 -416 1929 0
-1928 416 1929 0
1929 417 -1930 0
-1929 -417 -1930 0
1929 -417 1930 0
-1929 417 1930 0
1930 418 -1931 0
-1930 -418 -1931 0
1930 -418 1931 0
-1930 418 1931 0
1931 419 -1932 0
-1931 -419 -1932 0
1931 -419 1932 0
-1931 419 1932 0
1932 420 -1933 0
-1932 -420 -1933 0
1932 -420 1933 0
-1932 420 1933 0
2 217 -1934 0
-2 -217 -1934 0
2 -217 1934 0
-2 217 1934 0
1934 218 -1935 0
-1934 -218 -1935 0
1934 -218 1935 0
-1934 218 1935 0
1935 223 -1936 0
-1935 -223 -1936 0
1935 -223 1936 0
-1935 223 1936 0
1936 224 -1937 0
-1936 -224 -1937 0
1936 -224 1937 0
-1936 224 1937 0
1937 229 -1938 0
-1937 -229 -1938 0
1937 -229 1938 0
-1937 229 1938 0
1938 230 -1939 0
-1938 -230 -1939 0
1938 -230 1939 0
-1938 230 1939 0
1939 235 -1940 0
-1939 -235 -1940 0
1939 -235 1940 0
-1939 235 1940 0
1940 236 -1941 0
-1940 -236 -1941 0
1940 -236 1941 0
-1940 236 1941 0
1941 241 -1942 0
-1941 -241 -1942 0
1941 -241 1942 0
-1941 241 1942 0
1942 242 -1943 0
-1942 -242 -1943 0
1942 -242 1943 0
-1942 242 1943 0
1943 247 -1944 0
-1943 -247 -1944 0
1943 -247 1944 0
-1943 247 1944 0
1944 248 -1945 0
-1944 -248 -1945 0
1944 -248 1945 0
-1944 248 1945 0
1945 253 -1946 0
-1945 -253 -1946 0
1945 -253 1946 0
-1945 253 1946 0
1946 254 -1947 0
-1946 -254 -1947 0
1946 -254 1947 0
-1946 254 1947 0
1947 259 -1948 0
-1947 -259 -1948 0
1947 -259 1948 0
-1947 259 1948 0
1948 260 -1949 0
-1948 -260 -1949 0
1948 -260 1949 0
-1948 260 1949 0
1949 265 -1950 0
-1949 -265 -1950 0
1949 -265 1950 0
-1949 265 1950 0
1950 266 -1951 0
-1950 -266 -1951 0
1950 -266 1951 0
-1950 266 1951 0
1951 271 -1952 0
-1951 -271 -1952 0
1951 -271 1952 0
-1951 271 1952 0
1952 272 -1953 0
-1952 -272 -1953 0
1952 -272 1953 0
-1952 272 1953 0
1953 277 -1954 0
-1953 -277 -1954 0
1953 -277 1954 0
-1953 277 1954 0
1954 278 -1955 0
-1954 -278 -1955 0
1954 -278 1955 0
-1954 278 1955 0
1955 283 -1956 0
-1955 -283 -1956 0
1955 -283 1956 0
-1955 283 1956 0
1956 284 -1957 0
-1956 -284 -1957 0
1956 -284 1957 0
-1956 284 1957 0
1957 289 -1958 0
-1957 -289 -1958 0
1957 -289 1958 0
-1957 289 1958 0
1958 290 -1959 0
-1958 -290 -1959 0
1958 -290 1959 0
-1958 290 1959 0
1959 295 -1960 0
-1959 -295 -1960 0
1959 -295 1960 0
-1959 295 1960 0
1960 296 -1961 0
-1960 -296 -1961 0
1960 -296 1961 0
-1960 296 1961 0
1961 301 -1962 0
-1961 -301 -1962 0
1961 -301 1962 0
-1961 301 1962 0
1962 302 -1963 0
-1962 -302 -1963 0
1962 -302 1963 0
-1962 302 1963 0
1963 307 -1964 0
-1963 -307 -1964 0
1963 -307 1964 0
-1963 307 1964 0
1964 308 -1965 0
-1964 -308 -1965 0
1964 -308 1965 0
-1964 308 1965 0
1965 313 -1966 0
-1965 -313 -1966 0
1965 -313 1966 0
-1965 313 1966 0
1966 314 -1967 0
-1966 -314 -1967 0
1966 -314 1967 0
-1966 314 1967 0
1967 319 -1968 0
-1967 -319 -1968 0
1967 -319 1968 0
-1967 319 1968 0
1968 320 -1969 0
-1968 -320 -1969 0
1968 -320 1969 0
-1968 320 1969 0
1969 325 -1970 0
-1969 -325 -1970 0
1969 -325 1970 0
-1969 325 1970 0
1970 326 -1971 0
-1970 -326 -1971 0
1970 -326 1971 0
-1970 326 1971 0
1971 331 -1972 0
-1971 -331 -1972 0
1971 -331 1972 0
-1971 331 1972 0
1972 332 -1973 0
-1972 -332 -1973 0
1972 -332 1973 0
-1972 332 1973 0
1973 337 -1974 0
-1973 -337 -1974 0
1973 -337 1974 0
-1973 337 1974 0
1974 338 -1975 0
-1974 -338 -1975 0
1974 -338 1975 0
-1974 338 1975 0
1975 343 -1976 0
-1975 -343 -1976 0
1975 -343 1976 0
-1975 343 1976 0
1976 344 -1977 0
-1976 -344 -1977 0
1976 -344 1977 0
-1976 344 1977 0
1977 349 -1978 0
-1977 -349 -1978 0
1977 -349 1978 0
-1977 349 1978 0
1978 350 -1979 0
-1978 -350 -1979 0
1978 -350 1979 0
-1978 350 1979 0
1979 355 -1980 0
-1979 -355 -1980 0
1979 -355 1980 0
-1979 355 1980 0
1980 356 -1981 0
-1980 -356 -1981 0
1980 -356 1981 0
-1980 356 1981 0
1981 361 -1982 0
-1981 -361 -1982 0
1981 -361 1982 0
-1981 361 1982 0
1982 362 -1983 0
-1982 -362 -1983 0
1982 -362 1983 0
-1982 362 1983 0
1983 367 -1984 0
-1983 -367 -1984 0
1983 -367 1984 0
-1983 367 1984 0
1984 368 -1985 0
-1984 -368 -1985 0
1984 -368 1985 0
-1984 368 1985 0
1985 373 -1986 0
-1985 -373 -1986 0
1985 -373 1986 0
-1985 373 1986 0
1986 374 -1987 0
-1986 -374 -1987 0
1986 -374 1987 0
-1986 374 1987 0
1987 379 -1988 0
-1987 -379 -1988 0
1987 -379 1988 0
-1987 379 1988 0
1988 380 -1989 0
-1988 -380 -1989 0
1988 -380 1989 0
-1988 380 1989 0
1989 385 -1990 0
-1989 -385 -1990 0
1989 -385 1990 0
-1989 385 1990 0
1990 386 -1991 0
-1990 -386 -1991 0
1990 -386 1991 0
-1990 386 1991 0
1991 391 -1992 0
-1991 -391 -1992 0
1991 -391 1992 0
-1991 391 1992 0
1992 392 -1993 0
-1992 -392 -1993 0
1992 -392 1993 0
-1992 392 1993 0
1993 397 -1994 0
-1993 -397 -1994 0
1993 -397 1994 0
-1993 397 1994 0
1994 398 -1995 0
-1994 -398 -1995 0
1994 -398 1995 0
-1994 398 1995 0
1995 399 -1996 0
-1995 -399 -1996 0
1995 -399 1996 0
-1995 399 1996 0
1996 400 -1997 0
-1996 -400 -1997 0
1996 -400 1997 0
-1996 400 1997 0
1997 401 -1998 0
-1997 -401 -1998 0
1997 -401 1998 0
-1997 401 1998 0
1998 402 -1999 0
-1998 -402 -1999 0
1998 -402 1999 0
-1998 402 1999 0
1999 409 -2000 0
-1999 -409 -2000 0
1999 -409 2000 0
-1999 409 2000 0
2000 410 -2001 0
-2000 -410 -2001 0
2000 -410 2001 0
-2000 410 2001 0
2001 415 -2002 0
-2001 -415 -2002 0
2001 -415 2002 0
-2001 415 2002 0
2002 416 -2003 0
-2002 -416 -2003 0
2002 -416 2003 0
-2002 416 2003 0
2003 417 -2004 0
-2003 -417 -2004 0
2003 -417 2004 0
-2003 417 2004 0
2004 418 -2005 0
-2004 -418 -2005 0
2004 -418 2005 0
-2004 418 2005 0
2005 419 -2006 0
-2005 -419 -2006 0
2005 -419 2006 0
-2005 419 2006 0
2006 420 -2007 0
-2006 -420 -2007 0
2006 -420 2007 0
-2006 420 2007 0
3 217 -2008 0
-3 -217 -2008 0
3 -217 2008 0
-3 217 2008 0
2008 218 -2009 0
-2008 -218 -2009 0
2008 -218 2009 0
-2008 218 2009 0
2009 219 -2010 0
-2009 -219 -2010 0
2009 -219 2010 0
-2009 219 2010 0
2010 223 -2011 0
-2010 -223 -2011 0
2010 -223 2011 0
-2010 223 2011 0
2011 224 -2012 0
-2011 -224 -2012 0
2011 -224 2012 0
-2011 224 2012 0
2012 225 -2013 0
-2012 -225 -2013 0
2012 -225 2013 0
-2012 225 2013 0
2013 229 -2014 0
-2013 -229 -2014 0
2013 -229 2014 0
-2013 229 2014 0
2014 230 -2015 0
-2014 -230 -2015 0
2014 -230 2015 0
-2014 230 2015 0
2015 231 -2016 0
-2015 -231 -2016 0
2015 -231 2016 0
-2015 231 2016 0
2016 235 -2017 0
-2016 -235 -2017 0
2016 -235 2017 0
-2016 235 2017 0
2017 236 -2018 0
-2017 -236 -2018 0
2017 -236 2018 0
-2017 236 2018 0
2018 237 -2019 0
-2018 -237 -2019 0
2018 -237 2019 0
-2018 237 2019 0
2019 241 -2020 0
-2019 -241 -2020 0
2019 -241 2020 0
-2019 241 2020 0
2020 242 -2021 0
-2020 -242 -2021 0
2020 -242 2021 0
-2020 242 2021 0
2021 243 -2022 0
-2021 -243 -2022 0
2021 -243 2022 0
-2021 243 2022 0
2022 247 -2023 0
-2022 -247 -2023 0
2022 -247 2023 0
-2022 247 2023 0
2023 248 -2024 0
-2023 -248 -2024 0
2023 -248 2024 0
-2023 248 2024 0
2024 249 -2025 0
-2024 -249 -2025 0
2024 -249 2025 0
-2024 249 2025 0
2025 253 -2026 0
-2025 -253 -2026 0
2025 -253 2026 0
-2025 253 2026 0
2026 254 -2027 0
-2026 -254 -2027 0
2026 -254 2027 0
-2026 254 2027 0
2027 255 -2028 0
-2027 -255 -2028 0
2027 -255 2028 0
-2027 255 2028 0
2028 259 -2029 0
-2028 -259 -2029 0
2028 -259 2029 0
-2028 259 2029 0
2029 260 -2030 0
-2029 -260 -2030 0
2029 -260 2030 0
-2029 260 2030 0
2030 261 -2031 0
-2030 -261 -2031 0
2030 -261 2031 0
-2030 261 2031 0
2031 265 -2032 0
-2031 -265 -2032 0
2031 -265 2032 0
-2031 265 2032 0
2032 266 -2033 0
-2032 -266 -2033 0
2032 -266 2033 0
-2032 266 2033 0
2033 267 -2034 0
-2033 -267 -2034 0
2033 -267 2034 0
-2033 267 2034 0
2034 271 -2035 0
-2034 -271 -2035 0
2034 -271 2035 0
-2034 271 2035 0
2035 272 -2036 0
-2035 -272 -2036 0
2035 -272 2036 0
-2035 272 2036 0
2036 273 -2037 0
-2036 -273 -2037 0
2036 -273 2037 0
-2036 273 2037 0
2037 277 -2038 0
-2037 -277 -2038 0
2037 -277 2038 0
-2037 277 2038 0
2038 278 -2039 0
-2038 -278 -2039 0
2038 -278 2039 0
-2038 278 2039 0
2039 279 -2040 0
-2039 -279 -2040 0
2039 -279 2040 0
-2039 279 2040 0
2040 283 -2041 0
-2040 -283 -2041 0
2040 -283 2041 0
-2040 283 2041 0
2041 284 -2042 0
-2041 -284 -2042 0
2041 -284 2042 0
-2041 284 2042 0
2042 285 -2043 0
-2042 -285 -2043 0
2042 -285 2043 0
-2042 285 2043 0
2043 289 -2044 0
-2043 -289 -2044 0
2043 -289 2044 0
-2043 289 2044 0
2044 290 -2045 0
-2044 -290 -2045 0
2044 -290 2045 0
-2044 290 2045 0
2045 291 -2046 0
-2045 -291 -2046 0
2045 -291 2046 0
-2045 291 2046 0
2046 295 -2047 0
-2046 -295 -2047 0
2046 -295 2047 0
-2046 295 2047 0
2047 296 -2048 0
-2047 -296 -2048 0
2047 -296 2048 0
-2047 296 2048 0
2048 297 -2049 0
-2048 -297 -2049 0
2048 -297 2049 0
-2048 297 2049 0
2049 301 -2050 0
-2049 -301 -2050 0
2049 -301 2050 0
-2049 301 2050 0
2050 302 -2051 0
-2050 -302 -2051 0
2050 -302 2051 0
-2050 302 2051 0
2051 303 -2052 0
-2051 -303 -2052 0
2051 -303 2052 0
-2051 303 2052 0
2052 307 -2053 0
-2052 -307 -2053 0
2052 -307 2053 0
-2052 307 2053 0
2053 308 -2054 0
-2053 -308 -2054 0
2053 -308 2054 0
-2053 308 2054 0
2054 309 -2055 0
-2054 -309 -2055 0
2054 -309 2055 0
-2054 309 2055 0
2055 313 -2056 0
-2055 -313 -2056 0
2055 -313 2056 0
-2055 313 2056 0
2056 314 -2057 0
-2056 -314 -2057 0
2056 -314 2057 0
-2056 314 2057 0
2057 315 -2058 0
-2057 -315 -2058 0
2057 -315 2058 0
-2057 315 2058 0
2058 319 -2059 0
-2058 -319 -2059 0
2058 -319 2059 0
-2058 319 2059 0
2059 320 -2060 0
-2059 -320 -2060 0
2059 -320 2060 0
-2059 320 2060 0
2060 321 -2061 0
-2060 -321 -2061 0
2060 -321 2061 0
-2060 321 2061 0
2061 325 -2062 0
-2061 -325 -2062 0
2061 -325 2062 0
-2061 325 2062 0
2062 326 -2063 0
-2062 -326 -2063 0
2062 -326 2063 0
-2062 326 2063 0
2063 327 -2064 0
-2063 -327 -2064 0
2063 -327 2064 0
-2063 327 2064 0
2064 331 -2065 0
-2064 -331 -2065 0
2064 -331 2065 0
-2064 331 2065 0
2065 332 -2066 0
-2065 -332 -2066 0
2065 -332 2066 0
-2065 332 2066 0
2066 333 -2067 0
-2066 -333 -2067 0
2066 -333 2067 0
-2066 333 2067 0
2067 337 -2068 0
-2067 -337 -2068 0
2067 -337 2068 0
-2067 337 2068 0
2068 338 -2069 0
-2068 -338 -2069 0
2068 -338 2069 0
-2068 338 2069 0
2069 339 -2070 0
-2069 -339 -2070 0
2069 -339 2070 0
-2069 339 2070 0
2070 343 -2071 0
-2070 -343 -2071 0
2070 -343 2071 0
-2070 343 2071 0
2071 344 -2072 0
-2071 -344 -2072 0
2071 -344 2072 0
-2071 344 2072 0
2072 345 -2073 0
-2072 -345 -2073 0
2072 -345 2073 0
-2072 345 2073 0
2073 349 -2074 0
-2073 -349 -2074 0
2073 -349 2074 0
-2073 349 2074 0
2074 350 -2075 0
-2074 -350 -2075 0
2074 -350 2075 0
-2074 350 2075 0
2075 351 -2076 0
-2075 -351 -2076 0
2075 -351 2076 0
-2075 351 2076 0
2076 355 -2077 0
-2076 -355 -2077 0
2076 -355 2077 0
-2076 355 2077 0
2077 356 -2078 0
-2077 -356 -2078 0
2077 -356 2078 0
-2077 356 2078 0
2078 357 -2079 0
-2078 -357 -2079 0
2078 -357 2079 0
-2078 357 2079 0
2079 361 -2080 0
-2079 -361 -2080 0
2079 -361 2080 0
-2079 361 2080 0
2080 362 -2081 0
-2080 -362 -2081 0
2080 -362 2081 0
-2080 362 2081 0
2081 363 -2082 0
-2081 -363 -2082 0
2081 -363 2082 0
-2081 363 2082 0
2082 367 -2083 0
-2082 -367 -2083 0
2082 -367 2083 0
-2082 367 2083 0
2083 368 -2084 0
-2083 -368 -2084 0
2083 -368 2084 0
-2083 368 2084 0
2084 369 -2085 0
-2084 -369 -2085 0
2084 -369 2085 0
-2084 369 2085 0
2085 373 -2086 0
-2085 -373 -2086 0
2085 -373 2086 0
-2085 373 2086 0
2086 374 -2087 0
-2086 -374 -2087 0
2086 -374 2087 0
-2086 374 2087 0
2087 375 -2088 0
-2087 -375 -2088 0
2087 -375 2088 0
-2087 375 2088 0
2088 379 -2089 0
-2088 -379 -2089 0
2088 -379 2089 0
-2088 379 2089 0
2089 380 -2090 0
-2089 -380 -2090 0
2089 -380 2090 0
-2089 380 2090 0
2090 381 -2091 0
-2090 -381 -2091 0
2090 -381 2091 0
-2090 381 2091 0
2091 385 -2092 0
-2091 -385 -2092 0
2091 -385 2092 0
-2091 385 2092 0
2092 386 -2093 0
-2092 -386 -2093 0
2092 -386 2093 0
-2092 386 2093 0
2093 387 -2094 0
-2093 -387 -2094 0
2093 -387 2094 0
-2093 387 2094 0
2094 391 -2095 0
-2094 -391 -2095 0
2094 -391 2095 0
-2094 391 2095 0
2095 392 -2096 0
-2095 -392 -2096 0
2095 -392 2096 0
-2095 392 2096 0
2096 393 -2097 0
-2096 -393 -2097 0
2096 -393 2097 0
-2096 393 2097 0
2097 397 -2098 0
-2097 -397 -2098 0
2097 -397 2098 0
-2097 397 2098 0
2098 398 -2099 0
-2098 -398 -2099 0
2098 -398 2099 0
-2098 398 2099 0
2099 399 -2100 0
-2099 -399 -2100 0
2099 -399 2100 0
-2099 399 2100 0
2100 400 -2101 0
-2100 -400 -2101 0
2100 -400 2101 0
-2100 400 2101 0
2101 401 -2102 0
-2101 -401 -2102 0
2101 -401 2102 0
-2101 401 2102 0
2102 402 -2103 0
-2102 -402 -2103 0
2102 -402 2103 0
-2102 402 2103 0
2103 409 -2104 0
-2103 -409 -2104 0
2103 -409 2104 0
-2103 409 2104 0
2104 410 -2105 0
-2104 -410 -2105 0
2104 -410 2105 0
-2104 410 2105 0
2105 411 -2106 0
-2105 -411 -2106 0
2105 -411 2106 0
-2105 411 2106 0
2106 415 -2107 0
-2106 -415 -2107 0
2106 -415 2107 0
-2106 415 2107 0
2107 416 -2108 0
-2107 -416 -2108 0
2107 -416 2108 0
-2107 416 2108 0
2108 417 -2109 0
-2108 -417 -2109 0
2108 -417 2109 0
-2108 417 2109 0
2109 418 -2110 0
-2109 -418 -2110 0
2109 -418 2110 0
-2109 418 2110 0
2110 419 -2111 0
-2110 -419 -2111 0
2110 -419 2111 0
-2110 419 2111 0
2111 420 -2112 0
-2111 -420 -2112 0
2111 -420 2112 0
-2111 420 2112 0
4 217 -2113 0
-4 -217 -2113 0
4 -217 2113 0
-4 217 2113 0
2113 218 -2114 0
-2113 -218 -2114 0
2113 -218 2114 0
-2113 218 2114 0
2114 219 -2115 0
-2114 -219 -2115 0
2114 -219 2115 0
-2114 219 2115 0
2115 220 -2116 0
-2115 -220 -2116 0
2115 -220 2116 0
-2115 220 2116 0
2116 223 -2117 0
-2116 -223 -2117 0
2116 -223 2117 0
-2116 223 2117 0
2117 224 -2118 0
-2117 -224 -2118 0
2117 -224 2118 0
-2117 224 2118 0
2118 225 -2119 0
-2118 -225 -2119 0
2118 -225 2119 0
-2118 225 2119 0
2119 226 -2120 0
-2119 -226 -2120 0
2119 -226 2120 0
-2119 226 2120 0
2120 229 -2121 0
-2120 -229 -2121 0
2120 -229 2121 0
-2120 229 2121 0
2121 230 -2122 0
-2121 -230 -2122 0
2121 -230 2122 0
-2121 230 2122 0
2122 231 -2123 0
-2122 -231 -2123 0
2122 -231 2123 0
-2122 231 2123 0
2123 232 -2124 0
-2123 -232 -2124 0
2123 -232 2124 0
-2123 232 2124 0
2124 235 -2125 0
-2124 -235 -2125 0
2124 -235 2125 0
-2124 235 2125 0
2125 236 -2126 0
-2125 -236 -2126 0
2125 -236 2126 0
-2125 236 2126 0
2126 237 -2127 0
-2126 -237 -2127 0
2126 -237 2127 0
-2126 237 2127 0
2127 238 -2128 0
-2127 -238 -2128 0
2127 -238 2128 0
-2127 238 2128 0
2128 241 -2129 0
-2128 -241 -2129 0
2128 -241 2129 0
-2128 241 2129 0
2129 242 -2130 0
-2129 -242 -2130 0
2129 -242 2130 0
-2129 242 2130 0
2130 243 -2131 0
-2130 -243 -2131 0
2130 -243 2131 0
-2130 243 2131 0
2131 244 -2132 0
-2131 -244 -2132 0
2131 -244 2132 0
-2131 244 2132 0
2132 247 -2133 0
-2132 -247 -2133 0
2132 -247 2133 0
-2132 247 2133 0
2133 248 -2134 0
-2133 -248 -2134 0
2133 -248 2134 0
-2133 248 2134 0
2134 249 -2135 0
-2134 -249 -2135 0
2134 -249 2135 0
-2134 249 2135 0
2135 250 -2136 0
-2135 -250 -2136 0
2135 -250 2136 0
-2135 250 2136 0
2136 253 -2137 0
-2136 -253 -2137 0
2136 -253 2137 0
-2136 253 2137 0
2137 254 -2138 0
-2137 -254 -2138 0
2137 -254 2138 0
-2137 254 2138 0
2138 255 -2139 0
-2138 -255 -2139 0
2138 -255 2139 0
-2138 255 2139 0
2139 256 -2140 0
-2139 -256 -2140 0
2139 -256 2140 0
-2139 256 2140 0
2140 259 -2141 0
-2140 -259 -2141 0
2140 -259 2141 0
-2140 259 2141 0
2141 260 -2142 0
-2141 -260 -2142 0
2141 -260 2142 0
-2141 260 2142 0
2142 261 -2143 0
-2142 -261 -2143 0
2142 -261 2143 0
-2142 261 2143 0
2143 262 -2144 0
-2143 -262 -2144 0
2143 -262 2144 0
-2143 262 2144 0
2144 265 -2145 0
-2144 -265 -2145 0
2144 -265 2145 0
-2144 265 2145 0
2145 266 -2146 0
-2145 -266 -2146 0
2145 -266 2146 0
-2145 266 2146 0
2146 267 -2147 0
-2146 -267 -2147 0
2146 -267 2147 0
-2146 267 2147 0
2147 268 -2148 0
-2147 -268 -2148 0
2147 -268 2148 0
-2147 268 2148 0
2148 271 -2149 0
-2148 -271 -2149 0
2148 -271 2149 0
-2148 271 2149 0
2149 272 -2150 0
-2149 -272 -2150 0
2149 -272 2150 0
-2149 272 2150 0
2150 273 -2151 0
-2150 -273 -2151 0
2150 -273 2151 0
-2150 273 2151 0
2151 274 -2152 0
-2151 -274 -2152 0
2151 -274 2152 0
-2151 274 2152 0
2152 277 -2153 0
-2152 -277 -2153 0
2152 -277 2153 0
-2152 277 2153 0
2153 278 -2154 0
-2153 -278 -2154 0
2153 -278 2154 0
-2153 278 2154 0
2154 279 -2155 0
-2154 -279 -2155 0
2154 -279 2155 0
-2154 279 2155 0
2155 280 -2156 0
-2155 -280 -2156 0
2155 -280 2156 0
-2155 280 2156 0
2156 283 -2157 0
-2156 -283 -2157 0
2156 -283 2157 0
-2156 283 2157 0
2157 284 -2158 0
-2157 -284 -2158 0
2157 -284 2158 0
-2157 284 2158 0
2158 285 -2159 0
-2158 -285 -2159 0
2158 -285 2159 0
-2158 285 2159 0
2159 286 -2160 0
-2159 -286 -2160 0
2159 -286 2160 0
-2159 286 2160 0
2160 289 -2161 0
-2160 -289 -2161 0
2160 -289 2161 0
-2160 289 2161 0
2161 290 -2162 0
-2161 -290 -2162 0
2161 -290 2162 0
-2161 290 2162 0
2162 291 -2163 0
-2162 -291 -2163 0
2162 -291 2163 0
-2162 291 2163 0
2163 292 -2164 0
-2163 -292 -2164 0
2163 -292 2164 0
-2163 292 2164 0
2164 295 -2165 0
-2164 -295 -2165 0
2164 -295 2165 0
-2164 295 2165 0
2165 296 -2166 0
-2165 -296 -2166 0
2165 -296 2166 0
-2165 296 2166 0
2166 297 -2167 0
-2166 -297 -2167 0
2166 -297 2167 0
-2166 297 2167 0
2167 298 -2168 0
-2167 -298 -2168 0
2167 -298 2168 0
-2167 298 2168 0
2168 301 -2169 0
-2168 -301 -2169 0
2168 -301 2169 0
-2168 301 2169 0
2169 302 -2170 0
-2169 -302 -2170 0
2169 -302 2170 0
-2169 302 2170 0
2170 303 -2171 0
-2170 -303 -2171 0
2170 -303 2171 0
-2170 303 2171 0
2171 304 -2172 0
-2171 -304 -2172 0
2171 -304 2172 0
-2171 304 2172 0
2172 307 -2173 0
-2172 -307 -2173 0
2172 -307 2173 0
-2172 307 2173 0
2173 308 -2174 0
-2173 -308 -2174 0
2173 -308 2174 0
-2173 308 2174 0
2174 309 -2175 0
-2174 -309 -2175 0
2174 -309 2175 0
-2174 309 2175 0
2175 310 -2176 0
-2175 -310 -2176 0
2175 -310 2176 0
-2175 310 2176 0
2176 313 -2177 0
-2176 -313 -2177 0
2176 -313 2177 0
-2176 313 2177 0
2177 314 -2178 0
-2177 -314 -2178 0
2177 -314 2178 0
-2177 314 2178 0
2178 315 -2179 0
-2178 -315 -2179 0
2178 -315 2179 0
-2178 315 2179 0
2179 316 -2180 0
-2179 -316 -2180 0
2179 -316 2180 0
-2179 316 2180 0
2180 319 -2181 0
-2180 -319 -2181 0
2180 -319 2181 0
-2180 319 2181 0
2181 320 -2182 0
-2181 -320 -2182 0
2181 -320 2182 0
-2181 320 2182 0
2182 321 -2183 0
-2182 -321 -2183 0
2182 -321 2183 0
-2182 321 2183 0
2183 322 -2184 0
-2183 -322 -2184 0
2183 -322 2184 0
-2183 322 2184 0
2184 325 -2185 0
-2184 -325 -2185 0
2184 -325 2185 0
-2184 325 2185 0
2185 326 -2186 0
-2185 -326 -2186 0
2185 -326 2186 0
-2185 326 2186 0
2186 327 -2187 0
-2186 -327 -2187 0
2186 -327 2187 0
-2186 327 2187 0
2187 328 -2188 0
-2187 -328 -2188 0
2187 -328 2188 0
-2187 328 2188 0
2188 331 -2189 0
-2188 -331 -2189 0
2188 -331 2189 0
-2188 331 2189 0
2189 332 -2190 0
-2189 -332 -2190 0
2189 -332 2190 0
-2189 332 2190 0
2190 333 -2191 0
-2190 -333 -2191 0
2190 -333 2191 0
-2190 333 2191 0
2191 334 -2192 0
-2191 -334 -2192 0
2191 -334 2192 0
-2191 334 2192 0
2192 337 -2193 0
-2192 -337 -2193 0
2192 -337 2193 0
-2192 337 2193 0
2193 338 -2194 0
-2193 -338 -2194 0
2193 -338 2194 0
-2193 338 2194 0
2194 339 -2195 0
-2194 -339 -2195 0
2194 -339 2195 0
-2194 339 2195 0
2195 340 -2196 0
-2195 -340 -2196 0
2195 -340 2196 0
-2195 340 2196 0
2196 343 -2197 0
-2196 -343 -2197 0
2196 -343 2197 0
-2196 343 2197 0
2197 344 -2198 0
-2197 -344 -2198 0
2197 -344 2198 0
-2197 344 2198 0
2198 345 -2199 0
-2198 -345 -2199 0
2198 -345 2199 0
-2198 345 2199 0
2199 346 -2200 0
-2199 -346 -2200 0
2199 -346 2200 0
-2199 346 2200 0
2200 349 -2201 0
-2200 -349 -2201 0
2200 -349 2201 0
-2200 349 2201 0
2201 350 -2202 0
-2201 -350 -2202 0
2201 -350 2202 0
-2201 350 2202 0
2202 351 -2203 0
-2202 -351 -2203 0
2202 -351 2203 0
-2202 351 2203 0
2203 352 -2204 0
-2203 -352 -2204 0
2203 -352 2204 0
-2203 352 2204 0
2204 355 -2205 0
-2204 -355 -2205 0
2204 -355 2205 0
-2204 355 2205 0
2205 356 -2206 0
-2205 -356 -2206 0
2205 -356 2206 0
-2205 356 2206 0
2206 357 -2207 0
-2206 -357 -2207 0
2206 -357 2207 0
-2206 357 2207 0
2207 358 -2208 0
-2207 -358 -2208 0
2207 -358 2208 0
-2207 358 2208 0
2208 361 -2209 0
-2208 -361 -2209 0
2208 -361 2209 0
-2208 361 2209 0
2209 362 -2210 0
-2209 -362 -2210 0
2209 -362 2210 0
-2209 362 2210 0
2210 363 -2211 0
-2210 -363 -2211 0
2210 -363 2211 0
-2210 363 2211 0
2211 364 -2212 0
-2211 -364 -2212 0
2211 -364 2212 0
-2211 364 2212 0
2212 367 -2213 0
-2212 -367 -2213 0
2212 -367 2213 0
-2212 367 2213 0
2213 368 -2214 0
-2213 -368 -2214 0
2213 -368 2214 0
-2213 368 2214 0
2214 369 -2215 0
-2214 -369 -2215 0
2214 -369 2215 0
-2214 369 2215 0
2215 370 -2216 0
-2215 -370 -2216 0
2215 -370 2216 0
-2215 370 2216 0
2216 373 -2217 0
-2216 -373 -2217 0
2216 -373 2217 0
-2216 373 2217 0
2217 374 -2218 0
-2217 -374 -2218 0
2217 -374 2218 0
-2217 374 2218 0
2218 375 -2219 0
-2218 -375 -2219 0
2218 -375 2219 0
-2218 375 2219 0
2219 376 -2220 0
-2219 -376 -2220 0
2219 -376 2220 0
-2219 376 2220 0
2220 379 -2221 0
-2220 -379 -2221 0
2220 -379 2221 0
-2220 379 2221 0
2221 380 -2222 0
-2221 -380 -2222 0
2221 -380 2222 0
-2221 380 2222 0
2222 381 -2223 0
-2222 -381 -2223 0
2222 -381 2223 0
-2222 381 2223 0
2223 382 -2224 0
-2223 -382 -2224 0
2223 -382 2224 0
-2223 382 2224 0
2224 385 -2225 0
-2224 -385 -2225 0
2224 -385 2225 0
-2224 385 2225 0
2225 386 -2226 0
-2225 -386 -2226 0
2225 -386 2226 0
-2225 386 2226 0
2226 387 -2227 0
-2226 -387 -2227 0
2226 -387 2227 0
-2226 387 2227 0
2227 388 -2228 0
-2227 -388 -2228 0
2227 -388 2228 0
-2227 388 2228 0
2228 391 -2229 0
-2228 -391 -2229 0
2228 -391 2229 0
-2228 391 2229 0
2229 392 -2230 0
-2229 -392 -2230 0
2229 -392 2230 0
-2229 392 2230 0
2230 393 -2231 0
-2230 -393 -2231 0
2230 -393 2231 0
-2230 393 2231 0
2231 394 -2232 0
-2231 -394 -2232 0
2231 -394 2232 0
-2231 394 2232 0
2232 397 -2233 0
-2232 -397 -2233 0
2232 -397 2233 0
-2232 397 2233 0
2233 398 -2234 0
-2233 -398 -2234 0
2233 -398 2234 0
-2233 398 2234 0
2234 399 -2235 0
-2234 -399 -2235 0
2234 -399 2235 0
-2234 399 2235 0
2235 400 -2236 0
-2235 -400 -2236 0
2235 -400 2236 0
-2235 400 2236 0
2236 401 -2237 0
-2236 -401 -2237 0
2236 -401 2237 0
-2236 401 2237 0
2237 402 -2238 0
-2237 -402 -2238 0
2237 -402 2238 0
-2237 402 2238 0
2238 409 -2239 0
-2238 -409 -2239 0
2238 -409 2239 0
-2238 409 2239 0
2239 410 -2240 0
-2239 -410 -2240 0
2239 -410 2240 0
-2239 410 2240 0
2240 411 -2241 0
-2240 -411 -2241 0
2240 -411 2241 0
-2240 411 2241 0
2241 412 -2242 0
-2241 -412 -2242 0
2241 -412 2242 0
-2241 412 2242 0
2242 415 -2243 0
-2242 -415 -2243 0
2242 -415 2243 0
-2242 415 2243 0
2243 416 -2244 0
-2243 -416 -2244 0
2243 -416 2244 0
-2243 416 2244 0
2244 417 -2245 0
-2244 -417 -2245 0
2244 -417 2245 0
-2244 417 2245 0
2245 418 -2246 0
-2245 -418 -2246 0
2245 -418 2246 0
-2245 418 2246 0
2246 419 -2247 0
-2246 -419 -2247 0
2246 -419 2247 0
-2246 419 2247 0
2247 420 -2248 0
-2247 -420 -2248 0
2247 -420 2248 0
-2247 420 2248 0
5 217 -2249 0
-5 -217 -2249 0
5 -217 2249 0
-5 217 2249 0
2249 218 -2250 0
-2249 -218 -2250 0
2249 -218 2250 0
-2249 218 2250 0
2250 219 -2251 0
-2250 -219 -2251 0
2250 -219 2251 0
-2250 219 2251 0
2251 220 -2252 0
-2251 -220 -2252 0
2251 -220 2252 0
-2251 220 2252 0
2252 221 -2253 0
-2252 -221 -2253 0
2252 -221 2253 0
-2252 221 2253 0
2253 223 -2254 0
-2253 -223 -2254 0
2253 -223 2254 0
-2253 223 2254 0
2254 224 -2255 0
-2254 -224 -2255 0
2254 -224 2255 0
-2254 224 2255 0
2255 225 -2256 0
-2255 -225 -2256 0
2255 -225 2256 0
-2255 225 2256 0
2256 226 -2257 0
-2256 -226 -2257 0
2256 -226 2257 0
-2256 226 2257 0
2257 227 -2258 0
-2257 -227 -2258 0
2257 -227 2258 0
-2257 227 2258 0
2258 229 -2259 0
-2258 -229 -2259 0
2258 -229 2259 0
-2258 229 2259 0
2259 230 -2260 0
-2259 -230 -2260 0
2259 -230 2260 0
-2259 230 2260 0
2260 231 -2261 0
-2260 -231 -2261 0
2260 -231 2261 0
-2260 231 2261 0
2261 232 -2262 0
-2261 -232 -2262 0
2261 -232 2262 0
-2261 232 2262 0
2262 233 -2263 0
-2262 -233 -2263 0
2262 -233 2263 0
-2262 233 2263 0
2263 235 -2264 0
-2263 -235 -2264 0
2263 -235 2264 0
-2263 235 2264 0
2264 236 -2265 0
-2264 -236 -2265 0
2264 -236 2265 0
-2264 236 2265 0
2265 237 -2266 0
-2265 -237 -2266 0
2265 -237 2266 0
-2265 237 2266 0
2266 238 -2267 0
-2266 -238 -2267 0
2266 -238 2267 0
-2266 238 2267 0
2267 239 -2268 0
-2267 -239 -2268 0
2267 -239 2268 0
-2267 239 2268 0
2268 241 -2269 0
-2268 -241 -2269 0
2268 -241 2269 0
-2268 241 2269 0
2269 242 -2270 0
-2269 -242 -2270 0
2269 -242 2270 0
-2269 242 2270 0
2270 243 -2271 0
-2270 -243 -2271 0
2270 -243 2271 0
-2270 243 2271 0
2271 244 -2272 0
-2271 -244 -2272 0
2271 -244 2272 0
-2271 244 2272 0
2272 245 -2273 0
-2272 -245 -2273 0
2272 -245 2273 0
-2272 245 2273 0
2273 247 -2274 0
-2273 -247 -2274 0
2273 -247 2274 0
-2273 247 2274 0
2274 248 -2275 0
-2274 -248 -2275 0
2274 -248 2275 0
-2274 248 2275 0
2275 249 -2276 0
-2275 -249 -2276 0
2275 -249 2276 0
-2275 249 2276 0
2276 250 -2277 0
-2276 -250 -2277 0
2276 -250 2277 0
-2276 250 2277 0
2277 251 -2278 0
-2277 -251 -2278 0
2277 -251 2278 0
-2277 251 2278 0
2278 253 -2279 0
-2278 -253 -2279 0
2278 -253 2279 0
-2278 253 2279 0
2279 254 -2280 0
-2279 -254 -2280 0
2279 -254 2280 0
-2279 254 2280 0
2280 255 -2281 0
-2280 -255 -2281 0
2280 -255 2281 0
-2280 255 2281 0
2281 256 -2282 0
-2281 -256 -2282 0
2281 -256 2282 0
-2281 256 2282 0
2282 257 -2283 0
-2282 -257 -2283 0
2282 -257 2283 0
-2282 257 2283 0
2283 259 -2284 0
-2283 -259 -2284 0
2283 -259 2284 0
-2283 259 2284 0
2284 260 -2285 0
-2284 -260 -2285 0
2284 -260 2285 0
-2284 260 2285 0
2285 261 -2286 0
-2285 -261 -2286 0
2285 -261 2286 0
-2285 261 2286 0
2286 262 -2287 0
-2286 -262 -2287 0
2286 -262 2287 0
-2286 262 2287 0
2287 263 -2288 0
-2287 -263 -2288 0
2287 -263 2288 0
-2287 263 2288 0
2288 265 -2289 0
-2288 -265 -2289 0
2288 -265 2289 0
-2288 265 2289 0
2289 266 -2290 0
-2289 -266 -2290 0
2289 -266 2290 0
-2289 266 2290 0
2290 267 -2291 0
-2290 -267 -2291 0
2290 -267 2291 0
-2290 267 2291 0
2291 268 -2292 0
-2291 -268 -2292 0
2291 -268 2292 0
-2291 268 2292 0
2292 269 -2293 0
-2292 -269 -2293 0
2292 -269 2293 0
-2292 269 2293 0
2293 271 -2294 0
-2293 -271 -2294 0
2293 -271 2294 0
-2293 271 2294 0
2294 272 -2295 0
-2294 -272 -2295 0
2294 -272 2295 0
-2294 272 2295 0
2295 273 -2296 0
-2295 -273 -2296 0
2295 -273 2296 0
-2295 273 2296 0
2296 274 -2297 0
-2296 -274 -2297 0
2296 -274 2297 0
-2296 274 2297 0
2297 275 -2298 0
-2297 -275 -2298 0
2297 -275 2298 0
-2297 275 2298 0
2298 277 -2299 0
-2298 -277 -2299 0
2298 -277 2299 0
-2298 277 2299 0
2299 278 -2300 0
-2299 -278 -2300 0
2299 -278 2300 0
-2299 278 2300 0
2300 279 -2301 0
-2300 -279 -2301 0
2300 -279 2301 0
-2300 279 2301 0
2301 280 -2302 0
-2301 -280 -2302 0
2301 -280 2302 0
-2301 280 2302 0
2302 281 -2303 0
-2302 -281 -2303 0
2302 -281 2303 0
-2302 281 2303 0
2303 283 -2304 0
-2303 -283 -2304 0
2303 -283 2304 0
-2303 283 2304 0
2304 284 -2305 0
-2304 -284 -2305 0
2304 -284 2305 0
-2304 284 2305 0
2305 285 -2306 0
-2305 -285 -2306 0
2305 -285 2306 0
-2305 285 2306 0
2306 286 -2307 0
-2306 -286 -2307 0
2306 -286 2307 0
-2306 286 2307 0
2307 287 -2308 0
-2307 -287 -2308 0
2307 -287 2308 0
-2307 287 2308 0
2308 289 -2309 0
-2308 -289 -2309 0
2308 -289 2309 0
-2308 289 2309 0
2309 290 -2310 0
-2309 -290 -2310 0
2309 -290 2310 0
-2309 290 2310 0
2310 291 -2311 0
-2310 -291 -2311 0
2310 -291 2311 0
-2310 291 2311 0
2311 292 -2312 0
-2311 -292 -2312 0
2311 -292 2312 0
-2311 292 2312 0
2312 293 -2313 0
-2312 -293 -2313 0
2312 -293 2313 0
-2312 293 2313 0
2313 295 -2314 0
-2313 -295 -2314 0
2313 -295 2314 0
-2313 295 2314 0
2314 296 -2315 0
-2314 -296 -2315 0
2314 -296 2315 0
-2314 296 2315 0
2315 297 -2316 0
-2315 -297 -2316 0
2315 -297 2316 0
-2315 297 2316 0
2316 298 -2317 0
-2316 -298 -2317 0
2316 -298 2317 0
-2316 298 2317 0
2317 299 -2318 0
-2317 -299 -2318 0
2317 -299 2318 0
-2317 299 2318 0
2318 301 -2319 0
-2318 -301 -2319 0
2318 -301 2319 0
-2318 301 2319 0
2319 302 -2320 0
-2319 -302 -2320 0
2319 -302 2320 0
-2319 302 2320 0
2320 303 -2321 0
-2320 -303 -2321 0
2320 -303 2321 0
-2320 303 2321 0
2321 304 -2322 0
-2321 -304 -2322 0
2321 -304 2322 0
-2321 304 2322 0
2322 305 -2323 0
-2322 -305 -2323 0
2322 -305 2323 0
-2322 305 2323 0
2323 307 -2324 0
-2323 -307 -2324 0
2323 -307 2324 0
-2323 307 2324 0
2324 308 -2325 0
-2324 -308 -2325 0
2324 -308 2325 0
-2324 308 2325 0
2325 309 -2326 0
-2325 -309 -2326 0
2325 -309 2326 0
-2325 309 2326 0
2326 310 -2327 0
-2326 -310 -2327 0
2326 -310 2327 0
-2326 310 2327 0
2327 311 -2328 0
-2327 -311 -2328 0
2327 -311 2328 0
-2327 311 2328 0
2328 313 -2329 0
-2328 -313 -2329 0
2328 -313 2329 0
-2328 313 2329 0
2329 314 -2330 0
-2329 -314 -2330 0
2329 -314 2330 0
-2329 314 2330 0
2330 315 -2331 0
-2330 -315 -2331 0
2330 -315 2331 0
-2330 315 2331 0
2331 316 -2332 0
-2331 -316 -2332 0
2331 -316 2332 0
-2331 316 2332 0
2332 317 -2333 0
-2332 -317 -2333 0
2332 -317 2333 0
-2332 317 2333 0
2333 319 -2334 0
-2333 -319 -2334 0
2333 -319 2334 0
-2333 319 2334 0
2334 320 -2335 0
-2334 -320 -2335 0
2334 -320 2335 0
-2334 320 2335 0
2335 321 -2336 0
-2335 -321 -2336 0
2335 -321 2336 0
-2335 321 2336 0
2336 322 -2337 0
-2336 -322 -2337 0
2336 -322 2337 0
-2336 322 2337 0
2337 323 -2338 0
-2337 -323 -2338 0
2337 -323 2338 0
-2337 323 2338 0
2338 325 -2339 0
-2338 -325 -2339 0
2338 -325 2339 0
-2338 325 2339 0
2339 326 -2340 0
-2339 -326 -2340 0
2339 -326 2340 0
-2339 326 2340 0
2340 327 -2341 0
-2340 -327 -2341 0
2340 -327 2341 0
-2340 327 2341 0
2341 328 -2342 0
-2341 -328 -2342 0
2341 -328 2342 0
-2341 328 2342 0
2342 329 -2343 0
-2342 -329 -2343 0
2342 -329 2343 0
-2342 329 2343 0
2343 331 -2344 0
-2343 -331 -2344 0
2343 -331 2344 0
-2343 331 2344 0
2344 332 -2345 0
-2344 -332 -2345 0
2344 -332 2345 0
-2344 332 2345 0
2345 333 -2346 0
-2345 -333 -2346 0
2345 -333 2346 0
-2345 333 2346 0
2346 334 -2347 0
-2346 -334 -2347 0
2346 -334 2347 0
-2346 334 2347 0
2347 335 -2348 0
-2347 -335 -2348 0
2347 -335 2348 0
-2347 335 2348 0
2348 337 -2349 0
-2348 -337 -2349 0
2348 -337 2349 0
-2348 337 2349 0
2349 338 -2350 0
-2349 -338 -2350 0
2349 -338 2350 0
-2349 338 2350 0
2350 339 -2351 0
-2350 -339 -2351 0
2350 -339 2351 0
-2350 339 2351 0
2351 340 -2352 0
-2351 -340 -2352 0
2351 -340 2352 0
-2351 340 2352 0
2352 341 -2353 0
-2352 -341 -2353 0
2352 -341 2353 0
-2352 341 2353 0
2353 343 -2354 0
-2353 -343 -2354 0
2353 -343 2354 0
-2353 343 2354 0
2354 344 -2355 0
-2354 -344 -2355 0
2354 -344 2355 0
-2354 344 2355 0
2355 345 -2356 0
-2355 -345 -2356 0
2355 -345 2356 0
-2355 345 2356 0
2356 346 -2357 0
-2356 -346 -2357 0
2356 -346 2357 0
-2356 346 2357 0
2357 347 -2358 0
-2357 -347 -2358 0
2357 -347 2358 0
-2357 347 2358 0
2358 349 -2359 0
-2358 -349 -2359 0
2358 -349 2359 0
-2358 349 2359 0
2359 350 -2360 0
-2359 -350 -2360 0
2359 -350 2360 0
-2359 350 2360 0
2360 351 -2361 0
-2360 -351 -2361 0
2360 -351 2361 0
-2360 351 2361 0
2361 352 -2362 0
-2361 -352 -2362 0
2361 -352 2362 0
-2361 352 2362 0
2362 353 -2363 0
-2362 -353 -2363 0
2362 -353 2363 0
-2362 353 2363 0
2363 355 -2364 0
-2363 -355 -2364 0
2363 -355 2364 0
-2363 355 2364 0
2364 356 -2365 0
-2364 -356 -2365 0
2364 -356 2365 0
-2364 356 2365 0
2365 357 -2366 0
-2365 -357 -2366 0
2365 -357 2366 0
-2365 357 2366 0
2366 358 -2367 0
-2366 -358 -2367 0
2366 -358 2367 0
-2366 358 2367 0
2367 359 -2368 0
-2367 -359 -2368 0
2367 -359 2368 0
-2367 359 2368 0
2368 361 -2369 0
-2368 -361 -2369 0
2368 -361 2369 0
-2368 361 2369 0
2369 362 -2370 0
-2369 -362 -2370 0
2369 -362 2370 0
-2369 362 2370 0
2370 363 -2371 0
-2370 -363 -2371 0
2370 -363 2371 0
-2370 363 2371 0
2371 364 -2372 0
-2371 -364 -2372 0
2371 -364 2372 0
-2371 364 2372 0
2372 365 -2373 0
-2372 -365 -2373 0
2372 -365 2373 0
-2372 365 2373 0
2373 367 -2374 0
-2373 -367 -2374 0
2373 -367 2374 0
-2373 367 2374 0
2374 368 -2375 0
-2374 -368 -2375 0
2374 -368 2375 0
-2374 368 2375 0
2375 369 -2376 0
-2375 -369 -2376 0
2375 -369 2376 0
-2375 369 2376 0
2376 370 -2377 0
-2376 -370 -2377 0
2376 -370 2377 0
-2376 370 2377 0
2377 371 -2378 0
-2377 -371 -2378 0
2377 -371 2378 0
-2377 371 2378 0
2378 373 -2379 0
-2378 -373 -2379 0
2378 -373 2379 0
-2378 373 2379 0
2379 374 -2380 0
-2379 -374 -2380 0
2379 -374 2380 0
-2379 374 2380 0
2380 375 -2381 0
-2380 -375 -2381 0
2380 -375 2381 0
-2380 375 2381 0
2381 376 -2382 0
-2381 -376 -2382 0
2381 -376 2382 0
-2381 376 2382 0
2382 377 -2383 0
-2382 -377 -2383 0
2382 -377 2383 0
-2382 377 2383 0
2383 379 -2384 0
-2383 -379 -2384 0
2383 -379 2384 0
-2383 379 2384 0
2384 380 -2385 0
-2384 -380 -2385 0
2384 -380 2385 0
-2384 380 2385 0
2385 381 -2386 0
-2385 -381 -2386 0
2385 -381 2386 0
-2385 381 2386 0
2386 382 -2387 0
-2386 -382 -2387 0
2386 -382 2387 0
-2386 382 2387 0
2387 383 -2388 0
-2387 -383 -2388 0
2387 -383 2388 0
-2387 383 2388 0
2388 385 -2389 0
-2388 -385 -2389 0
2388 -385 2389 0
-2388 385 2389 0
2389 386 -2390 0
-2389 -386 -2390 0
2389 -386 2390 0
-2389 386 2390 0
2390 387 -2391 0
-2390 -387 -2391 0
2390 -387 2391 0
-2390 387 2391 0
2391 388 -2392 0
-2391 -388 -2392 0
2391 -388 2392 0
-2391 388 2392 0
2392 389 -2393 0
-2392 -389 -2393 0
2392 -389 2393 0
-2392 389 2393 0
2393 391 -2394 0
-2393 -391 -2394 0
2393 -391 2394 0
-2393 391 2394 0
2394 392 -2395 0
-2394 -392 -2395 0
2394 -392 2395 0
-2394 392 2395 0
2395 393 -2396 0
-2395 -393 -2396 0
2395 -393 2396 0
-2395 393 2396 0
2396 394 -2397 0
-2396 -394 -2397 0
2396 -394 2397 0
-2396 394 2397 0
2397 395 -2398 0
-2397 -395 -2398 0
2397 -395 2398 0
-2397 395 2398 0
2398 397 -2399 0
-2398 -397 -2399 0
2398 -397 2399 0
-2398 397 2399 0
2399 398 -2400 0
-2399 -398 -2400 0
2399 -398 2400 0
-2399 398 2400 0
2400 399 -2401 0
-2400 -399 -2401 0
2400 -399 2401 0
-2400 399 2401 0
2401 400 -2402 0
-2401 -400 -2402 0
2401 -400 2402 0
-2401 400 2402 0
2402 401 -2403 0
-2402 -401 -2403 0
2402 -401 2403 0
-2402 401 2403 0
2403 402 -2404 0
-2403 -402 -2404 0
2403 -402 2404 0
-2403 402 2404 0
2404 409 -2405 0
-2404 -409 -2405 0
2404 -409 2405 0
-2404 409 2405 0
2405 410 -2406 0
-2405 -410 -2406 0
2405 -410 2406 0
-2405 410 2406 0
2406 411 -2407 0
-2406 -411 -2407 0
2406 -411 2407 0
-2406 411 2407 0
2407 412 -2408 0
-2407 -412 -2408 0
2407 -412 2408 0
-2407 412 2408 0
2408 413 -2409 0
-2408 -413 -2409 0
2408 -413 2409 0
-2408 413 2409 0
2409 415 -2410 0
-2409 -415 -2410 0
2409 -415 2410 0
-2409 415 2410 0
2410 416 -2411 0
-2410 -416 -2411 0
2410 -416 2411 0
-2410 416 2411 0
2411 417 -2412 0
-2411 -417 -2412 0
2411 -417 2412 0
-2411 417 2412 0
2412 418 -2413 0
-2412 -418 -2413 0
2412 -418 2413 0
-2412 418 2413 0
2413 419 -2414 0
-2413 -419 -2414 0
2413 -419 2414 0
-2413 419 2414 0
2414 420 -2415 0
-2414 -420 -2415 0
2414 -420 2415 0
-2414 420 2415 0
6 217 -2416 0
-6 -217 -2416 0
6 -217 2416 0
-6 217 2416 0
2416 218 -2417 0
-2416 -218 -2417 0
2416 -218 2417 0
-2416 218 2417 0
2417 219 -2418 0
-2417 -219 -2418 0
2417 -219 2418 0
-2417 219 2418 0
2418 220 -2419 0
-2418 -220 -2419 0
2418 -220 2419 0
-2418 220 2419 0
2419 221 -2420 0
-2419 -221 -2420 0
2419 -221 2420 0
-2419 221 2420 0
2420 222 -2421 0
-2420 -222 -2421 0
2420 -222 2421 0
-2420 222 2421 0
2421 223 -2422 0
-2421 -223 -2422 0
2421 -223 2422 0
-2421 223 2422 0
2422 224 -2423 0
-2422 -224 -2423 0
2422 -224 2423 0
-2422 224 2423 0
2423 225 -2424 0
-2423 -225 -2424 0
2423 -225 2424 0
-2423 225 2424 0
2424 226 -2425 0
-2424 -226 -2425 0
2424 -226 2425 0
-2424 226 2425 0
2425 227 -2426 0
-2425 -227 -2426 0
2425 -227 2426 0
-2425 227 2426 0
2426 228 -2427 0
-2426 -228 -2427 0
2426 -228 2427 0
-2426 228 2427 0
2427 229 -2428 0
-2427 -229 -2428 0
2427 -229 2428 0
-2427 229 2428 0
2428 230 -2429 0
-2428 -230 -2429 0
2428 -230 2429 0
-2428 230 2429 0
2429 231 -2430 0
-2429 -231 -2430 0
2429 -231 2430 0
-2429 231 2430 0
2430 232 -2431 0
-2430 -232 -2431 0
2430 -232 2431 0
-2430 232 2431 0
2431 233 -2432 0
-2431 -233 -2432 0
2431 -233 2432 0
-2431 233 2432 0
2432 234 -2433 0
-2432 -234 -2433 0
2432 -234 2433 0
-2432 234 2433 0
2433 235 -2434 0
-2433 -235 -2434 0
2433 -235 2434 0
-2433 235 2434 0
2434 236 -2435 0
-2434 -236 -2435 0
2434 -236 2435 0
-2434 236 2435 0
2435 237 -2436 0
-2435 -237 -2436 0
2435 -237 2436 0
-2435 237 2436 0
2436 238 -2437 0
-2436 -238 -2437 0
2436 -238 2437 0
-2436 238 2437 0
2437 239 -2438 0
-2437 -239 -2438 0
2437 -239 2438 0
-2437 239 2438 0
2438 240 -2439 0
-2438 -240 -2439 0
2438 -240 2439 0
-2438 240 2439 0
2439 241 -2440 0
-2439 -241 -2440 0
2439 -241 2440 0
-2439 241 2440 0
2440 242 -2441 0
-2440 -242 -2441 0
2440 -242 2441 0
-2440 242 2441 0
2441 243 -2442 0
-2441 -243 -2442 0
2441 -243 2442 0
-2441 243 2442 0
2442 244 -2443 0
-2442 -244 -2443 0
2442 -244 2443 0
-2442 244 2443 0
2443 245 -2444 0
-2443 -245 -2444 0
2443 -245 2444 0
-2443 245 2444 0
2444 246 -2445 0
-2444 -246 -2445 0
2444 -246 2445 0
-2444 246 2445 0
2445 247 -2446 0
-2445 -247 -2446 0
2445 -247 2446 0
-2445 247 2446 0
2446 248 -2447 0
-2446 -248 -2447 0
2446 -248 2447 0
-2446 248 2447 0
2447 249 -2448 0
-2447 -249 -2448 0
2447 -249 2448 0
-2447 249 2448 0
2448 250 -2449 0
-2448 -250 -2449 0
2448 -250 2449 0
-2448 250 2449 0
2449 251 -2450 0
-2449 -251 -2450 0
2449 -251 2450 0
-2449 251 2450 0
2450 252 -2451 0
-2450 -252 -2451 0
2450 -252 2451 0
-2450 252 2451 0
2451 253 -2452 0
-2451 -253 -2452 0
2451 -253 2452 0
-2451 253 2452 0
2452 254 -2453 0
-2452 -254 -2453 0
2452 -254 2453 0
-2452 254 2453 0
2453 255 -2454 0
-2453 -255 -2454 0
2453 -255 2454 0
-2453 255 2454 0
2454 256 -2455 0
-2454 -256 -2455 0
2454 -256 2455 0
-2454 256 2455 0
2455 257 -2456 0
-2455 -257 -2456 0
2455 -257 2456 0
-2455 257 2456 0
2456 258 -2457 0
-2456 -258 -2457 0
2456 -258 2457 0
-2456 258 2457 0
2457 259 -2458 0
-2457 -259 -2458 0
2457 -259 2458 0
-2457 259 2458 0
2458 260 -2459 0
-2458 -260 -2459 0
2458 -260 2459 0
-2458 260 2459 0
2459 261 -2460 0
-2459 -261 -2460 0
2459 -261 2460 0
-2459 261 2460 0
2460 262 -2461 0
-2460 -262 -2461 0
2460 -262 2461 0
-2460 262 2461 0
2461 263 -2462 0
-2461 -263 -2462 0
2461 -263 2462 0
-2461 263 2462 0
2462 264 -2463 0
-2462 -264 -2463 0
2462 -264 2463 0
-2462 264 2463 0
2463 265 -2464 0
-2463 -265 -2464 0
2463 -265 2464 0
-2463 265 2464 0
2464 266 -2465 0
-2464 -266 -2465 0
2464 -266 2465 0
-2464 266 2465 0
2465 267 -2466 0
-2465 -267 -2466 0
2465 -267 2466 0
-2465 267 2466 0
2466 268 -2467 0
-2466 -268 -2467 0
2466 -268 2467 0
-2466 268 2467 0
2467 269 -2468 0
-2467 -269 -2468 0
2467 -269 2468 0
-2467 269 2468 0
2468 270 -2469 0
-2468 -270 -2469 0
2468 -270 2469 0
-2468 270 2469 0
2469 271 -2470 0
-2469 -271 -2470 0
2469 -271 2470 0
-2469 271 2470 0
2470 272 -2471 0
-2470 -272 -2471 0
2470 -272 2471 0
-2470 272 2471 0
2471 273 -2472 0
-2471 -273 -2472 0
2471 -273 2472 0
-2471 273 2472 0
2472 274 -2473 0
-2472 -274 -2473 0
2472 -274 2473 0
-2472 274 2473 0
2473 275 -2474 0
-2473 -275 -2474 0
2473 -275 2474 0
-2473 275 2474 0
2474 276 -2475 0
-2474 -276 -2475 0
2474 -276 2475 0
-2474 276 2475 0
2475 277 -2476 0
-2475 -277 -2476 0
2475 -277 2476 0
-2475 277 2476 0
2476 278 -2477 0
-2476 -278 -2477 0
2476 -278 2477 0
-2476 278 2477 0
2477 279 -2478 0
-2477 -279 -2478 0
2477 -279 2478 0
-2477 279 2478 0
2478 280 -2479 0
-2478 -280 -2479 0
2478 -280 2479 0
-2478 280 2479 0
2479 281 -2480 0
-2479 -281 -2480 0
2479 -281 2480 0
-2479 281 2480 0
2480 282 -2481 0
-2480 -282 -2481 0
2480 -282 2481 0
-2480 282 2481 0
2481 283 -2482 0
-2481 -283 -2482 0
2481 -283 2482 0
-2481 283 2482 0
2482 284 -2483 0
-2482 -284 -2483 0
2482 -284 2483 0
-2482 284 2483 0
2483 285 -2484 0
-2483 -285 -2484 0
2483 -285 2484 0
-2483 285 2484 0
2484 286 -2485 0
-2484 -286 -2485 0
2484 -286 2485 0
-2484 286 2485 0
2485 287 -2486 0
-2485 -287 -2486 0
2485 -287 2486 0
-2485 287 2486 0
2486 288 -2487 0
-2486 -288 -2487 0
2486 -288 2487 0
-2486 288 2487 0
2487 289 -2488 0
-2487 -289 -2488 0
2487 -289 2488 0
-2487 289 2488 0
2488 290 -2489 0
-2488 -290 -2489 0
2488 -290 2489 0
-2488 290 2489 0
2489 291 -2490 0
-2489 -291 -2490 0
2489 -291 2490 0
-2489 291 2490 0
2490 292 -2491 0
-2490 -292 -2491 0
2490 -292 2491 0
-2490 292 2491 0
2491 293 -2492 0
-2491 -293 -2492 0
2491 -293 2492 0
-2491 293 2492 0
2492 294 -2493 0
-2492 -294 -2493 0
2492 -294 2493 0
-2492 294 2493 0
2493 295 -2494 0
-2493 -295 -2494 0
2493 -295 2494 0
-2493 295 2494 0
2494 296 -2495 0
-2494 -296 -2495 0
2494 -296 2495 0
-2494 296 2495 0
2495 297 -2496 0
-2495 -297 -2496 0
2495 -297 2496 0
-2495 297 2496 0
2496 298 -2497 0
-2496 -298 -2497 0
2496 -298 2497 0
-2496 298 2497 0
2497 299 -2498 0
-2497 -299 -2498 0
2497 -299 2498 0
-2497 299 2498 0
2498 300 -2499 0
-2498 -300 -2499 0
2498 -300 2499 0
-2498 300 2499 0
2499 301 -2500 0
-2499 -301 -2500 0
2499 -301 2500 0
-2499 301 2500 0
2500 302 -2501 0
-2500 -302 -2501 0
2500 -302 2501 0
-2500 302 2501 0
2501 303 -2502 0
-2501 -303 -2502 0
2501 -303 2502 0
-2501 303 2502 0
2502 304 -2503 0
-2502 -304 -2503 0
2502 -304 2503 0
-2502 304 2503 0
2503 305 -2504 0
-2503 -305 -2504 0
2503 -305 2504 0
-2503 305 2504 0
2504 306 -2505 0
-2504 -306 -2505 0
2504 -306 2505 0
-2504 306 2505 0
2505 307 -2506 0
-2505 -307 -2506 0
2505 -307 2506 0
-2505 307 2506 0
2506 308 -2507 0
-2506 -308 -2507 0
2506 -308 2507 0
-2506 308 2507 0
2507 309 -2508 0
-2507 -309 -2508 0
2507 -309 2508 0
-2507 309 2508 0
2508 310 -2509 0
-2508 -310 -2509 0
2508 -310 2509 0
-2508 310 2509 0
2509 311 -2510 0
-2509 -311 -2510 0
2509 -311 2510 0
-2509 311 2510 0
2510 312 -2511 0
-2510 -312 -2511 0
2510 -312 2511 0
-2510 312 2511 0
2511 313 -2512 0
-2511 -313 -2512 0
2511 -313 2512 0
-2511 313 2512 0
2512 314 -2513 0
-2512 -314 -2513 0
2512 -314 2513 0
-2512 314 2513 0
2513 315 -2514 0
-2513 -315 -2514 0
2513 -315 2514 0
-2513 315 2514 0
2514 316 -2515 0
-2514 -316 -2515 0
2514 -316 2515 0
-2514 316 2515 0
2515 317 -2516 0
-2515 -317 -2516 0
2515 -317 2516 0
-2515 317 2516 0
2516 318 -2517 0
-2516 -318 -2517 0
2516 -318 2517 0
-2516 318 2517 0
2517 319 -2518 0
-2517 -319 -2518 0
2517 -319 2518 0
-2517 319 2518 0
2518 320 -2519 0
-2518 -320 -2519 0
2518 -320 2519 0
-2518 320 2519 0
2519 321 -2520 0
-2519 -321 -2520 0
2519 -321 2520 0
-2519 321 2520 0
2520 322 -2521 0
-2520 -322 -2521 0
2520 -322 2521 0
-2520 322 2521 0
2521 323 -2522 0
-2521 -323 -2522 0
2521 -323 2522 0
-2521 323 2522 0
2522 324 -2523 0
-2522 -324 -2523 0
2522 -324 2523 0
-2522 324 2523 0
2523 325 -2524 0
-2523 -325 -2524 0
2523 -325 2524 0
-2523 325 2524 0
2524 326 -2525 0
-2524 -326 -2525 0
2524 -326 2525 0
-2524 326 2525 0
2525 327 -2526 0
-2525 -327 -2526 0
2525 -327 2526 0
-2525 327 2526 0
2526 328 -2527 0
-2526 -328 -2527 0
2526 -328 2527 0
-2526 328 2527 0
2527 329 -2528 0
-2527 -329 -2528 0
2527 -329 2528 0
-2527 329 2528 0
2528 330 -2529 0
-2528 -330 -2529 0
2528 -330 2529 0
-2528 330 2529 0
2529 331 -2530 0
-2529 -331 -2530 0
2529 -331 2530 0
-2529 331 2530 0
2530 332 -2531 0
-2530 -332 -2531 0
2530 -332 2531 0
-2530 332 2531 0
2531 333 -2532 0
-2531 -333 -2532 0
2531 -333 2532 0
-2531 333 2532 0
2532 334 -2533 0
-2532 -334 -2533 0
2532 -334 2533 0
-2532 334 2533 0
2533 335 -2534 0
-2533 -335 -2534 0
2533 -335 2534 0
-2533 335 2534 0
2534 336 -2535 0
-2534 -336 -2535 0
2534 -336 2535 0
-2534 336 2535 0
2535 337 -2536 0
-2535 -337 -2536 0
2535 -337 2536 0
-2535 337 2536 0
2536 338 -2537 0
-2536 -338 -2537 0
2536 -338 2537 0
-2536 338 2537 0
2537 339 -2538 0
-2537 -339 -2538 0
2537 -339 2538 0
-2537 339 2538 0
2538 340 -2539 0
-2538 -340 -2539 0
2538 -340 2539 0
-2538 340 2539 0
2539 341 -2540 0
-2539 -341 -2540 0
2539 -341 2540 0
-2539 341 2540 0
2540 342 -2541 0
-2540 -342 -2541 0
2540 -342 2541 0
-2540 342 2541 0
2541 343 -2542 0
-2541 -343 -2542 0
2541 -343 2542 0
-2541 343 2542 0
2542 344 -2543 0
-2542 -344 -2543 0
2542 -344 2543 0
-2542 344 2543 0
2543 345 -2544 0
-2543 -345 -2544 0
2543 -345 2544 0
-2543 345 2544 0
2544 346 -2545 0
-2544 -346 -2545 0
2544 -346 2545 0
-2544 346 2545 0
2545 347 -2546 0
-2545 -347 -2546 0
2545 -347 2546 0
-2545 347 2546 0
2546 348 -2547 0
-2546 -348 -2547 0
2546 -348 2547 0
-2546 348 2547 0
2547 349 -2548 0
-2547 -349 -2548 0
2547 -349 2548 0
-2547 349 2548 0
2548 350 -2549 0
-2548 -350 -2549 0
2548 -350 2549 0
-2548 350 2549 0
2549 351 -2550 0
-2549 -351 -2550 0
2549 -351 2550 0
-2549 351 2550 0
2550 352 -2551 0
-2550 -352 -2551 0
2550 -352 2551 0
-2550 352 2551 0
2551 353 -2552 0
-2551 -353 -2552 0
2551 -353 2552 0
-2551 353 2552 0
2552 354 -2553 0
-2552 -354 -2553 0
2552 -354 2553 0
-2552 354 2553 0
2553 355 -2554 0
-2553 -355 -2554 0
2553 -355 2554 0
-2553 355 2554 0
2554 356 -2555 0
-2554 -356 -2555 0
2554 -356 2555 0
-2554 356 2555 0
2555 357 -2556 0
-2555 -357 -2556 0
2555 -357 2556 0
-2555 357 2556 0
2556 358 -2557 0
-2556 -358 -2557 0
2556 -358 2557 0
-2556 358 2557 0
2557 359 -2558 0
-2557 -359 -2558 0
2557 -359 2558 0
-2557 359 2558 0
2558 360 -2559 0
-2558 -360 -2559 0
2558 -360 2559 0
-2558 360 2559 0
2559 361 -2560 0
-2559 -361 -2560 0
2559 -361 2560 0
-2559 361 2560 0
2560 362 -2561 0
-2560 -362 -2561 0
2560 -362 2561 0
-2560 362 2561 0
2561 363 -2562 0
-2561 -363 -2562 0
2561 -363 2562 0
-2561 363 2562 0
2562 364 -2563 0
-2562 -364 -2563 0
2562 -364 2563 0
-2562 364 2563 0
2563 365 -2564 0
-2563 -365 -2564 0
2563 -365 2564 0
-2563 365 2564 0
2564 366 -2565 0
-2564 -366 -2565 0
2564 -366 2565 0
-2564 366 2565 0
2565 367 -2566 0
-2565 -367 -2566 0
2565 -367 2566 0
-2565 367 2566 0
2566 368 -2567 0
-2566 -368 -2567 0
2566 -368 2567 0
-2566 368 2567 0
2567 369 -2568 0
-2567 -369 -2568 0
2567 -369 2568 0
-2567 369 2568 0
2568 370 -2569 0
-2568 -370 -2569 0
2568 -370 2569 0
-2568 370 2569 0
2569 371 -2570 0
-2569 -371 -2570 0
2569 -371 2570 0
-2569 371 2570 0
2570 372 -2571 0
-2570 -372 -2571 0
2570 -372 2571 0
-2570 372 2571 0
2571 373 -2572 0
-2571 -373 -2572 0
2571 -373 2572 0
-2571 373 2572 0
2572 374 -2573 0
-2572 -374 -2573 0
2572 -374 2573 0
-2572 374 2573 0
2573 375 -2574 0
-2573 -375 -2574 0
2573 -375 2574 0
-2573 375 2574 0
2574 376 -2575 0
-2574 -376 -2575 0
2574 -376 2575 0
-2574 376 2575 0
2575 377 -2576 0
-2575 -377 -2576 0
2575 -377 2576 0
-2575 377 2576 0
2576 378 -2577 0
-2576 -378 -2577 0
2576 -378 2577 0
-2576 378 2577 0
2577 379 -2578 0
-2577 -379 -2578 0
2577 -379 2578 0
-2577 379 2578 0
2578 380 -2579 0
-2578 -380 -2579 0
2578 -380 2579 0
-2578 380 2579 0
2579 381 -2580 0
-2579 -381 -2580 0
2579 -381 2580 0
-2579 381 2580 0
2580 382 -2581 0
-2580 -382 -2581 0
2580 -382 2581 0
-2580 382 2581 0
2581 383 -2582 0
-2581 -383 -2582 0
2581 -383 2582 0
-2581 383 2582 0
2582 384 -2583 0
-2582 -384 -2583 0
2582 -384 2583 0
-2582 384 2583 0
2583 385 -2584 0
-2583 -385 -2584 0
2583 -385 2584 0
-2583 385 2584 0
2584 386 -2585 0
-2584 -386 -2585 0
2584 -386 2585 0
-2584 386 2585 0
2585 387 -2586 0
-2585 -387 -2586 0
2585 -387 2586 0
-2585 387 2586 0
2586 388 -2587 0
-2586 -388 -2587 0
2586 -388 2587 0
-2586 388 2587 0
2587 389 -2588 0
-2587 -389 -2588 0
2587 -389 2588 0
-2587 389 2588 0
2588 390 -2589 0
-2588 -390 -2589 0
2588 -390 2589 0
-2588 390 2589 0
2589 391 -2590 0
-2589 -391 -2590 0
2589 -391 2590 0
-2589 391 2590 0
2590 392 -2591 0
-2590 -392 -2591 0
2590 -392 2591 0
-2590 392 2591 0
2591 393 -2592 0
-2591 -393 -2592 0
2591 -393 2592 0
-2591 393 2592 0
2592 394 -2593 0
-2592 -394 -2593 0
2592 -394 2593 0
-2592 394 2593 0
2593 395 -2594 0
-2593 -395 -2594 0
2593 -395 2594 0
-2593 395 2594 0
2594 396 -2595 0
-2594 -396 -2595 0
2594 -396 2595 0
-2594 396 2595 0
2595 397 -2596 0
-2595 -397 -2596 0
2595 -397 2596 0
-2595 397 2596 0
2596 398 -2597 0
-2596 -398 -2597 0
2596 -398 2597 0
-2596 398 2597 0
2597 399 -2598 0
-2597 -399 -2598 0
2597 -399 2598 0
-2597 399 2598 0
2598 400 -2599 0
-2598 -400 -2599 0
2598 -400 2599 0
-2598 400 2599 0
2599 401 -2600 0
-2599 -401 -2600 0
2599 -401 2600 0
-2599 401 2600 0
2600 402 -2601 0
-2600 -402 -2601 0
2600 -402 2601 0
-2600 402 2601 0
2601 409 -2602 0
-2601 -409 -2602 0
2601 -409 2602 0
-2601 409 2602 0
2602 410 -2603 0
-2602 -410 -2603 0
2602 -410 2603 0
-2602 410 2603 0
2603 411 -2604 0
-2603 -411 -2604 0
2603 -411 2604 0
-2603 411 2604 0
2604 412 -2605 0
-2604 -412 -2605 0
2604 -412 2605 0
-2604 412 2605 0
2605 413 -2606 0
-2605 -413 -2606 0
2605 -413 2606 0
-2605 413 2606 0
2606 414 -2607 0
-2606 -414 -2607 0
2606 -414 2607 0
-2606 414 2607 0
2607 415 -2608 0
-2607 -415 -2608 0
2607 -415 2608 0
-2607 415 2608 0
2608 416 -2609 0
-2608 -416 -2609 0
2608 -416 2609 0
-2608 416 2609 0
2609 417 -2610 0
-2609 -417 -2610 0
2609 -417 2610 0
-2609 417 2610 0
2610 418 -2611 0
-2610 -418 -2611 0
2610 -418 2611 0
-2610 418 2611 0
2611 419 -2612 0
-2611 -419 -2612 0
2611 -419 2612 0
-2611 419 2612 0
2612 420 -2613 0
-2612 -420 -2613 0
2612 -420 2613 0
-2612 420 2613 0
7 217 -2614 0
-7 -217 -2614 0
7 -217 2614 0
-7 217 2614 0
2614 218 -2615 0
-2614 -218 -2615 0
2614 -218 2615 0
-2614 218 2615 0
2615 219 -2616 0
-2615 -219 -2616 0
2615 -219 2616 0
-2615 219 2616 0
2616 220 -2617 0
-2616 -220 -2617 0
2616 -220 2617 0
-2616 220 2617 0
2617 221 -2618 0
-2617 -221 -2618 0
2617 -221 2618 0
-2617 221 2618 0
2618 222 -2619 0
-2618 -222 -2619 0
2618 -222 2619 0
-2618 222 2619 0
2619 224 -2620 0
-2619 -224 -2620 0
2619 -224 2620 0
-2619 224 2620 0
2620 225 -2621 0
-2620 -225 -2621 0
2620 -225 2621 0
-2620 225 2621 0
2621 226 -2622 0
-2621 -226 -2622 0
2621 -226 2622 0
-2621 226 2622 0
2622 227 -2623 0
-2622 -227 -2623 0
2622 -227 2623 0
-2622 227 2623 0
2623 228 -2624 0
-2623 -228 -2624 0
2623 -228 2624 0
-2623 228 2624 0
2624 230 -2625 0
-2624 -230 -2625 0
2624 -230 2625 0
-2624 230 2625 0
2625 231 -2626 0
-2625 -231 -2626 0
2625 -231 2626 0
-2625 231 2626 0
2626 232 -2627 0
-2626 -232 -2627 0
2626 -232 2627 0
-2626 232 2627 0
2627 233 -2628 0
-2627 -233 -2628 0
2627 -233 2628 0
-2627 233 2628 0
2628 234 -2629 0
-2628 -234 -2629 0
2628 -234 2629 0
-2628 234 2629 0
2629 236 -2630 0
-2629 -236 -2630 0
2629 -236 2630 0
-2629 236 2630 0
2630 237 -2631 0
-2630 -237 -2631 0
2630 -237 2631 0
-2630 237 2631 0
2631 238 -2632 0
-2631 -238 -2632 0
2631 -238 2632 0
-2631 238 2632 0
2632 239 -2633 0
-2632 -239 -2633 0
2632 -239 2633 0
-2632 239 2633 0
2633 240 -2634 0
-2633 -240 -2634 0
2633 -240 2634 0
-2633 240 2634 0
2634 242 -2635 0
-2634 -242 -2635 0
2634 -242 2635 0
-2634 242 2635 0
2635 243 -2636 0
-2635 -243 -2636 0
2635 -243 2636 0
-2635 243 2636 0
2636 244 -2637 0
-2636 -244 -2637 0
2636 -244 2637 0
-2636 244 2637 0
2637 245 -2638 0
-2637 -245 -2638 0
2637 -245 2638 0
-2637 245 2638 0
2638 246 -2639 0
-2638 -246 -2639 0
2638 -246 2639 0
-2638 246 2639 0
2639 248 -2640 0
-2639 -248 -2640 0
2639 -248 2640 0
-2639 248 2640 0
2640 249 -2641 0
-2640 -249 -2641 0
2640 -249 2641 0
-2640 249 2641 0
2641 250 -2642 0
-2641 -250 -2642 0
2641 -250 2642 0
-2641 250 2642 0
2642 251 -2643 0
-2642 -251 -2643 0
2642 -251 2643 0
-2642 251 2643 0
2643 252 -2644 0
-2643 -252 -2644 0
2643 -252 2644 0
-2643 252 2644 0
2644 254 -2645 0
-2644 -254 -2645 0
2644 -254 2645 0
-2644 254 2645 0
2645 255 -2646 0
-2645 -255 -2646 0
2645 -255 2646 0
-2645 255 2646 0
2646 256 -2647 0
-2646 -256 -2647 0
2646 -256 2647 0
-2646 256 2647 0
2647 257 -2648 0
-2647 -257 -2648 0
2647 -257 2648 0
-2647 257 2648 0
2648 258 -2649 0
-2648 -258 -2649 0
2648 -258 2649 0
-2648 258 2649 0
2649 260 -2650 0
-2649 -260 -2650 0
2649 -260 2650 0
-2649 260 2650 0
2650 261 -2651 0
-2650 -261 -2651 0
2650 -261 2651 0
-2650 261 2651 0
2651 262 -2652 0
-2651 -262 -2652 0
2651 -262 2652 0
-2651 262 2652 0
2652 263 -2653 0
-2652 -263 -2653 0
2652 -263 2653 0
-2652 263 2653 0
2653 264 -2654 0
-2653 -264 -2654 0
2653 -264 2654 0
-2653 264 2654 0
2654 266 -2655 0
-2654 -266 -2655 0
2654 -266 2655 0
-2654 266 2655 0
2655 267 -2656 0
-2655 -267 -2656 0
2655 -267 2656 0
-2655 267 2656 0
2656 268 -2657 0
-2656 -268 -2657 0
2656 -268 2657 0
-2656 268 2657 0
2657 269 -2658 0
-2657 -269 -2658 0
2657 -269 2658 0
-2657 269 2658 0
2658 270 -2659 0
-2658 -270 -2659 0
2658 -270 2659 0
-2658 270 2659 0
2659 272 -2660 0
-2659 -272 -2660 0
2659 -272 2660 0
-2659 272 2660 0
2660 273 -2661 0
-2660 -273 -2661 0
2660 -273 2661 0
-2660 273 2661 0
2661 274 -2662 0
-2661 -274 -2662 0
2661 -274 2662 0
-2661 274 2662 0
2662 275 -2663 0
-2662 -275 -2663 0
2662 -275 2663 0
-2662 275 2663 0
2663 276 -2664 0
-2663 -276 -2664 0
2663 -276 2664 0
-2663 276 2664 0
2664 278 -2665 0
-2664 -278 -2665 0
2664 -278 2665 0
-2664 278 2665 0
2665 279 -2666 0
-2665 -279 -2666 0
2665 -279 2666 0
-2665 279 2666 0
2666 280 -2667 0
-2666 -280 -2667 0
2666 -280 2667 0
-2666 280 2667 0
2667 281 -2668 0
-2667 -281 -2668 0
2667 -281 2668 0
-2667 281 2668 0
2668 282 -2669 0
-2668 -282 -2669 0
2668 -282 2669 0
-2668 282 2669 0
2669 284 -2670 0
-2669 -284 -2670 0
2669 -284 2670 0
-2669 284 2670 0
2670 285 -2671 0
-2670 -285 -2671 0
2670 -285 2671 0
-2670 285 2671 0
2671 286 -2672 0
-2671 -286 -2672 0
2671 -286 2672 0
-2671 286 2672 0
2672 287 -2673 0
-2672 -287 -2673 0
2672 -287 2673 0
-2672 287 2673 0
2673 288 -2674 0
-2673 -288 -2674 0
2673 -288 2674 0
-2673 288 2674 0
2674 290 -2675 0
-2674 -290 -2675 0
2674 -290 2675 0
-2674 290 2675 0
2675 291 -2676 0
-2675 -291 -2676 0
2675 -291 2676 0
-2675 291 2676 0
2676 292 -2677 0
-2676 -292 -2677 0
2676 -292 2677 0
-2676 292 2677 0
2677 293 -2678 0
-2677 -293 -2678 0
2677 -293 2678 0
-2677 293 2678 0
2678 294 -2679 0
-2678 -294 -2679 0
2678 -294 2679 0
-2678 294 2679 0
2679 296 -2680 0
-2679 -296 -2680 0
2679 -296 2680 0
-2679 296 2680 0
2680 297 -2681 0
-2680 -297 -2681 0
2680 -297 2681 0
-2680 297 2681 0
2681 298 -2682 0
-2681 -298 -2682 0
2681 -298 2682 0
-2681 298 2682 0
2682 299 -2683 0
-2682 -299 -2683 0
2682 -299 2683 0
-2682 299 2683 0
2683 300 -2684 0
-2683 -300 -2684 0
2683 -300 2684 0
-2683 300 2684 0
2684 302 -2685 0
-2684 -302 -2685 0
2684 -302 2685 0
-2684 302 2685 0
2685 303 -2686 0
-2685 -303 -2686 0
2685 -303 2686 0
-2685 303 2686 0
2686 304 -2687 0
-2686 -304 -2687 0
2686 -304 2687 0
-2686 304 2687 0
2687 305 -2688 0
-2687 -305 -2688 0
2687 -305 2688 0
-2687 305 2688 0
2688 306 -2689 0
-2688 -306 -2689 0
2688 -306 2689 0
-2688 306 2689 0
2689 308 -2690 0
-2689 -308 -2690 0
2689 -308 2690 0
-2689 308 2690 0
2690 309 -2691 0
-2690 -309 -2691 0
2690 -309 2691 0
-2690 309 2691 0
2691 310 -2692 0
-2691 -310 -2692 0
2691 -310 2692 0
-2691 310 2692 0
2692 311 -2693 0
-2692 -311 -2693 0
2692 -311 2693 0
-2692 311 2693 0
2693 312 -2694 0
-2693 -312 -2694 0
2693 -312 2694 0
-2693 312 2694 0
2694 314 -2695 0
-2694 -314 -2695 0
2694 -314 2695 0
-2694 314 2695 0
2695 315 -2696 0
-2695 -315 -2696 0
2695 -315 2696 0
-2695 315 2696 0
2696 316 -2697 0
-2696 -316 -2697 0
2696 -316 2697 0
-2696 316 2697 0
2697 317 -2698 0
-2697 -317 -2698 0
2697 -317 2698 0
-2697 317 2698 0
2698 318 -2699 0
-2698 -318 -2699 0
2698 -318 2699 0
-2698 318 2699 0
2699 320 -2700 0
-2699 -320 -2700 0
2699 -320 2700 0
-2699 320 2700 0
2700 321 -2701 0
-2700 -321 -2701 0
2700 -321 2701 0
-2700 321 2701 0
2701 322 -2702 0
-2701 -322 -2702 0
2701 -322 2702 0
-2701 322 2702 0
2702 323 -2703 0
-2702 -323 -2703 0
2702 -323 2703 0
-2702 323 2703 0
2703 324 -2704 0
-2703 -324 -2704 0
2703 -324 2704 0
-2703 324 2704 0
2704 326 -2705 0
-2704 -326 -2705 0
2704 -326 2705 0
-2704 326 2705 0
2705 327 -2706 0
-2705 -327 -2706 0
2705 -327 2706 0
-2705 327 2706 0
2706 328 -2707 0
-2706 -328 -2707 0
2706 -328 2707 0
-2706 328 2707 0
2707 329 -2708 0
-2707 -329 -2708 0
2707 -329 2708 0
-2707 329 2708 0
2708 330 -2709 0
-2708 -330 -2709 0
2708 -330 2709 0
-2708 330 2709 0
2709 332 -2710 0
-2709 -332 -2710 0
2709 -332 2710 0
-2709 332 2710 0
2710 333 -2711 0
-2710 -333 -2711 0
2710 -333 2711 0
-2710 333 2711 0
2711 334 -2712 0
-2711 -334 -2712 0
2711 -334 2712 0
-2711 334 2712 0
2712 335 -2713 0
-2712 -335 -2713 0
2712 -335 2713 0
-2712 335 2713 0
2713 336 -2714 0
-2713 -336 -2714 0
2713 -336 2714 0
-2713 336 2714 0
2714 338 -2715 0
-2714 -338 -2715 0
2714 -338 2715 0
-2714 338 2715 0
2715 339 -2716 0
-2715 -339 -2716 0
2715 -339 2716 0
-2715 339 2716 0
2716 340 -2717 0
-2716 -340 -2717 0
2716 -340 2717 0
-2716 340 2717 0
2717 341 -2718 0
-2717 -341 -2718 0
2717 -341 2718 0
-2717 341 2718 0
2718 342 -2719 0
-2718 -342 -2719 0
2718 -342 2719 0
-2718 342 2719 0
2719 344 -2720 0
-2719 -344 -2720 0
2719 -344 2720 0
-2719 344 2720 0
2720 345 -2721 0
-2720 -345 -2721 0
2720 -345 2721 0
-2720 345 2721 0
2721 346 -2722 0
-2721 -346 -2722 0
2721 -346 2722 0
-2721 346 2722 0
2722 347 -2723 0
-2722 -347 -2723 0
2722 -347 2723 0
-2722 347 2723 0
2723 348 -2724 0
-2723 -348 -2724 0
2723 -348 2724 0
-2723 348 2724 0
2724 350 -2725 0
-2724 -350 -2725 0
2724 -350 2725 0
-2724 350 2725 0
2725 351 -2726 0
-2725 -351 -2726 0
2725 -351 2726 0
-2725 351 2726 0
2726 352 -2727 0
-2726 -352 -2727 0
2726 -352 2727 0
-2726 352 2727 0
2727 353 -2728 0
-2727 -353 -2728 0
2727 -353 2728 0
-2727 353 2728 0
2728 354 -2729 0
-2728 -354 -2729 0
2728 -354 2729 0
-2728 354 2729 0
2729 356 -2730 0
-2729 -356 -2730 0
2729 -356 2730 0
-2729 356 2730 0
2730 357 -2731 0
-2730 -357 -2731 0
2730 -357 2731 0
-2730 357 2731 0
2731 358 -2732 0
-2731 -358 -2732 0
2731 -358 2732 0
-2731 358 2732 0
2732 359 -2733 0
-2732 -359 -2733 0
2732 -359 2733 0
-2732 359 2733 0
2733 360 -2734 0
-2733 -360 -2734 0
2733 -360 2734 0
-2733 360 2734 0
2734 362 -2735 0
-2734 -362 -2735 0
2734 -362 2735 0
-2734 362 2735 0
2735 363 -2736 0
-2735 -363 -2736 0
2735 -363 2736 0
-2735 363 2736 0
2736 364 -2737 0
-2736 -364 -2737 0
2736 -364 2737 0
-2736 364 2737 0
2737 365 -2738 0
-2737 -365 -2738 0
2737 -365 2738 0
-2737 365 2738 0
2738 366 -2739 0
-2738 -366 -2739 0
2738 -366 2739 0
-2738 366 2739 0
2739 368 -2740 0
-2739 -368 -2740 0
2739 -368 2740 0
-2739 368 2740 0
2740 369 -2741 0
-2740 -369 -2741 0
2740 -369 2741 0
-2740 369 2741 0
2741 370 -2742 0
-2741 -370 -2742 0
2741 -370 2742 0
-2741 370 2742 0
2742 371 -2743 0
-2742 -371 -2743 0
2742 -371 2743 0
-2742 371 2743 0
2743 372 -2744 0
-2743 -372 -2744 0
2743 -372 2744 0
-2743 372 2744 0
2744 374 -2745 0
-2744 -374 -2745 0
2744 -374 2745 0
-2744 374 2745 0
2745 375 -2746 0
-2745 -375 -2746 0
2745 -375 2746 0
-2745 375 2746 0
2746 376 -2747 0
-2746 -376 -2747 0
2746 -376 2747 0
-2746 376 2747 0
2747 377 -2748 0
-2747 -377 -2748 0
2747 -377 2748 0
-2747 377 2748 0
2748 378 -2749 0
-2748 -378 -2749 0
2748 -378 2749 0
-2748 378 2749 0
2749 380 -2750 0
-2749 -380 -2750 0
2749 -380 2750 0
-2749 380 2750 0
2750 381 -2751 0
-2750 -381 -2751 0
2750 -381 2751 0
-2750 381 2751 0
2751 382 -2752 0
-2751 -382 -2752 0
2751 -382 2752 0
-2751 382 2752 0
2752 383 -2753 0
-2752 -383 -2753 0
2752 -383 2753 0
-2752 383 2753 0
2753 384 -2754 0
-2753 -384 -2754 0
2753 -384 2754 0
-2753 384 2754 0
2754 386 -2755 0
-2754 -386 -2755 0
2754 -386 2755 0
-2754 386 2755 0
2755 387 -2756 0
-2755 -387 -2756 0
2755 -387 2756 0
-2755 387 2756 0
2756 388 -2757 0
-2756 -388 -2757 0
2756 -388 2757 0
-2756 388 2757 0
2757 389 -2758 0
-2757 -389 -2758 0
2757 -389 2758 0
-2757 389 2758 0
2758 390 -2759 0
-2758 -390 -2759 0
2758 -390 2759 0
-2758 390 2759 0
2759 392 -2760 0
-2759 -392 -2760 0
2759 -392 2760 0
-2759 392 2760 0
2760 393 -2761 0
-2760 -393 -2761 0
2760 -393 2761 0
-2760 393 2761 0
2761 394 -2762 0
-2761 -394 -2762 0
2761 -394 2762 0
-2761 394 2762 0
2762 395 -2763 0
-2762 -395 -2763 0
2762 -395 2763 0
-2762 395 2763 0
2763 396 -2764 0
-2763 -396 -2764 0
2763 -396 2764 0
-2763 396 2764 0
2764 398 -2765 0
-2764 -398 -2765 0
2764 -398 2765 0
-2764 398 2765 0
2765 399 -2766 0
-2765 -399 -2766 0
2765 -399 2766 0
-2765 399 2766 0
2766 400 -2767 0
-2766 -400 -2767 0
2766 -400 2767 0
-2766 400 2767 0
2767 401 -2768 0
-2767 -401 -2768 0
2767 -401 2768 0
-2767 401 2768 0
2768 402 -2769 0
-2768 -402 -2769 0
2768 -402 2769 0
-2768 402 2769 0
2769 409 -2770 0
-2769 -409 -2770 0
2769 -409 2770 0
-2769 409 2770 0
2770 410 -2771 0
-2770 -410 -2771 0
2770 -410 2771 0
-2770 410 2771 0
2771 411 -2772 0
-2771 -411 -2772 0
2771 -411 2772 0
-2771 411 2772 0
2772 412 -2773 0
-2772 -412 -2773 0
2772 -412 2773 0
-2772 412 2773 0
2773 413 -2774 0
-2773 -413 -2774 0
2773 -413 2774 0
-2773 413 2774 0
2774 414 -2775 0
-2774 -414 -2775 0
2774 -414 2775 0
-2774 414 2775 0
2775 416 -2776 0
-2775 -416 -2776 0
2775 -416 2776 0
-2775 416 2776 0
2776 417 -2777 0
-2776 -417 -2777 0
2776 -417 2777 0
-2776 417 2777 0
2777 418 -2778 0
-2777 -418 -2778 0
2777 -418 2778 0
-2777 418 2778 0
2778 419 -2779 0
-2778 -419 -2779 0
2778 -419 2779 0
-2778 419 2779 0
2779 420 -2780 0
-2779 -420 -2780 0
2779 -420 2780 0
-2779 420 2780 0
13 218 -2781 0
-13 -218 -2781 0
13 -218 2781 0
-13 218 2781 0
2781 219 -2782 0
-2781 -219 -2782 0
2781 -219 2782 0
-2781 219 2782 0
2782 220 -2783 0
-2782 -220 -2783 0
2782 -220 2783 0
-2782 220 2783 0
2783 221 -2784 0
-2783 -221 -2784 0
2783 -221 2784 0
-2783 221 2784 0
2784 222 -2785 0
-2784 -222 -2785 0
2784 -222 2785 0
-2784 222 2785 0
2785 223 -2786 0
-2785 -223 -2786 0
2785 -223 2786 0
-2785 223 2786 0
2786 410 -2787 0
-2786 -410 -2787 0
2786 -410 2787 0
-2786 410 2787 0
2787 411 -2788 0
-2787 -411 -2788 0
2787 -411 2788 0
-2787 411 2788 0
2788 412 -2789 0
-2788 -412 -2789 0
2788 -412 2789 0
-2788 412 2789 0
2789 413 -2790 0
-2789 -413 -2790 0
2789 -413 2790 0
-2789 413 2790 0
2790 414 -2791 0
-2790 -414 -2791 0
2790 -414 2791 0
-2790 414 2791 0
2791 415 -2792 0
-2791 -415 -2792 0
2791 -415 2792 0
-2791 415 2792 0
14 219 -2793 0
-14 -219 -2793 0
14 -219 2793 0
-14 219 2793 0
2793 220 -2794 0
-2793 -220 -2794 0
2793 -220 2794 0
-2793 220 2794 0
2794 221 -2795 0
-2794 -221 -2795 0
2794 -221 2795 0
-2794 221 2795 0
2795 222 -2796 0
-2795 -222 -2796 0
2795 -222 2796 0
-2795 222 2796 0
2796 223 -2797 0
-2796 -223 -2797 0
2796 -223 2797 0
-2796 223 2797 0
2797 224 -2798 0
-2797 -224 -2798 0
2797 -224 2798 0
-2797 224 2798 0
2798 411 -2799 0
-2798 -411 -2799 0
2798 -411 2799 0
-2798 411 2799 0
2799 412 -2800 0
-2799 -412 -2800 0
2799 -412 2800 0
-2799 412 2800 0
2800 413 -2801 0
-2800 -413 -2801 0
2800 -413 2801 0
-2800 413 2801 0
2801 414 -2802 0
-2801 -414 -2802 0
2801 -414 2802 0
-2801 414 2802 0
2802 415 -2803 0
-2802 -415 -2803 0
2802 -415 2803 0
-2802 415 2803 0
2803 416 -2804 0
-2803 -416 -2804 0
2803 -416 2804 0
-2803 416 2804 0
15 220 -2805 0
-15 -220 -2805 0
15 -220 2805 0
-15 220 2805 0
2805 221 -2806 0
-2805 -221 -2806 0
2805 -221 2806 0
-2805 221 2806 0
2806 222 -2807 0
-2806 -222 -2807 0
2806 -222 2807 0
-2806 222 2807 0
2807 223 -2808 0
-2807 -223 -2808 0
2807 -223 2808 0
-2807 223 2808 0
2808 224 -2809 0
-2808 -224 -2809 0
2808 -224 2809 0
-2808 224 2809 0
2809 225 -2810 0
-2809 -225 -2810 0
2809 -225 2810 0
-2809 225 2810 0
2810 412 -2811 0
-2810 -412 -2811 0
2810 -412 2811 0
-2810 412 2811 0
2811 413 -2812 0
-2811 -413 -2812 0
2811 -413 2812 0
-2811 413 2812 0
2812 414 -2813 0
-2812 -414 -2813 0
2812 -414 2813 0
-2812 414 2813 0
2813 415 -2814 0
-2813 -415 -2814 0
2813 -415 2814 0
-2813 415 2814 0
2814 416 -2815 0
-2814 -416 -2815 0
2814 -416 2815 0
-2814 416 2815 0
2815 417 -2816 0
-2815 -417 -2816 0
2815 -417 2816 0
-2815 417 2816 0
16 221 -2817 0
-16 -221 -2817 0
16 -221 2817 0
-16 221 2817 0
2817 222 -2818 0
-2817 -222 -2818 0
2817 -222 2818 0
-2817 222 2818 0
2818 223 -2819 0
-2818 -223 -2819 0
2818 -223 2819 0
-2818 223 2819 0
2819 224 -2820 0
-2819 -224 -2820 0
2819 -224 2820 0
-2819 224 2820 0
2820 225 -2821 0
-2820 -225 -2821 0
2820 -225 2821 0
-2820 225 2821 0
2821 226 -2822 0
-2821 -226 -2822 0
2821 -226 2822 0
-2821 226 2822 0
2822 413 -2823 0
-2822 -413 -2823 0
2822 -413 2823 0
-2822 413 2823 0
2823 414 -2824 0
-2823 -414 -2824 0
2823 -414 2824 0
-2823 414 2824 0
2824 415 -2825 0
-2824 -415 -2825 0
2824 -415 2825 0
-2824 415 2825 0
2825 416 -2826 0
-2825 -416 -2826 0
2825 -416 2826 0
-2825 416 2826 0
2826 417 -2827 0
-2826 -417 -2827 0
2826 -417 2827 0
-2826 417 2827 0
2827 418 -2828 0
-2827 -418 -2828 0
2827 -418 2828 0
-2827 418 2828 0
17 222 -2829 0
-17 -222 -2829 0
17 -222 2829 0
-17 222 2829 0
2829 223 -2830 0
-2829 -223 -2830 0
2829 -223 2830 0
-2829 223 2830 0
2830 224 -2831 0
-2830 -224 -2831 0
2830 -224 2831 0
-2830 224 2831 0
2831 225 -2832 0
-2831 -225 -2832 0
2831 -225 2832 0
-2831 225 2832 0
2832 226 -2833 0
-2832 -226 -2833 0
2832 -226 2833 0
-2832 226 2833 0
2833 227 -2834 0
-2833 -227 -2834 0
2833 -227 2834 0
-2833 227 2834 0
2834 414 -2835 0
-2834 -414 -2835 0
2834 -414 2835 0
-2834 414 2835 0
2835 415 -2836 0
-2835 -415 -2836 0
2835 -415 2836 0
-2835 415 2836 0
2836 416 -2837 0
-2836 -416 -2837 0
2836 -416 2837 0
-2836 416 2837 0
2837 417 -2838 0
-2837 -417 -2838 0
2837 -417 2838 0
-2837 417 2838 0
2838 418 -2839 0
-2838 -418 -2839 0
2838 -418 2839 0
-2838 418 2839 0
2839 419 -2840 0
-2839 -419 -2840 0
2839 -419 2840 0
-2839 419 2840 0
1933 2007 2112 2248 2415 2613 2780 2792 2804 2816 2828 2840 0
-1 0
-2 0
-3 0
-4 0
-5 0
-6 0
-7 0
-8 0
-9 0
-10 0
-11 0
-12 0
-13 0
-14 0
-15 0
-16 0
-17 0
-18 0
-19 0
-20 0
-21 0
-22 0
-23 0
-24 0
-25 0
-26 0
-27 0
-28 0
-29 0
-30 0
-31 0
-32 0
-33 0
-34 0
-35 0
-36 0
-37 0
-38 0
-39 0
-40 0
-41 0
-42 0
-43 0
-44 0
-45 0
-46 0
-47 0
-48 0
-49 0
-50 0
-51 0
-52 0
-53 0
-54 0
-55 0
-56 0
-57 0
-58 0
-59 0
-60 0
-61 0
-62 0
-63 0
-64 0
-65 0
-66 0
-67 0
-68 0
-69 0
-70 0
-71 0
-72 0
-73 0
-74 0
-75 0
-76 0
-77 0
-78 0
-79 0
-80 0
-81 0
-82 0
-83 0
-84 0
-85 0
-86 0
-87 0
-88 0
-89 0
-90 0
-91 0
-92 0
-93 0
-94 0
-95 0
-96 0
-97 0
-98 0
-99 0
-100 0
-101 0
-102 0
-103 0
-104 0
-105 0
-106 0
-107 0
-108 0
-109 0
-110 0
-111 0
-112 0
-113 0
-114 0
-115 0
-116 0
-117 0
-118 0
-119 0
-120 0
-121 0
-122 0
-123 0
-124 0
-125 0
-126 0
-127 0
-128 0
-129 0
-130 0
-131 0
-132 0
-133 0
-134 0
-135 0
-136 0
-137 0
-138 0
-139 0
-140 0
-141 0
-142 0
-143 0
-144 0
-145 0
-146 0
-147 0
-148 0
-149 0
-150 0
-151 0
-152 0
-153 0
-154 0
-155 0
-156 0
-157 0
-158 0
-159 0
-160 0
-161 0
-162 0
-163 0
-164 0
-165 0
-166 0
-167 0
-168 0
-169 0
-170 0
-171 0
-172 0
-173 0
-174 0
-175 0
-176 0
-177 0
-178 0
-179 0
-180 0
-181 0
-182 0
-183 0
-184 0
-185 0
-186 0
-187 0
-188 0
-189 0
-190 0
-191 0
-192 0
-193 0
-194 0
-195 0
-196 0
-197 0
-198 0
-199 0
-200 0
-201 0
-202 0
-203 0
-204 0
-205 0
-206 0
-207 0
-208 0
-209 0
-210 0
211 0
-2849 2843 2850 0
-2846 2843 2850 0
-2846 -2849 2850 0
-2850 2841 0
-2847 2841 0
-2850 -2847 2842 0
-2848 2842 0
-2850 -2848 0
-2844 2841 0
-2850 -2844 2842 0
-2845 2842 0
-2850 -2845 0
-2844 -2847 2842 0
-2850 -2844 -2847 0
-2844 -2848 0
-2850 -2844 -2848 0
-2845 -2847 0
-2850 -2845 -2847 0
-2845 -2848 0
-2850 -2845 -2848 0
-2856 2849 2857 0
-2853 2849 2857 0
-2853 -2856 2857 0
-2857 2847 0
-2854 2847 0
-2857 -2854 2848 0
-2855 2848 0
-2857 -2855 0
-2851 2847 0
-2857 -2851 2848 0
-2852 2848 0
-2857 -2852 0
-2851 -2854 2848 0
-2857 -2851 -2854 0
-2851 -2855 0
-2857 -2851 -2855 0
-2852 -2854 0
-2857 -2852 -2854 0
-2852 -2855 0
-2857 -2852 -2855 0
-2863 2856 2864 0
-2860 2856 2864 0
-2860 -2863 2864 0
-2864 2854 0
-2861 2854 0
-2864 -2861 2855 0
-2862 2855 0
-2864 -2862 0
-2858 2854 0
-2864 -2858 2855 0
-2859 2855 0
-2864 -2859 0
-2858 -2861 2855 0
-2864 -2858 -2861 0
-2858 -2862 0
-2864 -2858 -2862 0
-2859 -2861 0
-2864 -2859 -2861 0
-2859 -2862 0
-2864 -2859 -2862 0
-2870 2863 2871 0
-2867 2863 2871 0
-2867 -2870 2871 0
-2871 2861 0
-2868 2861 0
-2871 -2868 2862 0
-2869 2862 0
-2871 -2869 0
-2865 2861 0
-2871 -2865 2862 0
-2866 2862 0
-2871 -2866 0
-2865 -2868 2862 0
-2871 -2865 -2868 0
-2865 -2869 0
-2871 -2865 -2869 0
-2866 -2868 0
-2871 -2866 -2868 0
-2866 -2869 0
-2871 -2866 -2869 0
-2877 2870 2878 0
-2874 2870 2878 0
-2874 -2877 2878 0
-2878 2868 0
-2875 2868 0
-2878 -2875 2869 0
-2876 2869 0
-2878 -2876 0
-2872 2868 0
-2878 -2872 2869 0
-2873 2869 0
-2878 -2873 0
-2872 -2875 2869 0
-2878 -2872 -2875 0
-2872 -2876 0
-2878 -2872 -2876 0
-2873 -2875 0
-2878 -2873 -2875 0
-2873 -2876 0
-2878 -2873 -2876 0
-2884 2877 2885 0
-2881 2877 2885 0
-2881 -2884 2885 0
-2885 2875 0
-2882 2875 0
-2885 -2882 2876 0
-2883 2876 0
-2885 -2883 0
-2879 2875 0
-2885 -2879 2876 0
-2880 2876 0
-2885 -2880 0
-2879 -2882 2876 0
-2885 -2879 -2882 0
-2879 -2883 0
-2885 -2879 -2883 0
-2880 -2882 0
-2885 -2880 -2882 0
-2880 -2883 0
-2885 -2880 -2883 0
-2889 2884 2890 0
-2887 2884 2890 0
-2887 -2889 2890 0
-2890 2882 0
-2888 2882 0
-2890 -2888 2883 0
-2886 2882 0
-2890 -2886 2883 0
-2886 -2888 2883 0
-2890 -2886 -2888 0
-420 2889 2893 0
-2892 2889 2893 0
-2892 -420 2893 0
-2893 2888 0
-2891 2888 0
-2893 -2891 0
-419 2892 2894 0
-418 2892 2894 0
-418 -419 2894 0
-2894 2891 0
-417 2887 2897 0
-2896 2887 2897 0
-2896 -417 2897 0
-2897 2886 0
-2895 2886 0
-2897 -2895 0
-416 2896 2898 0
-415 2896 2898 0
-415 -416 2898 0
-2898 2895 0
-2903 2881 2904 0
-2901 2881 2904 0
-2901 -2903 2904 0
-2904 2879 0
-2902 2879 0
-2904 -2902 2880 0
-2899 2879 0
-2904 -2899 2880 0
-2900 2880 0
-2904 -2900 0
-2899 -2902 2880 0
-2904 -2899 -2902 0
-2900 -2902 0
-2904 -2900 -2902 0
-414 2903 2907 0
-2906 2903 2907 0
-2906 -414 2907 0
-2907 2902 0
-2905 2902 0
-2907 -2905 0
-413 2906 2908 0
-412 2906 2908 0
-412 -413 2908 0
-2908 2905 0
-2912 2901 2913 0
-2910 2901 2913 0
-2910 -2912 2913 0
-2913 2899 0
-2911 2899 0
-2913 -2911 2900 0
-2909 2899 0
-2913 -2909 2900 0
-2909 -2911 2900 0
-2913 -2909 -2911 0
-411 2912 2914 0
-410 2912 2914 0
-410 -411 2914 0
-2914 2911 0
-409 2910 2915 0
-408 2910 2915 0
-408 -409 2915 0
-2915 2909 0
-2921 2874 2922 0
-2918 2874 2922 0
-2918 -2921 2922 0
-2922 2872 0
-2919 2872 0
-2922 -2919 2873 0
-2920 2873 0
-2922 -2920 0
-2916 2872 0
-2922 -2916 2873 0
-2917 2873 0
-2922 -2917 0
-2916 -2919 2873 0
-2922 -2916 -2919 0
-2916 -2920 0
-2922 -2916 -2920 0
-2917 -2919 0
-2922 -2917 -2919 0
-2917 -2920 0
-2922 -2917 -2920 0
-2926 2921 2927 0
-2924 2921 2927 0
-2924 -2926 2927 0
-2927 2919 0
-2925 2919 0
-2927 -2925 2920 0
-2923 2919 0
-2927 -2923 2920 0
-2923 -2925 2920 0
-2927 -2923 -2925 0
-407 2926 2930 0
-2929 2926 2930 0
-2929 -407 2930 0
-2930 2925 0
-2928 2925 0
-2930 -2928 0
-406 2929 2931 0
-405 2929 2931 0
-405 -406 2931 0
-2931 2928 0
-404 2924 2934 0
-2933 2924 2934 0
-2933 -404 2934 0
-2934 2923 0
-2932 2923 0
-2934 -2932 0
-403 2933 2935 0
-402 2933 2935 0
-402 -403 2935 0
-2935 2932 0
-2940 2918 2941 0
-2938 2918 2941 0
-2938 -2940 2941 0
-2941 2916 0
-2939 2916 0
-2941 -2939 2917 0
-2936 2916 0
-2941 -2936 2917 0
-2937 2917 0
-2941 -2937 0
-2936 -2939 2917 0
-2941 -2936 -2939 0
-2937 -2939 0
-2941 -2937 -2939 0
-401 2940 2944 0
-2943 2940 2944 0
-2943 -401 2944 0
-2944 2939 0
-2942 2939 0
-2944 -2942 0
-400 2943 2945 0
-399 2943 2945 0
-399 -400 2945 0
-2945 2942 0
-2949 2938 2950 0
-2947 2938 2950 0
-2947 -2949 2950 0
-2950 2936 0
-2948 2936 0
-2950 -2948 2937 0
-2946 2936 0
-2950 -2946 2937 0
-2946 -2948 2937 0
-2950 -2946 -2948 0
-398 2949 2951 0
-397 2949 2951 0
-397 -398 2951 0
-2951 2948 0
-396 2947 2952 0
-395 2947 2952 0
-395 -396 2952 0
-2952 2946 0
-2958 2867 2959 0
-2955 2867 2959 0
-2955 -2958 2959 0
-2959 2865 0
-2956 2865 0
-2959 -2956 2866 0
-2957 2866 0
-2959 -2957 0
-2953 2865 0
-2959 -2953 2866 0
-2954 2866 0
-2959 -2954 0
-2953 -2956 2866 0
-2959 -2953 -2956 0
-2953 -2957 0
-2959 -2953 -2957 0
-2954 -2956 0
-2959 -2954 -2956 0
-2954 -2957 0
-2959 -2954 -2957 0
-2965 2958 2966 0
-2962 2958 2966 0
-2962 -2965 2966 0
-2966 2956 0
-2963 2956 0
-2966 -2963 2957 0
-2964 2957 0
-2966 -2964 0
-2960 2956 0
-2966 -2960 2957 0
-2961 2957 0
-2966 -2961 0
-2960 -2963 2957 0
-2966 -2960 -2963 0
-2960 -2964 0
-2966 -2960 -2964 0
-2961 -2963 0
-2966 -2961 -2963 0
-2961 -2964 0
-2966 -2961 -2964 0
-2970 2965 2971 0
-2968 2965 2971 0
-2968 -2970 2971 0
-2971 2963 0
-2969 2963 0
-2971 -2969 2964 0
-2967 2963 0
-2971 -2967 2964 0
-2967 -2969 2964 0
-2971 -2967 -2969 0
-394 2970 2974 0
-2973 2970 2974 0
-2973 -394 2974 0
-2974 2969 0
-2972 2969 0
-2974 -2972 0
-393 2973 2975 0
-392 2973 2975 0
-392 -393 2975 0
-2975 2972 0
-391 2968 2978 0
-2977 2968 2978 0
-2977 -391 2978 0
-2978 2967 0
-2976 2967 0
-2978 -2976 0
-390 2977 2979 0
-389 2977 2979 0
-389 -390 2979 0
-2979 2976 0
-2984 2962 2985 0
-2982 2962 2985 0
-2982 -2984 2985 0
-2985 2960 0
-2983 2960 0
-2985 -2983 2961 0
-2980 2960 0
-2985 -2980 2961 0
-2981 2961 0
-2985 -2981 0
-2980 -2983 2961 0
-2985 -2980 -2983 0
-2981 -2983 0
-2985 -2981 -2983 0
-388 2984 2988 0
-2987 2984 2988 0
-2987 -388 2988 0
-2988 2983 0
-2986 2983 0
-2988 -2986 0
-387 2987 2989 0
-386 2987 2989 0
-386 -387 2989 0
-2989 2986 0
-2993 2982 2994 0
-2991 2982 2994 0
-2991 -2993 2994 0
-2994 2980 0
-2992 2980 0
-2994 -2992 2981 0
-2990 2980 0
-2994 -2990 2981 0
-2990 -2992 2981 0
-2994 -2990 -2992 0
-385 2993 2995 0
-384 2993 2995 0
-384 -385 2995 0
-2995 2992 0
-383 2991 2996 0
-382 2991 2996 0
-382 -383 2996 0
-2996 2990 0
-3002 2955 3003 0
-2999 2955 3003 0
-2999 -3002 3003 0
-3003 2953 0
-3000 2953 0
-3003 -3000 2954 0
-3001 2954 0
-3003 -3001 0
-2997 2953 0
-3003 -2997 2954 0
-2998 2954 0
-3003 -2998 0
-2997 -3000 2954 0
-3003 -2997 -3000 0
-2997 -3001 0
-3003 -2997 -3001 0
-2998 -3000 0
-3003 -2998 -3000 0
-2998 -3001 0
-3003 -2998 -3001 0
-3007 3002 3008 0
-3005 3002 3008 0
-3005 -3007 3008 0
-3008 3000 0
-3006 3000 0
-3008 -3006 3001 0
-3004 3000 0
-3008 -3004 3001 0
-3004 -3006 3001 0
-3008 -3004 -3006 0
-381 3007 3011 0
-3010 3007 3011 0
-3010 -381 3011 0
-3011 3006 0
-3009 3006 0
-3011 -3009 0
-380 3010 3012 0
-379 3010 3012 0
-379 -380 3012 0
-3012 3009 0
-378 3005 3015 0
-3014 3005 3015 0
-3014 -378 3015 0
-3015 3004 0
-3013 3004 0
-3015 -3013 0
-377 3014 3016 0
-376 3014 3016 0
-376 -377 3016 0
-3016 3013 0
-3021 2999 3022 0
-3019 2999 3022 0
-3019 -3021 3022 0
-3022 2997 0
-3020 2997 0
-3022 -3020 2998 0
-3017 2997 0
-3022 -3017 2998 0
-3018 2998 0
-3022 -3018 0
-3017 -3020 2998 0
-3022 -3017 -3020 0
-3018 -3020 0
-3022 -3018 -3020 0
-375 3021 3025 0
-3024 3021 3025 0
-3024 -375 3025 0
-3025 3020 0
-3023 3020 0
-3025 -3023 0
-374 3024 3026 0
-373 3024 3026 0
-373 -374 3026 0
-3026 3023 0
-3030 3019 3031 0
-3028 3019 3031 0
-3028 -3030 3031 0
-3031 3017 0
-3029 3017 0
-3031 -3029 3018 0
-3027 3017 0
-3031 -3027 3018 0
-3027 -3029 3018 0
-3031 -3027 -3029 0
-372 3030 3032 0
-371 3030 3032 0
-371 -372 3032 0
-3032 3029 0
-370 3028 3033 0
-369 3028 3033 0
-369 -370 3033 0
-3033 3027 0
-3039 2860 3040 0
-3036 2860 3040 0
-3036 -3039 3040 0
-3040 2858 0
-3037 2858 0
-3040 -3037 2859 0
-3038 2859 0
-3040 -3038 0
-3034 2858 0
-3040 -3034 2859 0
-3035 2859 0
-3040 -3035 0
-3034 -3037 2859 0
-3040 -3034 -3037 0
-3034 -3038 0
-3040 -3034 -3038 0
-3035 -3037 0
-3040 -3035 -3037 0
-3035 -3038 0
-3040 -3035 -3038 0
-3046 3039 3047 0
-3043 3039 3047 0
-3043 -3046 3047 0
-3047 3037 0
-3044 3037 0
-3047 -3044 3038 0
-3045 3038 0
-3047 -3045 0
-3041 3037 0
-3047 -3041 3038 0
-3042 3038 0
-3047 -3042 0
-3041 -3044 3038 0
-3047 -3041 -3044 0
-3041 -3045 0
-3047 -3041 -3045 0
-3042 -3044 0
-3047 -3042 -3044 0
-3042 -3045 0
-3047 -3042 -3045 0
-3053 3046 3054 0
-3050 3046 3054 0
-3050 -3053 3054 0
-3054 3044 0
-3051 3044 0
-3054 -3051 3045 0
-3052 3045 0
-3054 -3052 0
-3048 3044 0
-3054 -3048 3045 0
-3049 3045 0
-3054 -3049 0
-3048 -3051 3045 0
-3054 -3048 -3051 0
-3048 -3052 0
-3054 -3048 -3052 0
-3049 -3051 0
-3054 -3049 -3051 0
-3049 -3052 0
-3054 -3049 -3052 0
-3058 3053 3059 0
-3056 3053 3059 0
-3056 -3058 3059 0
-3059 3051 0
-3057 3051 0
-3059 -3057 3052 0
-3055 3051 0
-3059 -3055 3052 0
-3055 -3057 3052 0
-3059 -3055 -3057 0
-368 3058 3062 0
-3061 3058 3062 0
-3061 -368 3062 0
-3062 3057 0
-3060 3057 0
-3062 -3060 0
-367 3061 3063 0
-366 3061 3063 0
-366 -367 3063 0
-3063 3060 0
-365 3056 3066 0
-3065 3056 3066 0
-3065 -365 3066 0
-3066 3055 0
-3064 3055 0
-3066 -3064 0
-364 3065 3067 0
-363 3065 3067 0
-363 -364 3067 0
-3067 3064 0
-3072 3050 3073 0
-3070 3050 3073 0
-3070 -3072 3073 0
-3073 3048 0
-3071 3048 0
-3073 -3071 3049 0
-3068 3048 0
-3073 -3068 3049 0
-3069 3049 0
-3073 -3069 0
-3068 -3071 3049 0
-3073 -3068 -3071 0
-3069 -3071 0
-3073 -3069 -3071 0
-362 3072 3076 0
-3075 3072 3076 0
-3075 -362 3076 0
-3076 3071 0
-3074 3071 0
-3076 -3074 0
-361 3075 3077 0
-360 3075 3077 0
-360 -361 3077 0
-3077 3074 0
-3081 3070 3082 0
-3079 3070 3082 0
-3079 -3081 3082 0
-3082 3068 0
-3080 3068 0
-3082 -3080 3069 0
-3078 3068 0
-3082 -3078 3069 0
-3078 -3080 3069 0
-3082 -3078 -3080 0
-359 3081 3083 0
-358 3081 3083 0
-358 -359 3083 0
-3083 3080 0
-357 3079 3084 0
-356 3079 3084 0
-356 -357 3084 0
-3084 3078 0
-3090 3043 3091 0
-3087 3043 3091 0
-3087 -3090 3091 0
-3091 3041 0
-3088 3041 0
-3091 -3088 3042 0
-3089 3042 0
-3091 -3089 0
-3085 3041 0
-3091 -3085 3042 0
-3086 3042 0
-3091 -3086 0
-3085 -3088 3042 0
-3091 -3085 -3088 0
-3085 -3089 0
-3091 -3085 -3089 0
-3086 -3088 0
-3091 -3086 -3088 0
-3086 -3089 0
-3091 -3086 -3089 0
-3095 3090 3096 0
-3093 3090 3096 0
-3093 -3095 3096 0
-3096 3088 0
-3094 3088 0
-3096 -3094 3089 0
-3092 3088 0
-3096 -3092 3089 0
-3092 -3094 3089 0
-3096 -3092 -3094 0
-355 3095 3099 0
-3098 3095 3099 0
-3098 -355 3099 0
-3099 3094 0
-3097 3094 0
-3099 -3097 0
-354 3098 3100 0
-353 3098 3100 0
-353 -354 3100 0
-3100 3097 0
-352 3093 3103 0
-3102 3093 3103 0
-3102 -352 3103 0
-3103 3092 0
-3101 3092 0
-3103 -3101 0
-351 3102 3104 0
-350 3102 3104 0
-350 -351 3104 0
-3104 3101 0
-3109 3087 3110 0
-3107 3087 3110 0
-3107 -3109 3110 0
-3110 3085 0
-3108 3085 0
-3110 -3108 3086 0
-3105 3085 0
-3110 -3105 3086 0
-3106 3086 0
-3110 -3106 0
-3105 -3108 3086 0
-3110 -3105 -3108 0
-3106 -3108 0
-3110 -3106 -3108 0
-349 3109 3113 0
-3112 3109 3113 0
-3112 -349 3113 0
-3113 3108 0
-3111 3108 0
-3113 -3111 0
-348 3112 3114 0
-347 3112 3114 0
-347 -348 3114 0
-3114 3111 0
-3118 3107 3119 0
-3116 3107 3119 0
-3116 -3118 3119 0
-3119 3105 0
-3117 3105 0
-3119 -3117 3106 0
-3115 3105 0
-3119 -3115 3106 0
-3115 -3117 3106 0
-3119 -3115 -3117 0
-346 3118 3120 0
-345 3118 3120 0
-345 -346 3120 0
-3120 3117 0
-344 3116 3121 0
-343 3116 3121 0
-343 -344 3121 0
-3121 3115 0
-3127 3036 3128 0
-3124 3036 3128 0
-3124 -3127 3128 0
-3128 3034 0
-3125 3034 0
-3128 -3125 3035 0
-3126 3035 0
-3128 -3126 0
-3122 3034 0
-3128 -3122 3035 0
-3123 3035 0
-3128 -3123 0
-3122 -3125 3035 0
-3128 -3122 -3125 0
-3122 -3126 0
-3128 -3122 -3126 0
-3123 -3125 0
-3128 -3123 -3125 0
-3123 -3126 0
-3128 -3123 -3126 0
-3134 3127 3135 0
-3131 3127 3135 0
-3131 -3134 3135 0
-3135 3125 0
-3132 3125 0
-3135 -3132 3126 0
-3133 3126 0
-3135 -3133 0
-3129 3125 0
-3135 -3129 3126 0
-3130 3126 0
-3135 -3130 0
-3129 -3132 3126 0
-3135 -3129 -3132 0
-3129 -3133 0
-3135 -3129 -3133 0
-3130 -3132 0
-3135 -3130 -3132 0
-3130 -3133 0
-3135 -3130 -3133 0
-3139 3134 3140 0
-3137 3134 3140 0
-3137 -3139 3140 0
-3140 3132 0
-3138 3132 0
-3140 -3138 3133 0
-3136 3132 0
-3140 -3136 3133 0
-3136 -3138 3133 0
-3140 -3136 -3138 0
-342 3139 3143 0
-3142 3139 3143 0
-3142 -342 3143 0
-3143 3138 0
-3141 3138 0
-3143 -3141 0
-341 3142 3144 0
-340 3142 3144 0
-340 -341 3144 0
-3144 3141 0
-339 3137 3147 0
-3146 3137 3147 0
-3146 -339 3147 0
-3147 3136 0
-3145 3136 0
-3147 -3145 0
-338 3146 3148 0
-337 3146 3148 0
-337 -338 3148 0
-3148 3145 0
-3153 3131 3154 0
-3151 3131 3154 0
-3151 -3153 3154 0
-3154 3129 0
-3152 3129 0
-3154 -3152 3130 0
-3149 3129 0
-3154 -3149 3130 0
-3150 3130 0
-3154 -3150 0
-3149 -3152 3130 0
-3154 -3149 -3152 0
-3150 -3152 0
-3154 -3150 -3152 0
-336 3153 3157 0
-3156 3153 3157 0
-3156 -336 3157 0
-3157 3152 0
-3155 3152 0
-3157 -3155 0
-335 3156 3158 0
-334 3156 3158 0
-334 -335 3158 0
-3158 3155 0
-3162 3151 3163 0
-3160 3151 3163 0
-3160 -3162 3163 0
-3163 3149 0
-3161 3149 0
-3163 -3161 3150 0
-3159 3149 0
-3163 -3159 3150 0
-3159 -3161 3150 0
-3163 -3159 -3161 0
-333 3162 3164 0
-332 3162 3164 0
-332 -333 3164 0
-3164 3161 0
-331 3160 3165 0
-330 3160 3165 0
-330 -331 3165 0
-3165 3159 0
-3171 3124 3172 0
-3168 3124 3172 0
-3168 -3171 3172 0
-3172 3122 0
-3169 3122 0
-3172 -3169 3123 0
-3170 3123 0
-3172 -3170 0
-3166 3122 0
-3172 -3166 3123 0
-3167 3123 0
-3172 -3167 0
-3166 -3169 3123 0
-3172 -3166 -3169 0
-3166 -3170 0
-3172 -3166 -3170 0
-3167 -3169 0
-3172 -3167 -3169 0
-3167 -3170 0
-3172 -3167 -3170 0
-3177 3171 3178 0
-3175 3171 3178 0
-3175 -3177 3178 0
-3178 3169 0
-3176 3169 0
-3178 -3176 3170 0
-3173 3169 0
-3178 -3173 3170 0
-3174 3170 0
-3178 -3174 0
-3173 -3176 3170 0
-3178 -3173 -3176 0
-3174 -3176 0
-3178 -3174 -3176 0
-329 3177 3181 0
-3180 3177 3181 0
-3180 -329 3181 0
-3181 3176 0
-3179 3176 0
-3181 -3179 0
-328 3180 3182 0
-327 3180 3182 0
-327 -328 3182 0
-3182 3179 0
-3186 3175 3187 0
-3184 3175 3187 0
-3184 -3186 3187 0
-3187 3173 0
-3185 3173 0
-3187 -3185 3174 0
-3183 3173 0
-3187 -3183 3174 0
-3183 -3185 3174 0
-3187 -3183 -3185 0
-326 3186 3188 0
-325 3186 3188 0
-325 -326 3188 0
-3188 3185 0
-324 3184 3189 0
-323 3184 3189 0
-323 -324 3189 0
-3189 3183 0
-3194 3168 3195 0
-3192 3168 3195 0
-3192 -3194 3195 0
-3195 3166 0
-3193 3166 0
-3195 -3193 3167 0
-3190 3166 0
-3195 -3190 3167 0
-3191 3167 0
-3195 -3191 0
-3190 -3193 3167 0
-3195 -3190 -3193 0
-3191 -3193 0
-3195 -3191 -3193 0
-322 3194 3198 0
-3197 3194 3198 0
-3197 -322 3198 0
-3198 3193 0
-3196 3193 0
-3198 -3196 0
-321 3197 3199 0
-320 3197 3199 0
-320 -321 3199 0
-3199 3196 0
-3203 3192 3204 0
-3201 3192 3204 0
-3201 -3203 3204 0
-3204 3190 0
-3202 3190 0
-3204 -3202 3191 0
-3200 3190 0
-3204 -3200 3191 0
-3200 -3202 3191 0
-3204 -3200 -3202 0
-319 3203 3205 0
-318 3203 3205 0
-318 -319 3205 0
-3205 3202 0
-317 3201 3206 0
-316 3201 3206 0
-316 -317 3206 0
-3206 3200 0
-3212 2853 3213 0
-3209 2853 3213 0
-3209 -3212 3213 0
-3213 2851 0
-3210 2851 0
-3213 -3210 2852 0
-3211 2852 0
-3213 -3211 0
-3207 2851 0
-3213 -3207 2852 0
-3208 2852 0
-3213 -3208 0
-3207 -3210 2852 0
-3213 -3207 -3210 0
-3207 -3211 0
-3213 -3207 -3211 0
-3208 -3210 0
-3213 -3208 -3210 0
-3208 -3211 0
-3213 -3208 -3211 0
-3219 3212 3220 0
-3216 3212 3220 0
-3216 -3219 3220 0
-3220 3210 0
-3217 3210 0
-3220 -3217 3211 0
-3218 3211 0
-3220 -3218 0
-3214 3210 0
-3220 -3214 3211 0
-3215 3211 0
-3220 -3215 0
-3214 -3217 3211 0
-3220 -3214 -3217 0
-3214 -3218 0
-3220 -3214 -3218 0
-3215 -3217 0
-3220 -3215 -3217 0
-3215 -3218 0
-3220 -3215 -3218 0
-3226 3219 3227 0
-3223 3219 3227 0
-3223 -3226 3227 0
-3227 3217 0
-3224 3217 0
-3227 -3224 3218 0
-3225 3218 0
-3227 -3225 0
-3221 3217 0
-3227 -3221 3218 0
-3222 3218 0
-3227 -3222 0
-3221 -3224 3218 0
-3227 -3221 -3224 0
-3221 -3225 0
-3227 -3221 -3225 0
-3222 -3224 0
-3227 -3222 -3224 0
-3222 -3225 0
-3227 -3222 -3225 0
-3233 3226 3234 0
-3230 3226 3234 0
-3230 -3233 3234 0
-3234 3224 0
-3231 3224 0
-3234 -3231 3225 0
-3232 3225 0
-3234 -3232 0
-3228 3224 0
-3234 -3228 3225 0
-3229 3225 0
-3234 -3229 0
-3228 -3231 3225 0
-3234 -3228 -3231 0
-3228 -3232 0
-3234 -3228 -3232 0
-3229 -3231 0
-3234 -3229 -3231 0
-3229 -3232 0
-3234 -3229 -3232 0
-3238 3233 3239 0
-3236 3233 3239 0
-3236 -3238 3239 0
-3239 3231 0
-3237 3231 0
-3239 -3237 3232 0
-3235 3231 0
-3239 -3235 3232 0
-3235 -3237 3232 0
-3239 -3235 -3237 0
-315 3238 3242 0
-3241 3238 3242 0
-3241 -315 3242 0
-3242 3237 0
-3240 3237 0
-3242 -3240 0
-314 3241 3243 0
-313 3241 3243 0
-313 -314 3243 0
-3243 3240 0
-312 3236 3246 0
-3245 3236 3246 0
-3245 -312 3246 0
-3246 3235 0
-3244 3235 0
-3246 -3244 0
-311 3245 3247 0
-310 3245 3247 0
-310 -311 3247 0
-3247 3244 0
-3252 3230 3253 0
-3250 3230 3253 0
-3250 -3252 3253 0
-3253 3228 0
-3251 3228 0
-3253 -3251 3229 0
-3248 3228 0
-3253 -3248 3229 0
-3249 3229 0
-3253 -3249 0
-3248 -3251 3229 0
-3253 -3248 -3251 0
-3249 -3251 0
-3253 -3249 -3251 0
-309 3252 3256 0
-3255 3252 3256 0
-3255 -309 3256 0
-3256 3251 0
-3254 3251 0
-3256 -3254 0
-308 3255 3257 0
-307 3255 3257 0
-307 -308 3257 0
-3257 3254 0
-3261 3250 3262 0
-3259 3250 3262 0
-3259 -3261 3262 0
-3262 3248 0
-3260 3248 0
-3262 -3260 3249 0
-3258 3248 0
-3262 -3258 3249 0
-3258 -3260 3249 0
-3262 -3258 -3260 0
-306 3261 3263 0
-305 3261 3263 0
-305 -306 3263 0
-3263 3260 0
-304 3259 3264 0
-303 3259 3264 0
-303 -304 3264 0
-3264 3258 0
-3270 3223 3271 0
-3267 3223 3271 0
-3267 -3270 3271 0
-3271 3221 0
-3268 3221 0
-3271 -3268 3222 0
-3269 3222 0
-3271 -3269 0
-3265 3221 0
-3271 -3265 3222 0
-3266 3222 0
-3271 -3266 0
-3265 -3268 3222 0
-3271 -3265 -3268 0
-3265 -3269 0
-3271 -3265 -3269 0
-3266 -3268 0
-3271 -3266 -3268 0
-3266 -3269 0
-3271 -3266 -3269 0
-3275 3270 3276 0
-3273 3270 3276 0
-3273 -3275 3276 0
-3276 3268 0
-3274 3268 0
-3276 -3274 3269 0
-3272 3268 0
-3276 -3272 3269 0
-3272 -3274 3269 0
-3276 -3272 -3274 0
-302 3275 3279 0
-3278 3275 3279 0
-3278 -302 3279 0
-3279 3274 0
-3277 3274 0
-3279 -3277 0
-301 3278 3280 0
-300 3278 3280 0
-300 -301 3280 0
-3280 3277 0
-299 3273 3283 0
-3282 3273 3283 0
-3282 -299 3283 0
-3283 3272 0
-3281 3272 0
-3283 -3281 0
-298 3282 3284 0
-297 3282 3284 0
-297 -298 3284 0
-3284 3281 0
-3289 3267 3290 0
-3287 3267 3290 0
-3287 -3289 3290 0
-3290 3265 0
-3288 3265 0
-3290 -3288 3266 0
-3285 3265 0
-3290 -3285 3266 0
-3286 3266 0
-3290 -3286 0
-3285 -3288 3266 0
-3290 -3285 -3288 0
-3286 -3288 0
-3290 -3286 -3288 0
-296 3289 3293 0
-3292 3289 3293 0
-3292 -296 3293 0
-3293 3288 0
-3291 3288 0
-3293 -3291 0
-295 3292 3294 0
-294 3292 3294 0
-294 -295 3294 0
-3294 3291 0
-3298 3287 3299 0
-3296 3287 3299 0
-3296 -3298 3299 0
-3299 3285 0
-3297 3285 0
-3299 -3297 3286 0
-3295 3285 0
-3299 -3295 3286 0
-3295 -3297 3286 0
-3299 -3295 -3297 0
-293 3298 3300 0
-292 3298 3300 0
-292 -293 3300 0
-3300 3297 0
-291 3296 3301 0
-290 3296 3301 0
-290 -291 3301 0
-3301 3295 0
-3307 3216 3308 0
-3304 3216 3308 0
-3304 -3307 3308 0
-3308 3214 0
-3305 3214 0
-3308 -3305 3215 0
-3306 3215 0
-3308 -3306 0
-3302 3214 0
-3308 -3302 3215 0
-3303 3215 0
-3308 -3303 0
-3302 -3305 3215 0
-3308 -3302 -3305 0
-3302 -3306 0
-3308 -3302 -3306 0
-3303 -3305 0
-3308 -3303 -3305 0
-3303 -3306 0
-3308 -3303 -3306 0
-3314 3307 3315 0
-3311 3307 3315 0
-3311 -3314 3315 0
-3315 3305 0
-3312 3305 0
-3315 -3312 3306 0
-3313 3306 0
-3315 -3313 0
-3309 3305 0
-3315 -3309 3306 0
-3310 3306 0
-3315 -3310 0
-3309 -3312 3306 0
-3315 -3309 -3312 0
-3309 -3313 0
-3315 -3309 -3313 0
-3310 -3312 0
-3315 -3310 -3312 0
-3310 -3313 0
-3315 -3310 -3313 0
-3319 3314 3320 0
-3317 3314 3320 0
-3317 -3319 3320 0
-3320 3312 0
-3318 3312 0
-3320 -3318 3313 0
-3316 3312 0
-3320 -3316 3313 0
-3316 -3318 3313 0
-3320 -3316 -3318 0
-289 3319 3323 0
-3322 3319 3323 0
-3322 -289 3323 0
-3323 3318 0
-3321 3318 0
-3323 -3321 0
-288 3322 3324 0
-287 3322 3324 0
-287 -288 3324 0
-3324 3321 0
-286 3317 3327 0
-3326 3317 3327 0
-3326 -286 3327 0
-3327 3316 0
-3325 3316 0
-3327 -3325 0
-285 3326 3328 0
-284 3326 3328 0
-284 -285 3328 0
-3328 3325 0
-3333 3311 3334 0
-3331 3311 3334 0
-3331 -3333 3334 0
-3334 3309 0
-3332 3309 0
-3334 -3332 3310 0
-3329 3309 0
-3334 -3329 3310 0
-3330 3310 0
-3334 -3330 0
-3329 -3332 3310 0
-3334 -3329 -3332 0
-3330 -3332 0
-3334 -3330 -3332 0
-283 3333 3337 0
-3336 3333 3337 0
-3336 -283 3337 0
-3337 3332 0
-3335 3332 0
-3337 -3335 0
-282 3336 3338 0
-281 3336 3338 0
-281 -282 3338 0
-3338 3335 0
-3342 3331 3343 0
-3340 3331 3343 0
-3340 -3342 3343 0
-3343 3329 0
-3341 3329 0
-3343 -3341 3330 0
-3339 3329 0
-3343 -3339 3330 0
-3339 -3341 3330 0
-3343 -3339 -3341 0
-280 3342 3344 0
-279 3342 3344 0
-279 -280 3344 0
-3344 3341 0
-278 3340 3345 0
-277 3340 3345 0
-277 -278 3345 0
-3345 3339 0
-3351 3304 3352 0
-3348 3304 3352 0
-3348 -3351 3352 0
-3352 3302 0
-3349 3302 0
-3352 -3349 3303 0
-3350 3303 0
-3352 -3350 0
-3346 3302 0
-3352 -3346 3303 0
-3347 3303 0
-3352 -3347 0
-3346 -3349 3303 0
-3352 -3346 -3349 0
-3346 -3350 0
-3352 -3346 -3350 0
-3347 -3349 0
-3352 -3347 -3349 0
-3347 -3350 0
-3352 -3347 -3350 0
-3356 3351 3357 0
-3354 3351 3357 0
-3354 -3356 3357 0
-3357 3349 0
-3355 3349 0
-3357 -3355 3350 0
-3353 3349 0
-3357 -3353 3350 0
-3353 -3355 3350 0
-3357 -3353 -3355 0
-276 3356 3360 0
-3359 3356 3360 0
-3359 -276 3360 0
-3360 3355 0
-3358 3355 0
-3360 -3358 0
-275 3359 3361 0
-274 3359 3361 0
-274 -275 3361 0
-3361 3358 0
-273 3354 3364 0
-3363 3354 3364 0
-3363 -273 3364 0
-3364 3353 0
-3362 3353 0
-3364 -3362 0
-272 3363 3365 0
-271 3363 3365 0
-271 -272 3365 0
-3365 3362 0
-3370 3348 3371 0
-3368 3348 3371 0
-3368 -3370 3371 0
-3371 3346 0
-3369 3346 0
-3371 -3369 3347 0
-3366 3346 0
-3371 -3366 3347 0
-3367 3347 0
-3371 -3367 0
-3366 -3369 3347 0
-3371 -3366 -3369 0
-3367 -3369 0
-3371 -3367 -3369 0
-270 3370 3374 0
-3373 3370 3374 0
-3373 -270 3374 0
-3374 3369 0
-3372 3369 0
-3374 -3372 0
-269 3373 3375 0
-268 3373 3375 0
-268 -269 3375 0
-3375 3372 0
-3379 3368 3380 0
-3377 3368 3380 0
-3377 -3379 3380 0
-3380 3366 0
-3378 3366 0
-3380 -3378 3367 0
-3376 3366 0
-3380 -3376 3367 0
-3376 -3378 3367 0
-3380 -3376 -3378 0
-267 3379 3381 0
-266 3379 3381 0
-266 -267 3381 0
-3381 3378 0
-265 3377 3382 0
-264 3377 3382 0
-264 -265 3382 0
-3382 3376 0
-3388 3209 3389 0
-3385 3209 3389 0
-3385 -3388 3389 0
-3389 3207 0
-3386 3207 0
-3389 -3386 3208 0
-3387 3208 0
-3389 -3387 0
-3383 3207 0
-3389 -3383 3208 0
-3384 3208 0
-3389 -3384 0
-3383 -3386 3208 0
-3389 -3383 -3386 0
-3383 -3387 0
-3389 -3383 -3387 0
-3384 -3386 0
-3389 -3384 -3386 0
-3384 -3387 0
-3389 -3384 -3387 0
-3395 3388 3396 0
-3392 3388 3396 0
-3392 -3395 3396 0
-3396 3386 0
-3393 3386 0
-3396 -3393 3387 0
-3394 3387 0
-3396 -3394 0
-3390 3386 0
-3396 -3390 3387 0
-3391 3387 0
-3396 -3391 0
-3390 -3393 3387 0
-3396 -3390 -3393 0
-3390 -3394 0
-3396 -3390 -3394 0
-3391 -3393 0
-3396 -3391 -3393 0
-3391 -3394 0
-3396 -3391 -3394 0
-3402 3395 3403 0
-3399 3395 3403 0
-3399 -3402 3403 0
-3403 3393 0
-3400 3393 0
-3403 -3400 3394 0
-3401 3394 0
-3403 -3401 0
-3397 3393 0
-3403 -3397 3394 0
-3398 3394 0
-3403 -3398 0
-3397 -3400 3394 0
-3403 -3397 -3400 0
-3397 -3401 0
-3403 -3397 -3401 0
-3398 -3400 0
-3403 -3398 -3400 0
-3398 -3401 0
-3403 -3398 -3401 0
-3407 3402 3408 0
-3405 3402 3408 0
-3405 -3407 3408 0
-3408 3400 0
-3406 3400 0
-3408 -3406 3401 0
-3404 3400 0
-3408 -3404 3401 0
-3404 -3406 3401 0
-3408 -3404 -3406 0
-263 3407 3411 0
-3410 3407 3411 0
-3410 -263 3411 0
-3411 3406 0
-3409 3406 0
-3411 -3409 0
-262 3410 3412 0
-261 3410 3412 0
-261 -262 3412 0
-3412 3409 0
-260 3405 3415 0
-3414 3405 3415 0
-3414 -260 3415 0
-3415 3404 0
-3413 3404 0
-3415 -3413 0
-259 3414 3416 0
-258 3414 3416 0
-258 -259 3416 0
-3416 3413 0
-3421 3399 3422 0
-3419 3399 3422 0
-3419 -3421 3422 0
-3422 3397 0
-3420 3397 0
-3422 -3420 3398 0
-3417 3397 0
-3422 -3417 3398 0
-3418 3398 0
-3422 -3418 0
-3417 -3420 3398 0
-3422 -3417 -3420 0
-3418 -3420 0
-3422 -3418 -3420 0
-257 3421 3425 0
-3424 3421 3425 0
-3424 -257 3425 0
-3425 3420 0
-3423 3420 0
-3425 -3423 0
-256 3424 3426 0
-255 3424 3426 0
-255 -256 3426 0
-3426 3423 0
-3430 3419 3431 0
-3428 3419 3431 0
-3428 -3430 3431 0
-3431 3417 0
-3429 3417 0
-3431 -3429 3418 0
-3427 3417 0
-3431 -3427 3418 0
-3427 -3429 3418 0
-3431 -3427 -3429 0
-254 3430 3432 0
-253 3430 3432 0
-253 -254 3432 0
-3432 3429 0
-252 3428 3433 0
-251 3428 3433 0
-251 -252 3433 0
-3433 3427 0
-3439 3392 3440 0
-3436 3392 3440 0
-3436 -3439 3440 0
-3440 3390 0
-3437 3390 0
-3440 -3437 3391 0
-3438 3391 0
-3440 -3438 0
-3434 3390 0
-3440 -3434 3391 0
-3435 3391 0
-3440 -3435 0
-3434 -3437 3391 0
-3440 -3434 -3437 0
-3434 -3438 0
-3440 -3434 -3438 0
-3435 -3437 0
-3440 -3435 -3437 0
-3435 -3438 0
-3440 -3435 -3438 0
-3444 3439 3445 0
-3442 3439 3445 0
-3442 -3444 3445 0
-3445 3437 0
-3443 3437 0
-3445 -3443 3438 0
-3441 3437 0
-3445 -3441 3438 0
-3441 -3443 3438 0
-3445 -3441 -3443 0
-250 3444 3448 0
-3447 3444 3448 0
-3447 -250 3448 0
-3448 3443 0
-3446 3443 0
-3448 -3446 0
-249 3447 3449 0
-248 3447 3449 0
-248 -249 3449 0
-3449 3446 0
-247 3442 3452 0
-3451 3442 3452 0
-3451 -247 3452 0
-3452 3441 0
-3450 3441 0
-3452 -3450 0
-246 3451 3453 0
-245 3451 3453 0
-245 -246 3453 0
-3453 3450 0
-3458 3436 3459 0
-3456 3436 3459 0
-3456 -3458 3459 0
-3459 3434 0
-3457 3434 0
-3459 -3457 3435 0
-3454 3434 0
-3459 -3454 3435 0
-3455 3435 0
-3459 -3455 0
-3454 -3457 3435 0
-3459 -3454 -3457 0
-3455 -3457 0
-3459 -3455 -3457 0
-244 3458 3462 0
-3461 3458 3462 0
-3461 -244 3462 0
-3462 3457 0
-3460 3457 0
-3462 -3460 0
-243 3461 3463 0
-242 3461 3463 0
-242 -243 3463 0
-3463 3460 0
-3467 3456 3468 0
-3465 3456 3468 0
-3465 -3467 3468 0
-3468 3454 0
-3466 3454 0
-3468 -3466 3455 0
-3464 3454 0
-3468 -3464 3455 0
-3464 -3466 3455 0
-3468 -3464 -3466 0
-241 3467 3469 0
-240 3467 3469 0
-240 -241 3469 0
-3469 3466 0
-239 3465 3470 0
-238 3465 3470 0
-238 -239 3470 0
-3470 3464 0
-3476 3385 3477 0
-3473 3385 3477 0
-3473 -3476 3477 0
-3477 3383 0
-3474 3383 0
-3477 -3474 3384 0
-3475 3384 0
-3477 -3475 0
-3471 3383 0
-3477 -3471 3384 0
-3472 3384 0
-3477 -3472 0
-3471 -3474 3384 0
-3477 -3471 -3474 0
-3471 -3475 0
-3477 -3471 -3475 0
-3472 -3474 0
-3477 -3472 -3474 0
-3472 -3475 0
-3477 -3472 -3475 0
-3483 3476 3484 0
-3480 3476 3484 0
-3480 -3483 3484 0
-3484 3474 0
-3481 3474 0
-3484 -3481 3475 0
-3482 3475 0
-3484 -3482 0
-3478 3474 0
-3484 -3478 3475 0
-3479 3475 0
-3484 -3479 0
-3478 -3481 3475 0
-3484 -3478 -3481 0
-3478 -3482 0
-3484 -3478 -3482 0
-3479 -3481 0
-3484 -3479 -3481 0
-3479 -3482 0
-3484 -3479 -3482 0
-3488 3483 3489 0
-3486 3483 3489 0
-3486 -3488 3489 0
-3489 3481 0
-3487 3481 0
-3489 -3487 3482 0
-3485 3481 0
-3489 -3485 3482 0
-3485 -3487 3482 0
-3489 -3485 -3487 0
-237 3488 3492 0
-3491 3488 3492 0
-3491 -237 3492 0
-3492 3487 0
-3490 3487 0
-3492 -3490 0
-236 3491 3493 0
-235 3491 3493 0
-235 -236 3493 0
-3493 3490 0
-234 3486 3496 0
-3495 3486 3496 0
-3495 -234 3496 0
-3496 3485 0
-3494 3485 0
-3496 -3494 0
-233 3495 3497 0
-232 3495 3497 0
-232 -233 3497 0
-3497 3494 0
-3502 3480 3503 0
-3500 3480 3503 0
-3500 -3502 3503 0
-3503 3478 0
-3501 3478 0
-3503 -3501 3479 0
-3498 3478 0
-3503 -3498 3479 0
-3499 3479 0
-3503 -3499 0
-3498 -3501 3479 0
-3503 -3498 -3501 0
-3499 -3501 0
-3503 -3499 -3501 0
-231 3502 3506 0
-3505 3502 3506 0
-3505 -231 3506 0
-3506 3501 0
-3504 3501 0
-3506 -3504 0
-230 3505 3507 0
-229 3505 3507 0
-229 -230 3507 0
-3507 3504 0
-3511 3500 3512 0
-3509 3500 3512 0
-3509 -3511 3512 0
-3512 3498 0
-3510 3498 0
-3512 -3510 3499 0
-3508 3498 0
-3512 -3508 3499 0
-3508 -3510 3499 0
-3512 -3508 -3510 0
-228 3511 3513 0
-227 3511 3513 0
-227 -228 3513 0
-3513 3510 0
-226 3509 3514 0
-225 3509 3514 0
-225 -226 3514 0
-3514 3508 0
-3520 3473 3521 0
-3517 3473 3521 0
-3517 -3520 3521 0
-3521 3471 0
-3518 3471 0
-3521 -3518 3472 0
-3519 3472 0
-3521 -3519 0
-3515 3471 0
-3521 -3515 3472 0
-3516 3472 0
-3521 -3516 0
-3515 -3518 3472 0
-3521 -3515 -3518 0
-3515 -3519 0
-3521 -3515 -3519 0
-3516 -3518 0
-3521 -3516 -3518 0
-3516 -3519 0
-3521 -3516 -3519 0
-3526 3520 3527 0
-3524 3520 3527 0
-3524 -3526 3527 0
-3527 3518 0
-3525 3518 0
-3527 -3525 3519 0
-3522 3518 0
-3527 -3522 3519 0
-3523 3519 0
-3527 -3523 0
-3522 -3525 3519 0
-3527 -3522 -3525 0
-3523 -3525 0
-3527 -3523 -3525 0
-224 3526 3530 0
-3529 3526 3530 0
-3529 -224 3530 0
-3530 3525 0
-3528 3525 0
-3530 -3528 0
-223 3529 3531 0
-222 3529 3531 0
-222 -223 3531 0
-3531 3528 0
-3535 3524 3536 0
-3533 3524 3536 0
-3533 -3535 3536 0
-3536 3522 0
-3534 3522 0
-3536 -3534 3523 0
-3532 3522 0
-3536 -3532 3523 0
-3532 -3534 3523 0
-3536 -3532 -3534 0
-221 3535 3537 0
-220 3535 3537 0
-220 -221 3537 0
-3537 3534 0
-219 3533 3538 0
-218 3533 3538 0
-218 -219 3538 0
-3538 3532 0
-3543 3517 3544 0
-3541 3517 3544 0
-3541 -3543 3544 0
-3544 3515 0
-3542 3515 0
-3544 -3542 3516 0
-3539 3515 0
-3544 -3539 3516 0
-3540 3516 0
-3544 -3540 0
-3539 -3542 3516 0
-3544 -3539 -3542 0
-3540 -3542 0
-3544 -3540 -3542 0
-217 3543 3547 0
-3546 3543 3547 0
-3546 -217 3547 0
-3547 3542 0
-3545 3542 0
-3547 -3545 0
-216 3546 3548 0
-215 3546 3548 0
-215 -216 3548 0
-3548 3545 0
-3552 3541 3553 0
-3550 3541 3553 0
-3550 -3552 3553 0
-3553 3539 0
-3551 3539 0
-3553 -3551 3540 0
-3549 3539 0
-3553 -3549 3540 0
-3549 -3551 3540 0
-3553 -3549 -3551 0
-214 3552 3554 0
-213 3552 3554 0
-213 -214 3554 0
-3554 3551 0
-212 3550 3555 0
-211 3550 3555 0
-211 -212 3555 0
-3555 3549 0
-3561 2846 3562 0
-3558 2846 3562 0
-3558 -3561 3562 0
-3562 2844 0
-3559 2844 0
-3562 -3559 2845 0
-3560 2845 0
-3562 -3560 0
-3556 2844 0
-3562 -3556 2845 0
-3557 2845 0
-3562 -3557 0
-3556 -3559 2845 0
-3562 -3556 -3559 0
-3556 -3560 0
-3562 -3556 -3560 0
-3557 -3559 0
-3562 -3557 -3559 0
-3557 -3560 0
-3562 -3557 -3560 0
-3568 3561 3569 0
-3565 3561 3569 0
-3565 -3568 3569 0
-3569 3559 0
-3566 3559 0
-3569 -3566 3560 0
-3567 3560 0
-3569 -3567 0
-3563 3559 0
-3569 -3563 3560 0
-3564 3560 0
-3569 -3564 0
-3563 -3566 3560 0
-3569 -3563 -3566 0
-3563 -3567 0
-3569 -3563 -3567 0
-3564 -3566 0
-3569 -3564 -3566 0
-3564 -3567 0
-3569 -3564 -3567 0
-3575 3568 3576 0
-3572 3568 3576 0
-3572 -3575 3576 0
-3576 3566 0
-3573 3566 0
-3576 -3573 3567 0
-3574 3567 0
-3576 -3574 0
-3570 3566 0
-3576 -3570 3567 0
-3571 3567 0
-3576 -3571 0
-3570 -3573 3567 0
-3576 -3570 -3573 0
-3570 -3574 0
-3576 -3570 -3574 0
-3571 -3573 0
-3576 -3571 -3573 0
-3571 -3574 0
-3576 -3571 -3574 0
-3582 3575 3583 0
-3579 3575 3583 0
-3579 -3582 3583 0
-3583 3573 0
-3580 3573 0
-3583 -3580 3574 0
-3581 3574 0
-3583 -3581 0
-3577 3573 0
-3583 -3577 3574 0
-3578 3574 0
-3583 -3578 0
-3577 -3580 3574 0
-3583 -3577 -3580 0
-3577 -3581 0
-3583 -3577 -3581 0
-3578 -3580 0
-3583 -3578 -3580 0
-3578 -3581 0
-3583 -3578 -3581 0
-3589 3582 3590 0
-3586 3582 3590 0
-3586 -3589 3590 0
-3590 3580 0
-3587 3580 0
-3590 -3587 3581 0
-3588 3581 0
-3590 -3588 0
-3584 3580 0
-3590 -3584 3581 0
-3585 3581 0
-3590 -3585 0
-3584 -3587 3581 0
-3590 -3584 -3587 0
-3584 -3588 0
-3590 -3584 -3588 0
-3585 -3587 0
-3590 -3585 -3587 0
-3585 -3588 0
-3590 -3585 -3588 0
-3594 3589 3595 0
-3592 3589 3595 0
-3592 -3594 3595 0
-3595 3587 0
-3593 3587 0
-3595 -3593 3588 0
-3591 3587 0
-3595 -3591 3588 0
-3591 -3593 3588 0
-3595 -3591 -3593 0
-210 3594 3598 0
-3597 3594 3598 0
-3597 -210 3598 0
-3598 3593 0
-3596 3593 0
-3598 -3596 0
-209 3597 3599 0
-208 3597 3599 0
-208 -209 3599 0
-3599 3596 0
-207 3592 3602 0
-3601 3592 3602 0
-3601 -207 3602 0
-3602 3591 0
-3600 3591 0
-3602 -3600 0
-206 3601 3603 0
-205 3601 3603 0
-205 -206 3603 0
-3603 3600 0
-3608 3586 3609 0
-3606 3586 3609 0
-3606 -3608 3609 0
-3609 3584 0
-3607 3584 0
-3609 -3607 3585 0
-3604 3584 0
-3609 -3604 3585 0
-3605 3585 0
-3609 -3605 0
-3604 -3607 3585 0
-3609 -3604 -3607 0
-3605 -3607 0
-3609 -3605 -3607 0
-204 3608 3612 0
-3611 3608 3612 0
-3611 -204 3612 0
-3612 3607 0
-3610 3607 0
-3612 -3610 0
-203 3611 3613 0
-202 3611 3613 0
-202 -203 3613 0
-3613 3610 0
-3617 3606 3618 0
-3615 3606 3618 0
-3615 -3617 3618 0
-3618 3604 0
-3616 3604 0
-3618 -3616 3605 0
-3614 3604 0
-3618 -3614 3605 0
-3614 -3616 3605 0
-3618 -3614 -3616 0
-201 3617 3619 0
-200 3617 3619 0
-200 -201 3619 0
-3619 3616 0
-199 3615 3620 0
-198 3615 3620 0
-198 -199 3620 0
-3620 3614 0
-3626 3579 3627 0
-3623 3579 3627 0
-3623 -3626 3627 0
-3627 3577 0
-3624 3577 0
-3627 -3624 3578 0
-3625 3578 0
-3627 -3625 0
-3621 3577 0
-3627 -3621 3578 0
-3622 3578 0
-3627 -3622 0
-3621 -3624 3578 0
-3627 -3621 -3624 0
-3621 -3625 0
-3627 -3621 -3625 0
-3622 -3624 0
-3627 -3622 -3624 0
-3622 -3625 0
-3627 -3622 -3625 0
-3631 3626 3632 0
-3629 3626 3632 0
-3629 -3631 3632 0
-3632 3624 0
-3630 3624 0
-3632 -3630 3625 0
-3628 3624 0
-3632 -3628 3625 0
-3628 -3630 3625 0
-3632 -3628 -3630 0
-197 3631 3635 0
-3634 3631 3635 0
-3634 -197 3635 0
-3635 3630 0
-3633 3630 0
-3635 -3633 0
-196 3634 3636 0
-195 3634 3636 0
-195 -196 3636 0
-3636 3633 0
-194 3629 3639 0
-3638 3629 3639 0
-3638 -194 3639 0
-3639 3628 0
-3637 3628 0
-3639 -3637 0
-193 3638 3640 0
-192 3638 3640 0
-192 -193 3640 0
-3640 3637 0
-3645 3623 3646 0
-3643 3623 3646 0
-3643 -3645 3646 0
-3646 3621 0
-3644 3621 0
-3646 -3644 3622 0
-3641 3621 0
-3646 -3641 3622 0
-3642 3622 0
-3646 -3642 0
-3641 -3644 3622 0
-3646 -3641 -3644 0
-3642 -3644 0
-3646 -3642 -3644 0
-191 3645 3649 0
-3648 3645 3649 0
-3648 -191 3649 0
-3649 3644 0
-3647 3644 0
-3649 -3647 0
-190 3648 3650 0
-189 3648 3650 0
-189 -190 3650 0
-3650 3647 0
-3654 3643 3655 0
-3652 3643 3655 0
-3652 -3654 3655 0
-3655 3641 0
-3653 3641 0
-3655 -3653 3642 0
-3651 3641 0
-3655 -3651 3642 0
-3651 -3653 3642 0
-3655 -3651 -3653 0
-188 3654 3656 0
-187 3654 3656 0
-187 -188 3656 0
-3656 3653 0
-186 3652 3657 0
-185 3652 3657 0
-185 -186 3657 0
-3657 3651 0
-3663 3572 3664 0
-3660 3572 3664 0
-3660 -3663 3664 0
-3664 3570 0
-3661 3570 0
-3664 -3661 3571 0
-3662 3571 0
-3664 -3662 0
-3658 3570 0
-3664 -3658 3571 0
-3659 3571 0
-3664 -3659 0
-3658 -3661 3571 0
-3664 -3658 -3661 0
-3658 -3662 0
-3664 -3658 -3662 0
-3659 -3661 0
-3664 -3659 -3661 0
-3659 -3662 0
-3664 -3659 -3662 0
-3670 3663 3671 0
-3667 3663 3671 0
-3667 -3670 3671 0
-3671 3661 0
-3668 3661 0
-3671 -3668 3662 0
-3669 3662 0
-3671 -3669 0
-3665 3661 0
-3671 -3665 3662 0
-3666 3662 0
-3671 -3666 0
-3665 -3668 3662 0
-3671 -3665 -3668 0
-3665 -3669 0
-3671 -3665 -3669 0
-3666 -3668 0
-3671 -3666 -3668 0
-3666 -3669 0
-3671 -3666 -3669 0
-3675 3670 3676 0
-3673 3670 3676 0
-3673 -3675 3676 0
-3676 3668 0
-3674 3668 0
-3676 -3674 3669 0
-3672 3668 0
-3676 -3672 3669 0
-3672 -3674 3669 0
-3676 -3672 -3674 0
-184 3675 3679 0
-3678 3675 3679 0
-3678 -184 3679 0
-3679 3674 0
-3677 3674 0
-3679 -3677 0
-183 3678 3680 0
-182 3678 3680 0
-182 -183 3680 0
-3680 3677 0
-181 3673 3683 0
-3682 3673 3683 0
-3682 -181 3683 0
-3683 3672 0
-3681 3672 0
-3683 -3681 0
-180 3682 3684 0
-179 3682 3684 0
-179 -180 3684 0
-3684 3681 0
-3689 3667 3690 0
-3687 3667 3690 0
-3687 -3689 3690 0
-3690 3665 0
-3688 3665 0
-3690 -3688 3666 0
-3685 3665 0
-3690 -3685 3666 0
-3686 3666 0
-3690 -3686 0
-3685 -3688 3666 0
-3690 -3685 -3688 0
-3686 -3688 0
-3690 -3686 -3688 0
-178 3689 3693 0
-3692 3689 3693 0
-3692 -178 3693 0
-3693 3688 0
-3691 3688 0
-3693 -3691 0
-177 3692 3694 0
-176 3692 3694 0
-176 -177 3694 0
-3694 3691 0
-3698 3687 3699 0
-3696 3687 3699 0
-3696 -3698 3699 0
-3699 3685 0
-3697 3685 0
-3699 -3697 3686 0
-3695 3685 0
-3699 -3695 3686 0
-3695 -3697 3686 0
-3699 -3695 -3697 0
-175 3698 3700 0
-174 3698 3700 0
-174 -175 3700 0
-3700 3697 0
-173 3696 3701 0
-172 3696 3701 0
-172 -173 3701 0
-3701 3695 0
-3707 3660 3708 0
-3704 3660 3708 0
-3704 -3707 3708 0
-3708 3658 0
-3705 3658 0
-3708 -3705 3659 0
-3706 3659 0
-3708 -3706 0
-3702 3658 0
-3708 -3702 3659 0
-3703 3659 0
-3708 -3703 0
-3702 -3705 3659 0
-3708 -3702 -3705 0
-3702 -3706 0
-3708 -3702 -3706 0
-3703 -3705 0
-3708 -3703 -3705 0
-3703 -3706 0
-3708 -3703 -3706 0
-3712 3707 3713 0
-3710 3707 3713 0
-3710 -3712 3713 0
-3713 3705 0
-3711 3705 0
-3713 -3711 3706 0
-3709 3705 0
-3713 -3709 3706 0
-3709 -3711 3706 0
-3713 -3709 -3711 0
-171 3712 3716 0
-3715 3712 3716 0
-3715 -171 3716 0
-3716 3711 0
-3714 3711 0
-3716 -3714 0
-170 3715 3717 0
-169 3715 3717 0
-169 -170 3717 0
-3717 3714 0
-168 3710 3720 0
-3719 3710 3720 0
-3719 -168 3720 0
-3720 3709 0
-3718 3709 0
-3720 -3718 0
-167 3719 3721 0
-166 3719 3721 0
-166 -167 3721 0
-3721 3718 0
-3726 3704 3727 0
-3724 3704 3727 0
-3724 -3726 3727 0
-3727 3702 0
-3725 3702 0
-3727 -3725 3703 0
-3722 3702 0
-3727 -3722 3703 0
-3723 3703 0
-3727 -3723 0
-3722 -3725 3703 0
-3727 -3722 -3725 0
-3723 -3725 0
-3727 -3723 -3725 0
-165 3726 3730 0
-3729 3726 3730 0
-3729 -165 3730 0
-3730 3725 0
-3728 3725 0
-3730 -3728 0
-164 3729 3731 0
-163 3729 3731 0
-163 -164 3731 0
-3731 3728 0
-3735 3724 3736 0
-3733 3724 3736 0
-3733 -3735 3736 0
-3736 3722 0
-3734 3722 0
-3736 -3734 3723 0
-3732 3722 0
-3736 -3732 3723 0
-3732 -3734 3723 0
-3736 -3732 -3734 0
-162 3735 3737 0
-161 3735 3737 0
-161 -162 3737 0
-3737 3734 0
-160 3733 3738 0
-159 3733 3738 0
-159 -160 3738 0
-3738 3732 0
-3744 3565 3745 0
-3741 3565 3745 0
-3741 -3744 3745 0
-3745 3563 0
-3742 3563 0
-3745 -3742 3564 0
-3743 3564 0
-3745 -3743 0
-3739 3563 0
-3745 -3739 3564 0
-3740 3564 0
-3745 -3740 0
-3739 -3742 3564 0
-3745 -3739 -3742 0
-3739 -3743 0
-3745 -3739 -3743 0
-3740 -3742 0
-3745 -3740 -3742 0
-3740 -3743 0
-3745 -3740 -3743 0
-3751 3744 3752 0
-3748 3744 3752 0
-3748 -3751 3752 0
-3752 3742 0
-3749 3742 0
-3752 -3749 3743 0
-3750 3743 0
-3752 -3750 0
-3746 3742 0
-3752 -3746 3743 0
-3747 3743 0
-3752 -3747 0
-3746 -3749 3743 0
-3752 -3746 -3749 0
-3746 -3750 0
-3752 -3746 -3750 0
-3747 -3749 0
-3752 -3747 -3749 0
-3747 -3750 0
-3752 -3747 -3750 0
-3758 3751 3759 0
-3755 3751 3759 0
-3755 -3758 3759 0
-3759 3749 0
-3756 3749 0
-3759 -3756 3750 0
-3757 3750 0
-3759 -3757 0
-3753 3749 0
-3759 -3753 3750 0
-3754 3750 0
-3759 -3754 0
-3753 -3756 3750 0
-3759 -3753 -3756 0
-3753 -3757 0
-3759 -3753 -3757 0
-3754 -3756 0
-3759 -3754 -3756 0
-3754 -3757 0
-3759 -3754 -3757 0
-3763 3758 3764 0
-3761 3758 3764 0
-3761 -3763 3764 0
-3764 3756 0
-3762 3756 0
-3764 -3762 3757 0
-3760 3756 0
-3764 -3760 3757 0
-3760 -3762 3757 0
-3764 -3760 -3762 0
-158 3763 3767 0
-3766 3763 3767 0
-3766 -158 3767 0
-3767 3762 0
-3765 3762 0
-3767 -3765 0
-157 3766 3768 0
-156 3766 3768 0
-156 -157 3768 0
-3768 3765 0
-155 3761 3771 0
-3770 3761 3771 0
-3770 -155 3771 0
-3771 3760 0
-3769 3760 0
-3771 -3769 0
-154 3770 3772 0
-153 3770 3772 0
-153 -154 3772 0
-3772 3769 0
-3777 3755 3778 0
-3775 3755 3778 0
-3775 -3777 3778 0
-3778 3753 0
-3776 3753 0
-3778 -3776 3754 0
-3773 3753 0
-3778 -3773 3754 0
-3774 3754 0
-3778 -3774 0
-3773 -3776 3754 0
-3778 -3773 -3776 0
-3774 -3776 0
-3778 -3774 -3776 0
-152 3777 3781 0
-3780 3777 3781 0
-3780 -152 3781 0
-3781 3776 0
-3779 3776 0
-3781 -3779 0
-151 3780 3782 0
-150 3780 3782 0
-150 -151 3782 0
-3782 3779 0
-3786 3775 3787 0
-3784 3775 3787 0
-3784 -3786 3787 0
-3787 3773 0
-3785 3773 0
-3787 -3785 3774 0
-3783 3773 0
-3787 -3783 3774 0
-3783 -3785 3774 0
-3787 -3783 -3785 0
-149 3786 3788 0
-148 3786 3788 0
-148 -149 3788 0
-3788 3785 0
-147 3784 3789 0
-146 3784 3789 0
-146 -147 3789 0
-3789 3783 0
-3795 3748 3796 0
-3792 3748 3796 0
-3792 -3795 3796 0
-3796 3746 0
-3793 3746 0
-3796 -3793 3747 0
-3794 3747 0
-3796 -3794 0
-3790 3746 0
-3796 -3790 3747 0
-3791 3747 0
-3796 -3791 0
-3790 -3793 3747 0
-3796 -3790 -3793 0
-3790 -3794 0
-3796 -3790 -3794 0
-3791 -3793 0
-3796 -3791 -3793 0
-3791 -3794 0
-3796 -3791 -3794 0
-3800 3795 3801 0
-3798 3795 3801 0
-3798 -3800 3801 0
-3801 3793 0
-3799 3793 0
-3801 -3799 3794 0
-3797 3793 0
-3801 -3797 3794 0
-3797 -3799 3794 0
-3801 -3797 -3799 0
-145 3800 3804 0
-3803 3800 3804 0
-3803 -145 3804 0
-3804 3799 0
-3802 3799 0
-3804 -3802 0
-144 3803 3805 0
-143 3803 3805 0
-143 -144 3805 0
-3805 3802 0
-142 3798 3808 0
-3807 3798 3808 0
-3807 -142 3808 0
-3808 3797 0
-3806 3797 0
-3808 -3806 0
-141 3807 3809 0
-140 3807 3809 0
-140 -141 3809 0
-3809 3806 0
-3814 3792 3815 0
-3812 3792 3815 0
-3812 -3814 3815 0
-3815 3790 0
-3813 3790 0
-3815 -3813 3791 0
-3810 3790 0
-3815 -3810 3791 0
-3811 3791 0
-3815 -3811 0
-3810 -3813 3791 0
-3815 -3810 -3813 0
-3811 -3813 0
-3815 -3811 -3813 0
-139 3814 3818 0
-3817 3814 3818 0
-3817 -139 3818 0
-3818 3813 0
-3816 3813 0
-3818 -3816 0
-138 3817 3819 0
-137 3817 3819 0
-137 -138 3819 0
-3819 3816 0
-3823 3812 3824 0
-3821 3812 3824 0
-3821 -3823 3824 0
-3824 3810 0
-3822 3810 0
-3824 -3822 3811 0
-3820 3810 0
-3824 -3820 3811 0
-3820 -3822 3811 0
-3824 -3820 -3822 0
-136 3823 3825 0
-135 3823 3825 0
-135 -136 3825 0
-3825 3822 0
-134 3821 3826 0
-133 3821 3826 0
-133 -134 3826 0
-3826 3820 0
-3832 3741 3833 0
-3829 3741 3833 0
-3829 -3832 3833 0
-3833 3739 0
-3830 3739 0
-3833 -3830 3740 0
-3831 3740 0
-3833 -3831 0
-3827 3739 0
-3833 -3827 3740 0
-3828 3740 0
-3833 -3828 0
-3827 -3830 3740 0
-3833 -3827 -3830 0
-3827 -3831 0
-3833 -3827 -3831 0
-3828 -3830 0
-3833 -3828 -3830 0
-3828 -3831 0
-3833 -3828 -3831 0
-3839 3832 3840 0
-3836 3832 3840 0
-3836 -3839 3840 0
-3840 3830 0
-3837 3830 0
-3840 -3837 3831 0
-3838 3831 0
-3840 -3838 0
-3834 3830 0
-3840 -3834 3831 0
-3835 3831 0
-3840 -3835 0
-3834 -3837 3831 0
-3840 -3834 -3837 0
-3834 -3838 0
-3840 -3834 -3838 0
-3835 -3837 0
-3840 -3835 -3837 0
-3835 -3838 0
-3840 -3835 -3838 0
-3844 3839 3845 0
-3842 3839 3845 0
-3842 -3844 3845 0
-3845 3837 0
-3843 3837 0
-3845 -3843 3838 0
-3841 3837 0
-3845 -3841 3838 0
-3841 -3843 3838 0
-3845 -3841 -3843 0
-132 3844 3848 0
-3847 3844 3848 0
-3847 -132 3848 0
-3848 3843 0
-3846 3843 0
-3848 -3846 0
-131 3847 3849 0
-130 3847 3849 0
-130 -131 3849 0
-3849 3846 0
-129 3842 3852 0
-3851 3842 3852 0
-3851 -129 3852 0
-3852 3841 0
-3850 3841 0
-3852 -3850 0
-128 3851 3853 0
-127 3851 3853 0
-127 -128 3853 0
-3853 3850 0
-3858 3836 3859 0
-3856 3836 3859 0
-3856 -3858 3859 0
-3859 3834 0
-3857 3834 0
-3859 -3857 3835 0
-3854 3834 0
-3859 -3854 3835 0
-3855 3835 0
-3859 -3855 0
-3854 -3857 3835 0
-3859 -3854 -3857 0
-3855 -3857 0
-3859 -3855 -3857 0
-126 3858 3862 0
-3861 3858 3862 0
-3861 -126 3862 0
-3862 3857 0
-3860 3857 0
-3862 -3860 0
-125 3861 3863 0
-124 3861 3863 0
-124 -125 3863 0
-3863 3860 0
-3867 3856 3868 0
-3865 3856 3868 0
-3865 -3867 3868 0
-3868 3854 0
-3866 3854 0
-3868 -3866 3855 0
-3864 3854 0
-3868 -3864 3855 0
-3864 -3866 3855 0
-3868 -3864 -3866 0
-123 3867 3869 0
-122 3867 3869 0
-122 -123 3869 0
-3869 3866 0
-121 3865 3870 0
-120 3865 3870 0
-120 -121 3870 0
-3870 3864 0
-3876 3829 3877 0
-3873 3829 3877 0
-3873 -3876 3877 0
-3877 3827 0
-3874 3827 0
-3877 -3874 3828 0
-3875 3828 0
-3877 -3875 0
-3871 3827 0
-3877 -3871 3828 0
-3872 3828 0
-3877 -3872 0
-3871 -3874 3828 0
-3877 -3871 -3874 0
-3871 -3875 0
-3877 -3871 -3875 0
-3872 -3874 0
-3877 -3872 -3874 0
-3872 -3875 0
-3877 -3872 -3875 0
-3882 3876 3883 0
-3880 3876 3883 0
-3880 -3882 3883 0
-3883 3874 0
-3881 3874 0
-3883 -3881 3875 0
-3878 3874 0
-3883 -3878 3875 0
-3879 3875 0
-3883 -3879 0
-3878 -3881 3875 0
-3883 -3878 -3881 0
-3879 -3881 0
-3883 -3879 -3881 0
-119 3882 3886 0
-3885 3882 3886 0
-3885 -119 3886 0
-3886 3881 0
-3884 3881 0
-3886 -3884 0
-118 3885 3887 0
-117 3885 3887 0
-117 -118 3887 0
-3887 3884 0
-3891 3880 3892 0
-3889 3880 3892 0
-3889 -3891 3892 0
-3892 3878 0
-3890 3878 0
-3892 -3890 3879 0
-3888 3878 0
-3892 -3888 3879 0
-3888 -3890 3879 0
-3892 -3888 -3890 0
-116 3891 3893 0
-115 3891 3893 0
-115 -116 3893 0
-3893 3890 0
-114 3889 3894 0
-113 3889 3894 0
-113 -114 3894 0
-3894 3888 0
-3899 3873 3900 0
-3897 3873 3900 0
-3897 -3899 3900 0
-3900 3871 0
-3898 3871 0
-3900 -3898 3872 0
-3895 3871 0
-3900 -3895 3872 0
-3896 3872 0
-3900 -3896 0
-3895 -3898 3872 0
-3900 -3895 -3898 0
-3896 -3898 0
-3900 -3896 -3898 0
-112 3899 3903 0
-3902 3899 3903 0
-3902 -112 3903 0
-3903 3898 0
-3901 3898 0
-3903 -3901 0
-111 3902 3904 0
-110 3902 3904 0
-110 -111 3904 0
-3904 3901 0
-3908 3897 3909 0
-3906 3897 3909 0
-3906 -3908 3909 0
-3909 3895 0
-3907 3895 0
-3909 -3907 3896 0
-3905 3895 0
-3909 -3905 3896 0
-3905 -3907 3896 0
-3909 -3905 -3907 0
-109 3908 3910 0
-108 3908 3910 0
-108 -109 3910 0
-3910 3907 0
-107 3906 3911 0
-106 3906 3911 0
-106 -107 3911 0
-3911 3905 0
-3917 3558 3918 0
-3914 3558 3918 0
-3914 -3917 3918 0
-3918 3556 0
-3915 3556 0
-3918 -3915 3557 0
-3916 3557 0
-3918 -3916 0
-3912 3556 0
-3918 -3912 3557 0
-3913 3557 0
-3918 -3913 0
-3912 -3915 3557 0
-3918 -3912 -3915 0
-3912 -3916 0
-3918 -3912 -3916 0
-3913 -3915 0
-3918 -3913 -3915 0
-3913 -3916 0
-3918 -3913 -3916 0
-3924 3917 3925 0
-3921 3917 3925 0
-3921 -3924 3925 0
-3925 3915 0
-3922 3915 0
-3925 -3922 3916 0
-3923 3916 0
-3925 -3923 0
-3919 3915 0
-3925 -3919 3916 0
-3920 3916 0
-3925 -3920 0
-3919 -3922 3916 0
-3925 -3919 -3922 0
-3919 -3923 0
-3925 -3919 -3923 0
-3920 -3922 0
-3925 -3920 -3922 0
-3920 -3923 0
-3925 -3920 -3923 0
-3931 3924 3932 0
-3928 3924 3932 0
-3928 -3931 3932 0
-3932 3922 0
-3929 3922 0
-3932 -3929 3923 0
-3930 3923 0
-3932 -3930 0
-3926 3922 0
-3932 -3926 3923 0
-3927 3923 0
-3932 -3927 0
-3926 -3929 3923 0
-3932 -3926 -3929 0
-3926 -3930 0
-3932 -3926 -3930 0
-3927 -3929 0
-3932 -3927 -3929 0
-3927 -3930 0
-3932 -3927 -3930 0
-3938 3931 3939 0
-3935 3931 3939 0
-3935 -3938 3939 0
-3939 3929 0
-3936 3929 0
-3939 -3936 3930 0
-3937 3930 0
-3939 -3937 0
-3933 3929 0
-3939 -3933 3930 0
-3934 3930 0
-3939 -3934 0
-3933 -3936 3930 0
-3939 -3933 -3936 0
-3933 -3937 0
-3939 -3933 -3937 0
-3934 -3936 0
-3939 -3934 -3936 0
-3934 -3937 0
-3939 -3934 -3937 0
-3943 3938 3944 0
-3941 3938 3944 0
-3941 -3943 3944 0
-3944 3936 0
-3942 3936 0
-3944 -3942 3937 0
-3940 3936 0
-3944 -3940 3937 0
-3940 -3942 3937 0
-3944 -3940 -3942 0
-105 3943 3947 0
-3946 3943 3947 0
-3946 -105 3947 0
-3947 3942 0
-3945 3942 0
-3947 -3945 0
-104 3946 3948 0
-103 3946 3948 0
-103 -104 3948 0
-3948 3945 0
-102 3941 3951 0
-3950 3941 3951 0
-3950 -102 3951 0
-3951 3940 0
-3949 3940 0
-3951 -3949 0
-101 3950 3952 0
-100 3950 3952 0
-100 -101 3952 0
-3952 3949 0
-3957 3935 3958 0
-3955 3935 3958 0
-3955 -3957 3958 0
-3958 3933 0
-3956 3933 0
-3958 -3956 3934 0
-3953 3933 0
-3958 -3953 3934 0
-3954 3934 0
-3958 -3954 0
-3953 -3956 3934 0
-3958 -3953 -3956 0
-3954 -3956 0
-3958 -3954 -3956 0
-99 3957 3961 0
-3960 3957 3961 0
-3960 -99 3961 0
-3961 3956 0
-3959 3956 0
-3961 -3959 0
-98 3960 3962 0
-97 3960 3962 0
-97 -98 3962 0
-3962 3959 0
-3966 3955 3967 0
-3964 3955 3967 0
-3964 -3966 3967 0
-3967 3953 0
-3965 3953 0
-3967 -3965 3954 0
-3963 3953 0
-3967 -3963 3954 0
-3963 -3965 3954 0
-3967 -3963 -3965 0
-96 3966 3968 0
-95 3966 3968 0
-95 -96 3968 0
-3968 3965 0
-94 3964 3969 0
-93 3964 3969 0
-93 -94 3969 0
-3969 3963 0
-3975 3928 3976 0
-3972 3928 3976 0
-3972 -3975 3976 0
-3976 3926 0
-3973 3926 0
-3976 -3973 3927 0
-3974 3927 0
-3976 -3974 0
-3970 3926 0
-3976 -3970 3927 0
-3971 3927 0
-3976 -3971 0
-3970 -3973 3927 0
-3976 -3970 -3973 0
-3970 -3974 0
-3976 -3970 -3974 0
-3971 -3973 0
-3976 -3971 -3973 0
-3971 -3974 0
-3976 -3971 -3974 0
-3980 3975 3981 0
-3978 3975 3981 0
-3978 -3980 3981 0
-3981 3973 0
-3979 3973 0
-3981 -3979 3974 0
-3977 3973 0
-3981 -3977 3974 0
-3977 -3979 3974 0
-3981 -3977 -3979 0
-92 3980 3984 0
-3983 3980 3984 0
-3983 -92 3984 0
-3984 3979 0
-3982 3979 0
-3984 -3982 0
-91 3983 3985 0
-90 3983 3985 0
-90 -91 3985 0
-3985 3982 0
-89 3978 3988 0
-3987 3978 3988 0
-3987 -89 3988 0
-3988 3977 0
-3986 3977 0
-3988 -3986 0
-88 3987 3989 0
-87 3987 3989 0
-87 -88 3989 0
-3989 3986 0
-3994 3972 3995 0
-3992 3972 3995 0
-3992 -3994 3995 0
-3995 3970 0
-3993 3970 0
-3995 -3993 3971 0
-3990 3970 0
-3995 -3990 3971 0
-3991 3971 0
-3995 -3991 0
-3990 -3993 3971 0
-3995 -3990 -3993 0
-3991 -3993 0
-3995 -3991 -3993 0
-86 3994 3998 0
-3997 3994 3998 0
-3997 -86 3998 0
-3998 3993 0
-3996 3993 0
-3998 -3996 0
-85 3997 3999 0
-84 3997 3999 0
-84 -85 3999 0
-3999 3996 0
-4003 3992 4004 0
-4001 3992 4004 0
-4001 -4003 4004 0
-4004 3990 0
-4002 3990 0
-4004 -4002 3991 0
-4000 3990 0
-4004 -4000 3991 0
-4000 -4002 3991 0
-4004 -4000 -4002 0
-83 4003 4005 0
-82 4003 4005 0
-82 -83 4005 0
-4005 4002 0
-81 4001 4006 0
-80 4001 4006 0
-80 -81 4006 0
-4006 4000 0
-4012 3921 4013 0
-4009 3921 4013 0
-4009 -4012 4013 0
-4013 3919 0
-4010 3919 0
-4013 -4010 3920 0
-4011 3920 0
-4013 -4011 0
-4007 3919 0
-4013 -4007 3920 0
-4008 3920 0
-4013 -4008 0
-4007 -4010 3920 0
-4013 -4007 -4010 0
-4007 -4011 0
-4013 -4007 -4011 0
-4008 -4010 0
-4013 -4008 -4010 0
-4008 -4011 0
-4013 -4008 -4011 0
-4019 4012 4020 0
-4016 4012 4020 0
-4016 -4019 4020 0
-4020 4010 0
-4017 4010 0
-4020 -4017 4011 0
-4018 4011 0
-4020 -4018 0
-4014 4010 0
-4020 -4014 4011 0
-4015 4011 0
-4020 -4015 0
-4014 -4017 4011 0
-4020 -4014 -4017 0
-4014 -4018 0
-4020 -4014 -4018 0
-4015 -4017 0
-4020 -4015 -4017 0
-4015 -4018 0
-4020 -4015 -4018 0
-4024 4019 4025 0
-4022 4019 4025 0
-4022 -4024 4025 0
-4025 4017 0
-4023 4017 0
-4025 -4023 4018 0
-4021 4017 0
-4025 -4021 4018 0
-4021 -4023 4018 0
-4025 -4021 -4023 0
-79 4024 4028 0
-4027 4024 4028 0
-4027 -79 4028 0
-4028 4023 0
-4026 4023 0
-4028 -4026 0
-78 4027 4029 0
-77 4027 4029 0
-77 -78 4029 0
-4029 4026 0
-76 4022 4032 0
-4031 4022 4032 0
-4031 -76 4032 0
-4032 4021 0
-4030 4021 0
-4032 -4030 0
-75 4031 4033 0
-74 4031 4033 0
-74 -75 4033 0
-4033 4030 0
-4038 4016 4039 0
-4036 4016 4039 0
-4036 -4038 4039 0
-4039 4014 0
-4037 4014 0
-4039 -4037 4015 0
-4034 4014 0
-4039 -4034 4015 0
-4035 4015 0
-4039 -4035 0
-4034 -4037 4015 0
-4039 -4034 -4037 0
-4035 -4037 0
-4039 -4035 -4037 0
-73 4038 4042 0
-4041 4038 4042 0
-4041 -73 4042 0
-4042 4037 0
-4040 4037 0
-4042 -4040 0
-72 4041 4043 0
-71 4041 4043 0
-71 -72 4043 0
-4043 4040 0
-4047 4036 4048 0
-4045 4036 4048 0
-4045 -4047 4048 0
-4048 4034 0
-4046 4034 0
-4048 -4046 4035 0
-4044 4034 0
-4048 -4044 4035 0
-4044 -4046 4035 0
-4048 -4044 -4046 0
-70 4047 4049 0
-69 4047 4049 0
-69 -70 4049 0
-4049 4046 0
-68 4045 4050 0
-67 4045 4050 0
-67 -68 4050 0
-4050 4044 0
-4056 4009 4057 0
-4053 4009 4057 0
-4053 -4056 4057 0
-4057 4007 0
-4054 4007 0
-4057 -4054 4008 0
-4055 4008 0
-4057 -4055 0
-4051 4007 0
-4057 -4051 4008 0
-4052 4008 0
-4057 -4052 0
-4051 -4054 4008 0
-4057 -4051 -4054 0
-4051 -4055 0
-4057 -4051 -4055 0
-4052 -4054 0
-4057 -4052 -4054 0
-4052 -4055 0
-4057 -4052 -4055 0
-4061 4056 4062 0
-4059 4056 4062 0
-4059 -4061 4062 0
-4062 4054 0
-4060 4054 0
-4062 -4060 4055 0
-4058 4054 0
-4062 -4058 4055 0
-4058 -4060 4055 0
-4062 -4058 -4060 0
-66 4061 4065 0
-4064 4061 4065 0
-4064 -66 4065 0
-4065 4060 0
-4063 4060 0
-4065 -4063 0
-65 4064 4066 0
-64 4064 4066 0
-64 -65 4066 0
-4066 4063 0
-63 4059 4069 0
-4068 4059 4069 0
-4068 -63 4069 0
-4069 4058 0
-4067 4058 0
-4069 -4067 0
-62 4068 4070 0
-61 4068 4070 0
-61 -62 4070 0
-4070 4067 0
-4075 4053 4076 0
-4073 4053 4076 0
-4073 -4075 4076 0
-4076 4051 0
-4074 4051 0
-4076 -4074 4052 0
-4071 4051 0
-4076 -4071 4052 0
-4072 4052 0
-4076 -4072 0
-4071 -4074 4052 0
-4076 -4071 -4074 0
-4072 -4074 0
-4076 -4072 -4074 0
-60 4075 4079 0
-4078 4075 4079 0
-4078 -60 4079 0
-4079 4074 0
-4077 4074 0
-4079 -4077 0
-59 4078 4080 0
-58 4078 4080 0
-58 -59 4080 0
-4080 4077 0
-4084 4073 4085 0
-4082 4073 4085 0
-4082 -4084 4085 0
-4085 4071 0
-4083 4071 0
-4085 -4083 4072 0
-4081 4071 0
-4085 -4081 4072 0
-4081 -4083 4072 0
-4085 -4081 -4083 0
-57 4084 4086 0
-56 4084 4086 0
-56 -57 4086 0
-4086 4083 0
-55 4082 4087 0
-54 4082 4087 0
-54 -55 4087 0
-4087 4081 0
-4093 3914 4094 0
-4090 3914 4094 0
-4090 -4093 4094 0
-4094 3912 0
-4091 3912 0
-4094 -4091 3913 0
-4092 3913 0
-4094 -4092 0
-4088 3912 0
-4094 -4088 3913 0
-4089 3913 0
-4094 -4089 0
-4088 -4091 3913 0
-4094 -4088 -4091 0
-4088 -4092 0
-4094 -4088 -4092 0
-4089 -4091 0
-4094 -4089 -4091 0
-4089 -4092 0
-4094 -4089 -4092 0
-4100 4093 4101 0
-4097 4093 4101 0
-4097 -4100 4101 0
-4101 4091 0
-4098 4091 0
-4101 -4098 4092 0
-4099 4092 0
-4101 -4099 0
-4095 4091 0
-4101 -4095 4092 0
-4096 4092 0
-4101 -4096 0
-4095 -4098 4092 0
-4101 -4095 -4098 0
-4095 -4099 0
-4101 -4095 -4099 0
-4096 -4098 0
-4101 -4096 -4098 0
-4096 -4099 0
-4101 -4096 -4099 0
-4107 4100 4108 0
-4104 4100 4108 0
-4104 -4107 4108 0
-4108 4098 0
-4105 4098 0
-4108 -4105 4099 0
-4106 4099 0
-4108 -4106 0
-4102 4098 0
-4108 -4102 4099 0
-4103 4099 0
-4108 -4103 0
-4102 -4105 4099 0
-4108 -4102 -4105 0
-4102 -4106 0
-4108 -4102 -4106 0
-4103 -4105 0
-4108 -4103 -4105 0
-4103 -4106 0
-4108 -4103 -4106 0
-4112 4107 4113 0
-4110 4107 4113 0
-4110 -4112 4113 0
-4113 4105 0
-4111 4105 0
-4113 -4111 4106 0
-4109 4105 0
-4113 -4109 4106 0
-4109 -4111 4106 0
-4113 -4109 -4111 0
-53 4112 4116 0
-4115 4112 4116 0
-4115 -53 4116 0
-4116 4111 0
-4114 4111 0
-4116 -4114 0
-52 4115 4117 0
-51 4115 4117 0
-51 -52 4117 0
-4117 4114 0
-50 4110 4120 0
-4119 4110 4120 0
-4119 -50 4120 0
-4120 4109 0
-4118 4109 0
-4120 -4118 0
-49 4119 4121 0
-48 4119 4121 0
-48 -49 4121 0
-4121 4118 0
-4126 4104 4127 0
-4124 4104 4127 0
-4124 -4126 4127 0
-4127 4102 0
-4125 4102 0
-4127 -4125 4103 0
-4122 4102 0
-4127 -4122 4103 0
-4123 4103 0
-4127 -4123 0
-4122 -4125 4103 0
-4127 -4122 -4125 0
-4123 -4125 0
-4127 -4123 -4125 0
-47 4126 4130 0
-4129 4126 4130 0
-4129 -47 4130 0
-4130 4125 0
-4128 4125 0
-4130 -4128 0
-46 4129 4131 0
-45 4129 4131 0
-45 -46 4131 0
-4131 4128 0
-4135 4124 4136 0
-4133 4124 4136 0
-4133 -4135 4136 0
-4136 4122 0
-4134 4122 0
-4136 -4134 4123 0
-4132 4122 0
-4136 -4132 4123 0
-4132 -4134 4123 0
-4136 -4132 -4134 0
-44 4135 4137 0
-43 4135 4137 0
-43 -44 4137 0
-4137 4134 0
-42 4133 4138 0
-41 4133 4138 0
-41 -42 4138 0
-4138 4132 0
-4144 4097 4145 0
-4141 4097 4145 0
-4141 -4144 4145 0
-4145 4095 0
-4142 4095 0
-4145 -4142 4096 0
-4143 4096 0
-4145 -4143 0
-4139 4095 0
-4145 -4139 4096 0
-4140 4096 0
-4145 -4140 0
-4139 -4142 4096 0
-4145 -4139 -4142 0
-4139 -4143 0
-4145 -4139 -4143 0
-4140 -4142 0
-4145 -4140 -4142 0
-4140 -4143 0
-4145 -4140 -4143 0
-4149 4144 4150 0
-4147 4144 4150 0
-4147 -4149 4150 0
-4150 4142 0
-4148 4142 0
-4150 -4148 4143 0
-4146 4142 0
-4150 -4146 4143 0
-4146 -4148 4143 0
-4150 -4146 -4148 0
-40 4149 4153 0
-4152 4149 4153 0
-4152 -40 4153 0
-4153 4148 0
-4151 4148 0
-4153 -4151 0
-39 4152 4154 0
-38 4152 4154 0
-38 -39 4154 0
-4154 4151 0
-37 4147 4157 0
-4156 4147 4157 0
-4156 -37 4157 0
-4157 4146 0
-4155 4146 0
-4157 -4155 0
-36 4156 4158 0
-35 4156 4158 0
-35 -36 4158 0
-4158 4155 0
-4163 4141 4164 0
-4161 4141 4164 0
-4161 -4163 4164 0
-4164 4139 0
-4162 4139 0
-4164 -4162 4140 0
-4159 4139 0
-4164 -4159 4140 0
-4160 4140 0
-4164 -4160 0
-4159 -4162 4140 0
-4164 -4159 -4162 0
-4160 -4162 0
-4164 -4160 -4162 0
-34 4163 4167 0
-4166 4163 4167 0
-4166 -34 4167 0
-4167 4162 0
-4165 4162 0
-4167 -4165 0
-33 4166 4168 0
-32 4166 4168 0
-32 -33 4168 0
-4168 4165 0
-4172 4161 4173 0
-4170 4161 4173 0
-4170 -4172 4173 0
-4173 4159 0
-4171 4159 0
-4173 -4171 4160 0
-4169 4159 0
-4173 -4169 4160 0
-4169 -4171 4160 0
-4173 -4169 -4171 0
-31 4172 4174 0
-30 4172 4174 0
-30 -31 4174 0
-4174 4171 0
-29 4170 4175 0
-28 4170 4175 0
-28 -29 4175 0
-4175 4169 0
-4181 4090 4182 0
-4178 4090 4182 0
-4178 -4181 4182 0
-4182 4088 0
-4179 4088 0
-4182 -4179 4089 0
-4180 4089 0
-4182 -4180 0
-4176 4088 0
-4182 -4176 4089 0
-4177 4089 0
-4182 -4177 0
-4176 -4179 4089 0
-4182 -4176 -4179 0
-4176 -4180 0
-4182 -4176 -4180 0
-4177 -4179 0
-4182 -4177 -4179 0
-4177 -4180 0
-4182 -4177 -4180 0
-4188 4181 4189 0
-4185 4181 4189 0
-4185 -4188 4189 0
-4189 4179 0
-4186 4179 0
-4189 -4186 4180 0
-4187 4180 0
-4189 -4187 0
-4183 4179 0
-4189 -4183 4180 0
-4184 4180 0
-4189 -4184 0
-4183 -4186 4180 0
-4189 -4183 -4186 0
-4183 -4187 0
-4189 -4183 -4187 0
-4184 -4186 0
-4189 -4184 -4186 0
-4184 -4187 0
-4189 -4184 -4187 0
-4193 4188 4194 0
-4191 4188 4194 0
-4191 -4193 4194 0
-4194 4186 0
-4192 4186 0
-4194 -4192 4187 0
-4190 4186 0
-4194 -4190 4187 0
-4190 -4192 4187 0
-4194 -4190 -4192 0
-27 4193 4197 0
-4196 4193 4197 0
-4196 -27 4197 0
-4197 4192 0
-4195 4192 0
-4197 -4195 0
-26 4196 4198 0
-25 4196 4198 0
-25 -26 4198 0
-4198 4195 0
-24 4191 4201 0
-4200 4191 4201 0
-4200 -24 4201 0
-4201 4190 0
-4199 4190 0
-4201 -4199 0
-23 4200 4202 0
-22 4200 4202 0
-22 -23 4202 0
-4202 4199 0
-4207 4185 4208 0
-4205 4185 4208 0
-4205 -4207 4208 0
-4208 4183 0
-4206 4183 0
-4208 -4206 4184 0
-4203 4183 0
-4208 -4203 4184 0
-4204 4184 0
-4208 -4204 0
-4203 -4206 4184 0
-4208 -4203 -4206 0
-4204 -4206 0
-4208 -4204 -4206 0
-21 4207 4211 0
-4210 4207 4211 0
-4210 -21 4211 0
-4211 4206 0
-4209 4206 0
-4211 -4209 0
-20 4210 4212 0
-19 4210 4212 0
-19 -20 4212 0
-4212 4209 0
-4216 4205 4217 0
-4214 4205 4217 0
-4214 -4216 4217 0
-4217 4203 0
-4215 4203 0
-4217 -4215 4204 0
-4213 4203 0
-4217 -4213 4204 0
-4213 -4215 4204 0
-4217 -4213 -4215 0
-18 4216 4218 0
-17 4216 4218 0
-17 -18 4218 0
-4218 4215 0
-16 4214 4219 0
-15 4214 4219 0
-15 -16 4219 0
-4219 4213 0
-4225 4178 4226 0
-4222 4178 4226 0
-4222 -4225 4226 0
-4226 4176 0
-4223 4176 0
-4226 -4223 4177 0
-4224 4177 0
-4226 -4224 0
-4220 4176 0
-4226 -4220 4177 0
-4221 4177 0
-4226 -4221 0
-4220 -4223 4177 0
-4226 -4220 -4223 0
-4220 -4224 0
-4226 -4220 -4224 0
-4221 -4223 0
-4226 -4221 -4223 0
-4221 -4224 0
-4226 -4221 -4224 0
-4231 4225 4232 0
-4229 4225 4232 0
-4229 -4231 4232 0
-4232 4223 0
-4230 4223 0
-4232 -4230 4224 0
-4227 4223 0
-4232 -4227 4224 0
-4228 4224 0
-4232 -4228 0
-4227 -4230 4224 0
-4232 -4227 -4230 0
-4228 -4230 0
-4232 -4228 -4230 0
-14 4231 4235 0
-4234 4231 4235 0
-4234 -14 4235 0
-4235 4230 0
-4233 4230 0
-4235 -4233 0
-13 4234 4236 0
-12 4234 4236 0
-12 -13 4236 0
-4236 4233 0
-4240 4229 4241 0
-4238 4229 4241 0
-4238 -4240 4241 0
-4241 4227 0
-4239 4227 0
-4241 -4239 4228 0
-4237 4227 0
-4241 -4237 4228 0
-4237 -4239 4228 0
-4241 -4237 -4239 0
-11 4240 4242 0
-10 4240 4242 0
-10 -11 4242 0
-4242 4239 0
-9 4238 4243 0
-8 4238 4243 0
-8 -9 4243 0
-4243 4237 0
-4248 4222 4249 0
-4246 4222 4249 0
-4246 -4248 4249 0
-4249 4220 0
-4247 4220 0
-4249 -4247 4221 0
-4244 4220 0
-4249 -4244 4221 0
-4245 4221 0
-4249 -4245 0
-4244 -4247 4221 0
-4249 -4244 -4247 0
-4245 -4247 0
-4249 -4245 -4247 0
-7 4248 4252 0
-4251 4248 4252 0
-4251 -7 4252 0
-4252 4247 0
-4250 4247 0
-4252 -4250 0
-6 4251 4253 0
-5 4251 4253 0
-5 -6 4253 0
-4253 4250 0
-4257 4246 4258 0
-4255 4246 4258 0
-4255 -4257 4258 0
-4258 4244 0
-4256 4244 0
-4258 -4256 4245 0
-4254 4244 0
-4258 -4254 4245 0
-4254 -4256 4245 0
-4258 -4254 -4256 0
-4 4257 4259 0
-3 4257 4259 0
-3 -4 4259 0
-4259 4256 0
-2 4255 4260 0
-1 4255 4260 0
-1 -2 4260 0
-4260 4254 0
