p cnf 205 597
1 11 -27 0
-1 -11 -27 0
1 -11 27 0
-1 11 27 0
27 12 -28 0
-27 -12 -28 0
27 -12 28 0
-27 12 28 0
28 13 -29 0
-28 -13 -29 0
28 -13 29 0
-28 13 29 0
29 14 -30 0
-29 -14 -30 0
29 -14 30 0
-29 14 30 0
30 22 -31 0
-30 -22 -31 0
30 -22 31 0
-30 22 31 0
31 24 -32 0
-31 -24 -32 0
31 -24 32 0
-31 24 32 0
32 25 -33 0
-32 -25 -33 0
32 -25 33 0
-32 25 33 0
-33 0
1 2 -34 0
-1 -2 -34 0
1 -2 34 0
-1 2 34 0
34 12 -35 0
-34 -12 -35 0
34 -12 35 0
-34 12 35 0
35 13 -36 0
-35 -13 -36 0
35 -13 36 0
-35 13 36 0
36 15 -37 0
-36 -15 -37 0
36 -15 37 0
-36 15 37 0
37 23 -38 0
-37 -23 -38 0
37 -23 38 0
-37 23 38 0
38 25 -39 0
-38 -25 -39 0
38 -25 39 0
-38 25 39 0
39 26 -40 0
-39 -26 -40 0
39 -26 40 0
-39 26 40 0
-40 0
1 2 -41 0
-1 -2 -41 0
1 -2 41 0
-1 2 41 0
41 3 -42 0
-41 -3 -42 0
41 -3 42 0
-41 3 42 0
42 13 -43 0
-42 -13 -43 0
42 -13 43 0
-42 13 43 0
43 14 -44 0
-43 -14 -44 0
43 -14 44 0
-43 14 44 0
44 16 -45 0
-44 -16 -45 0
44 -16 45 0
-44 16 45 0
45 24 -46 0
-45 -24 -46 0
45 -24 46 0
-45 24 46 0
46 26 -47 0
-46 -26 -47 0
46 -26 47 0
-46 26 47 0
-47 0
1 2 -48 0
-1 -2 -48 0
1 -2 48 0
-1 2 48 0
48 3 -49 0
-48 -3 -49 0
48 -3 49 0
-48 3 49 0
49 4 -50 0
-49 -4 -50 0
49 -4 50 0
-49 4 50 0
50 14 -51 0
-50 -14 -51 0
50 -14 51 0
-50 14 51 0
51 15 -52 0
-51 -15 -52 0
51 -15 52 0
-51 15 52 0
52 17 -53 0
-52 -17 -53 0
52 -17 53 0
-52 17 53 0
53 25 -54 0
-53 -25 -54 0
53 -25 54 0
-53 25 54 0
-54 0
2 3 -55 0
-2 -3 -55 0
2 -3 55 0
-2 3 55 0
55 4 -56 0
-55 -4 -56 0
55 -4 56 0
-55 4 56 0
56 5 -57 0
-56 -5 -57 0
56 -5 57 0
-56 5 57 0
57 15 -58 0
-57 -15 -58 0
57 -15 58 0
-57 15 58 0
58 16 -59 0
-58 -16 -59 0
58 -16 59 0
-58 16 59 0
59 18 -60 0
-59 -18 -60 0
59 -18 60 0
-59 18 60 0
60 26 -61 0
-60 -26 -61 0
60 -26 61 0
-60 26 61 0
-61 0
3 4 -62 0
-3 -4 -62 0
3 -4 62 0
-3 4 62 0
62 5 -63 0
-62 -5 -63 0
62 -5 63 0
-62 5 63 0
63 6 -64 0
-63 -6 -64 0
63 -6 64 0
-63 6 64 0
64 14 -65 0
-64 -14 -65 0
64 -14 65 0
-64 14 65 0
65 16 -66 0
-65 -16 -66 0
65 -16 66 0
-65 16 66 0
66 17 -67 0
-66 -17 -67 0
66 -17 67 0
-66 17 67 0
67 19 -68 0
-67 -19 -68 0
67 -19 68 0
-67 19 68 0
-68 0
4 5 -69 0
-4 -5 -69 0
4 -5 69 0
-4 5 69 0
69 6 -70 0
-69 -6 -70 0
69 -6 70 0
-69 6 70 0
70 7 -71 0
-70 -7 -71 0
70 -7 71 0
-70 7 71 0
71 15 -72 0
-71 -15 -72 0
71 -15 72 0
-71 15 72 0
72 17 -73 0
-72 -17 -73 0
72 -17 73 0
-72 17 73 0
73 18 -74 0
-73 -18 -74 0
73 -18 74 0
-73 18 74 0
74 20 -75 0
-74 -20 -75 0
74 -20 75 0
-74 20 75 0
-75 0
5 6 -76 0
-5 -6 -76 0
5 -6 76 0
-5 6 76 0
76 7 -77 0
-76 -7 -77 0
76 -7 77 0
-76 7 77 0
77 8 -78 0
-77 -8 -78 0
77 -8 78 0
-77 8 78 0
78 16 -79 0
-78 -16 -79 0
78 -16 79 0
-78 16 79 0
79 18 -80 0
-79 -18 -80 0
79 -18 80 0
-79 18 80 0
80 19 -81 0
-80 -19 -81 0
80 -19 81 0
-80 19 81 0
81 21 -82 0
-81 -21 -82 0
81 -21 82 0
-81 21 82 0
-82 0
6 7 -83 0
-6 -7 -83 0
6 -7 83 0
-6 7 83 0
83 8 -84 0
-83 -8 -84 0
83 -8 84 0
-83 8 84 0
84 9 -85 0
-84 -9 -85 0
84 -9 85 0
-84 9 85 0
85 17 -86 0
-85 -17 -86 0
85 -17 86 0
-85 17 86 0
86 19 -87 0
-86 -19 -87 0
86 -19 87 0
-86 19 87 0
87 20 -88 0
-87 -20 -88 0
87 -20 88 0
-87 20 88 0
88 22 -89 0
-88 -22 -89 0
88 -22 89 0
-88 22 89 0
-89 0
7 8 -90 0
-7 -8 -90 0
7 -8 90 0
-7 8 90 0
90 9 -91 0
-90 -9 -91 0
90 -9 91 0
-90 9 91 0
91 10 -92 0
-91 -10 -92 0
91 -10 92 0
-91 10 92 0
92 18 -93 0
-92 -18 -93 0
92 -18 93 0
-92 18 93 0
93 20 -94 0
-93 -20 -94 0
93 -20 94 0
-93 20 94 0
94 21 -95 0
-94 -21 -95 0
94 -21 95 0
-94 21 95 0
95 23 -96 0
-95 -23 -96 0
95 -23 96 0
-95 23 96 0
-96 0
8 9 -97 0
-8 -9 -97 0
8 -9 97 0
-8 9 97 0
97 10 -98 0
-97 -10 -98 0
97 -10 98 0
-97 10 98 0
98 11 -99 0
-98 -11 -99 0
98 -11 99 0
-98 11 99 0
99 19 -100 0
-99 -19 -100 0
99 -19 100 0
-99 19 100 0
100 21 -101 0
-100 -21 -101 0
100 -21 101 0
-100 21 101 0
101 22 -102 0
-101 -22 -102 0
101 -22 102 0
-101 22 102 0
102 24 -103 0
-102 -24 -103 0
102 -24 103 0
-102 24 103 0
-103 0
9 10 -104 0
-9 -10 -104 0
9 -10 104 0
-9 10 104 0
104 11 -105 0
-104 -11 -105 0
104 -11 105 0
-104 11 105 0
105 12 -106 0
-105 -12 -106 0
105 -12 106 0
-105 12 106 0
106 20 -107 0
-106 -20 -107 0
106 -20 107 0
-106 20 107 0
107 22 -108 0
-107 -22 -108 0
107 -22 108 0
-107 22 108 0
108 23 -109 0
-108 -23 -109 0
108 -23 109 0
-108 23 109 0
109 25 -110 0
-109 -25 -110 0
109 -25 110 0
-109 25 110 0
-110 0
10 11 -111 0
-10 -11 -111 0
10 -11 111 0
-10 11 111 0
111 12 -112 0
-111 -12 -112 0
111 -12 112 0
-111 12 112 0
112 13 -113 0
-112 -13 -113 0
112 -13 113 0
-112 13 113 0
113 21 -114 0
-113 -21 -114 0
113 -21 114 0
-113 21 114 0
114 23 -115 0
-114 -23 -115 0
114 -23 115 0
-114 23 115 0
115 24 -116 0
-115 -24 -116 0
115 -24 116 0
-115 24 116 0
116 26 -117 0
-116 -26 -117 0
116 -26 117 0
-116 26 117 0
-117 0
1 15 -118 0
-1 -15 -118 0
1 -15 118 0
-1 15 118 0
118 16 -119 0
-118 -16 -119 0
118 -16 119 0
-118 16 119 0
119 17 -120 0
-119 -17 -120 0
119 -17 120 0
-119 17 120 0
120 18 -121 0
-120 -18 -121 0
120 -18 121 0
-120 18 121 0
121 19 -122 0
-121 -19 -122 0
121 -19 122 0
-121 19 122 0
122 20 -123 0
-122 -20 -123 0
122 -20 123 0
-122 20 123 0
123 21 -124 0
-123 -21 -124 0
123 -21 124 0
-123 21 124 0
124 22 -125 0
-124 -22 -125 0
124 -22 125 0
-124 22 125 0
125 23 -126 0
-125 -23 -126 0
125 -23 126 0
-125 23 126 0
126 24 -127 0
-126 -24 -127 0
126 -24 127 0
-126 24 127 0
4 15 -128 0
-4 -15 -128 0
4 -15 128 0
-4 15 128 0
128 16 -129 0
-128 -16 -129 0
128 -16 129 0
-128 16 129 0
129 17 -130 0
-129 -17 -130 0
129 -17 130 0
-129 17 130 0
127 130 0
1 0
-136 132 137 0
-134 132 137 0
-134 -136 137 0
-137 131 0
-135 131 0
-137 -135 0
-133 131 0
-137 -133 0
-133 -135 0
-137 -133 -135 0
-141 136 142 0
-139 136 142 0
-139 -141 142 0
-142 135 0
-140 135 0
-142 -140 0
-138 135 0
-142 -138 0
-138 -140 0
-142 -138 -140 0
-146 141 147 0
-144 141 147 0
-144 -146 147 0
-147 140 0
-145 140 0
-147 -145 0
-143 140 0
-147 -143 0
-143 -145 0
-147 -143 -145 0
-26 146 150 0
-149 146 150 0
-149 -26 150 0
-150 145 0
-148 145 0
-150 -148 0
-25 149 151 0
-24 149 151 0
-24 -25 151 0
-151 148 0
-23 144 154 0
-153 144 154 0
-153 -23 154 0
-154 143 0
-152 143 0
-154 -152 0
-22 153 155 0
-21 153 155 0
-21 -22 155 0
-155 152 0
-159 139 160 0
-157 139 160 0
-157 -159 160 0
-160 138 0
-158 138 0
-160 -158 0
-156 138 0
-160 -156 0
-156 -158 0
-160 -156 -158 0
-20 159 163 0
-162 159 163 0
-162 -20 163 0
-163 158 0
-161 158 0
-163 -161 0
-19 162 164 0
-18 162 164 0
-18 -19 164 0
-164 161 0
-168 157 169 0
-166 157 169 0
-166 -168 169 0
-169 156 0
-167 156 0
-169 -167 0
-165 156 0
-169 -165 0
-165 -167 0
-169 -165 -167 0
-17 168 170 0
-16 168 170 0
-16 -17 170 0
-170 167 0
-15 166 171 0
-14 166 171 0
-14 -15 171 0
-171 165 0
-175 134 176 0
-173 134 176 0
-173 -175 176 0
-176 133 0
-174 133 0
-176 -174 0
-172 133 0
-176 -172 0
-172 -174 0
-176 -172 -174 0
-180 175 181 0
-178 175 181 0
-178 -180 181 0
-181 174 0
-179 174 0
-181 -179 0
-177 174 0
-181 -177 0
-177 -179 0
-181 -177 -179 0
-13 180 184 0
-183 180 184 0
-183 -13 184 0
-184 179 0
-182 179 0
-184 -182 0
-12 183 185 0
-11 183 185 0
-11 -12 185 0
-185 182 0
-10 178 188 0
-187 178 188 0
-187 -10 188 0
-188 177 0
-186 177 0
-188 -186 0
-9 187 189 0
-8 187 189 0
-8 -9 189 0
-189 186 0
-193 173 194 0
-191 173 194 0
-191 -193 194 0
-194 172 0
-192 172 0
-194 -192 0
-190 172 0
-194 -190 0
-190 -192 0
-194 -190 -192 0
-7 193 197 0
-196 193 197 0
-196 -7 197 0
-197 192 0
-195 192 0
-197 -195 0
-6 196 198 0
-5 196 198 0
-5 -6 198 0
-198 195 0
-202 191 203 0
-200 191 203 0
-200 -202 203 0
-203 190 0
-201 190 0
-203 -201 0
-199 190 0
-203 -199 0
-199 -201 0
-203 -199 -201 0
-4 202 204 0
-3 202 204 0
-3 -4 204 0
-204 201 0
-2 200 205 0
-1 200 205 0
-1 -2 205 0
-205 199 0
