p cnf 58 148
1 6 -13 0
-1 -6 -13 0
1 -6 13 0
-1 6 13 0
13 7 -14 0
-13 -7 -14 0
13 -7 14 0
-13 7 14 0
14 10 -15 0
-14 -10 -15 0
14 -10 15 0
-14 10 15 0
-15 0
1 2 -16 0
-1 -2 -16 0
1 -2 16 0
-1 2 16 0
16 8 -17 0
-16 -8 -17 0
16 -8 17 0
-16 8 17 0
17 11 -18 0
-17 -11 -18 0
17 -11 18 0
-17 11 18 0
-18 0
2 3 -19 0
-2 -3 -19 0
2 -3 19 0
-2 3 19 0
19 9 -20 0
-19 -9 -20 0
19 -9 20 0
-19 9 20 0
20 12 -21 0
-20 -12 -21 0
20 -12 21 0
-20 12 21 0
-21 0
3 4 -22 0
-3 -4 -22 0
3 -4 22 0
-3 4 22 0
22 7 -23 0
-22 -7 -23 0
22 -7 23 0
-22 7 23 0
23 10 -24 0
-23 -10 -24 0
23 -10 24 0
-23 10 24 0
-24 0
4 5 -25 0
-4 -5 -25 0
4 -5 25 0
-4 5 25 0
25 8 -26 0
-25 -8 -26 0
25 -8 26 0
-25 8 26 0
26 11 -27 0
-26 -11 -27 0
26 -11 27 0
-26 11 27 0
-27 0
5 6 -28 0
-5 -6 -28 0
5 -6 28 0
-5 6 28 0
28 9 -29 0
-28 -9 -29 0
28 -9 29 0
-28 9 29 0
29 12 -30 0
-29 -12 -30 0
29 -12 30 0
-29 12 30 0
-30 0
1 8 -31 0
-1 -8 -31 0
1 -8 31 0
-1 8 31 0
31 9 -32 0
-31 -9 -32 0
31 -9 32 0
-31 9 32 0
32 10 -33 0
-32 -10 -33 0
32 -10 33 0
-32 10 33 0
4 8 -34 0
-4 -8 -34 0
4 -8 34 0
-4 8 34 0
34 9 -35 0
-34 -9 -35 0
34 -9 35 0
-34 9 35 0
35 10 -36 0
-35 -10 -36 0
35 -10 36 0
-35 10 36 0
33 36 0
1 0
-39 37 40 0
-38 37 40 0
-38 -39 40 0
-40 0
-42 39 43 0
-41 39 43 0
-41 -42 43 0
-43 0
-12 42 45 0
-44 42 45 0
-44 -12 45 0
-45 0
-11 44 46 0
-10 44 46 0
-10 -11 46 0
-46 0
-9 41 48 0
-47 41 48 0
-47 -9 48 0
-48 0
-8 47 49 0
-7 47 49 0
-7 -8 49 0
-49 0
-51 38 52 0
-50 38 52 0
-50 -51 52 0
-52 0
-6 51 54 0
-53 51 54 0
-53 -6 54 0
-54 0
-5 53 55 0
-4 53 55 0
-4 -5 55 0
-55 0
-3 50 57 0
-56 50 57 0
-56 -3 57 0
-57 0
-2 56 58 0
-1 56 58 0
-1 -2 58 0
-58 0
