p cnf 852 2631
1 50 -103 0
-1 -50 -103 0
1 -50 103 0
-1 50 103 0
103 51 -104 0
-103 -51 -104 0
103 -51 104 0
-103 51 104 0
104 52 -105 0
-104 -52 -105 0
104 -52 105 0
-104 52 105 0
105 93 -106 0
-105 -93 -106 0
105 -93 106 0
-105 93 106 0
106 101 -107 0
-106 -101 -107 0
106 -101 107 0
-106 101 107 0
-107 0
1 2 -108 0
-1 -2 -108 0
1 -2 108 0
-1 2 108 0
108 51 -109 0
-108 -51 -109 0
108 -51 109 0
-108 51 109 0
109 53 -110 0
-109 -53 -110 0
109 -53 110 0
-109 53 110 0
110 94 -111 0
-110 -94 -111 0
110 -94 111 0
-110 94 111 0
111 102 -112 0
-111 -102 -112 0
111 -102 112 0
-111 102 112 0
-112 0
1 2 -113 0
-1 -2 -113 0
1 -2 113 0
-1 2 113 0
113 3 -114 0
-113 -3 -114 0
113 -3 114 0
-113 3 114 0
114 52 -115 0
-114 -52 -115 0
114 -52 115 0
-114 52 115 0
115 54 -116 0
-115 -54 -116 0
115 -54 116 0
-115 54 116 0
116 95 -117 0
-116 -95 -117 0
116 -95 117 0
-116 95 117 0
-117 0
2 3 -118 0
-2 -3 -118 0
2 -3 118 0
-2 3 118 0
118 4 -119 0
-118 -4 -119 0
118 -4 119 0
-118 4 119 0
119 53 -120 0
-119 -53 -120 0
119 -53 120 0
-119 53 120 0
120 55 -121 0
-120 -55 -121 0
120 -55 121 0
-120 55 121 0
121 96 -122 0
-121 -96 -122 0
121 -96 122 0
-121 96 122 0
-122 0
3 4 -123 0
-3 -4 -123 0
3 -4 123 0
-3 4 123 0
123 5 -124 0
-123 -5 -124 0
123 -5 124 0
-123 5 124 0
124 54 -125 0
-124 -54 -125 0
124 -54 125 0
-124 54 125 0
125 56 -126 0
-125 -56 -126 0
125 -56 126 0
-125 56 126 0
126 97 -127 0
-126 -97 -127 0
126 -97 127 0
-126 97 127 0
-127 0
4 5 -128 0
-4 -5 -128 0
4 -5 128 0
-4 5 128 0
128 6 -129 0
-128 -6 -129 0
128 -6 129 0
-128 6 129 0
129 55 -130 0
-129 -55 -130 0
129 -55 130 0
-129 55 130 0
130 57 -131 0
-130 -57 -131 0
130 -57 131 0
-130 57 131 0
131 98 -132 0
-131 -98 -132 0
131 -98 132 0
-131 98 132 0
-132 0
5 6 -133 0
-5 -6 -133 0
5 -6 133 0
-5 6 133 0
133 7 -134 0
-133 -7 -134 0
133 -7 134 0
-133 7 134 0
134 56 -135 0
-134 -56 -135 0
134 -56 135 0
-134 56 135 0
135 58 -136 0
-135 -58 -136 0
135 -58 136 0
-135 58 136 0
136 99 -137 0
-136 -99 -137 0
136 -99 137 0
-136 99 137 0
-137 0
6 7 -138 0
-6 -7 -138 0
6 -7 138 0
-6 7 138 0
138 8 -139 0
-138 -8 -139 0
138 -8 139 0
-138 8 139 0
139 57 -140 0
-139 -57 -140 0
139 -57 140 0
-139 57 140 0
140 59 -141 0
-140 -59 -141 0
140 -59 141 0
-140 59 141 0
141 100 -142 0
-141 -100 -142 0
141 -100 142 0
-141 100 142 0
-142 0
7 8 -143 0
-7 -8 -143 0
7 -8 143 0
-7 8 143 0
143 9 -144 0
-143 -9 -144 0
143 -9 144 0
-143 9 144 0
144 58 -145 0
-144 -58 -145 0
144 -58 145 0
-144 58 145 0
145 60 -146 0
-145 -60 -146 0
145 -60 146 0
-145 60 146 0
146 101 -147 0
-146 -101 -147 0
146 -101 147 0
-146 101 147 0
-147 0
8 9 -148 0
-8 -9 -148 0
8 -9 148 0
-8 9 148 0
148 10 -149 0
-148 -10 -149 0
148 -10 149 0
-148 10 149 0
149 59 -150 0
-149 -59 -150 0
149 -59 150 0
-149 59 150 0
150 61 -151 0
-150 -61 -151 0
150 -61 151 0
-150 61 151 0
151 102 -152 0
-151 -102 -152 0
151 -102 152 0
-151 102 152 0
-152 0
9 10 -153 0
-9 -10 -153 0
9 -10 153 0
-9 10 153 0
153 11 -154 0
-153 -11 -154 0
153 -11 154 0
-153 11 154 0
154 52 -155 0
-154 -52 -155 0
154 -52 155 0
-154 52 155 0
155 60 -156 0
-155 -60 -156 0
155 -60 156 0
-155 60 156 0
156 62 -157 0
-156 -62 -157 0
156 -62 157 0
-156 62 157 0
-157 0
10 11 -158 0
-10 -11 -158 0
10 -11 158 0
-10 11 158 0
158 12 -159 0
-158 -12 -159 0
158 -12 159 0
-158 12 159 0
159 53 -160 0
-159 -53 -160 0
159 -53 160 0
-159 53 160 0
160 61 -161 0
-160 -61 -161 0
160 -61 161 0
-160 61 161 0
161 63 -162 0
-161 -63 -162 0
161 -63 162 0
-161 63 162 0
-162 0
11 12 -163 0
-11 -12 -163 0
11 -12 163 0
-11 12 163 0
163 13 -164 0
-163 -13 -164 0
163 -13 164 0
-163 13 164 0
164 54 -165 0
-164 -54 -165 0
164 -54 165 0
-164 54 165 0
165 62 -166 0
-165 -62 -166 0
165 -62 166 0
-165 62 166 0
166 64 -167 0
-166 -64 -167 0
166 -64 167 0
-166 64 167 0
-167 0
12 13 -168 0
-12 -13 -168 0
12 -13 168 0
-12 13 168 0
168 14 -169 0
-168 -14 -169 0
168 -14 169 0
-168 14 169 0
169 55 -170 0
-169 -55 -170 0
169 -55 170 0
-169 55 170 0
170 63 -171 0
-170 -63 -171 0
170 -63 171 0
-170 63 171 0
171 65 -172 0
-171 -65 -172 0
171 -65 172 0
-171 65 172 0
-172 0
13 14 -173 0
-13 -14 -173 0
13 -14 173 0
-13 14 173 0
173 15 -174 0
-173 -15 -174 0
173 -15 174 0
-173 15 174 0
174 56 -175 0
-174 -56 -175 0
174 -56 175 0
-174 56 175 0
175 64 -176 0
-175 -64 -176 0
175 -64 176 0
-175 64 176 0
176 66 -177 0
-176 -66 -177 0
176 -66 177 0
-176 66 177 0
-177 0
14 15 -178 0
-14 -15 -178 0
14 -15 178 0
-14 15 178 0
178 16 -179 0
-178 -16 -179 0
178 -16 179 0
-178 16 179 0
179 57 -180 0
-179 -57 -180 0
179 -57 180 0
-179 57 180 0
180 65 -181 0
-180 -65 -181 0
180 -65 181 0
-180 65 181 0
181 67 -182 0
-181 -67 -182 0
181 -67 182 0
-181 67 182 0
-182 0
15 16 -183 0
-15 -16 -183 0
15 -16 183 0
-15 16 183 0
183 17 -184 0
-183 -17 -184 0
183 -17 184 0
-183 17 184 0
184 58 -185 0
-184 -58 -185 0
184 -58 185 0
-184 58 185 0
185 66 -186 0
-185 -66 -186 0
185 -66 186 0
-185 66 186 0
186 68 -187 0
-186 -68 -187 0
186 -68 187 0
-186 68 187 0
-187 0
16 17 -188 0
-16 -17 -188 0
16 -17 188 0
-16 17 188 0
188 18 -189 0
-188 -18 -189 0
188 -18 189 0
-188 18 189 0
189 59 -190 0
-189 -59 -190 0
189 -59 190 0
-189 59 190 0
190 67 -191 0
-190 -67 -191 0
190 -67 191 0
-190 67 191 0
191 69 -192 0
-191 -69 -192 0
191 -69 192 0
-191 69 192 0
-192 0
17 18 -193 0
-17 -18 -193 0
17 -18 193 0
-17 18 193 0
193 19 -194 0
-193 -19 -194 0
193 -19 194 0
-193 19 194 0
194 60 -195 0
-194 -60 -195 0
194 -60 195 0
-194 60 195 0
195 68 -196 0
-195 -68 -196 0
195 -68 196 0
-195 68 196 0
196 70 -197 0
-196 -70 -197 0
196 -70 197 0
-196 70 197 0
-197 0
18 19 -198 0
-18 -19 -198 0
18 -19 198 0
-18 19 198 0
198 20 -199 0
-198 -20 -199 0
198 -20 199 0
-198 20 199 0
199 61 -200 0
-199 -61 -200 0
199 -61 200 0
-199 61 200 0
200 69 -201 0
-200 -69 -201 0
200 -69 201 0
-200 69 201 0
201 71 -202 0
-201 -71 -202 0
201 -71 202 0
-201 71 202 0
-202 0
19 20 -203 0
-19 -20 -203 0
19 -20 203 0
-19 20 203 0
203 21 -204 0
-203 -21 -204 0
203 -21 204 0
-203 21 204 0
204 62 -205 0
-204 -62 -205 0
204 -62 205 0
-204 62 205 0
205 70 -206 0
-205 -70 -206 0
205 -70 206 0
-205 70 206 0
206 72 -207 0
-206 -72 -207 0
206 -72 207 0
-206 72 207 0
-207 0
20 21 -208 0
-20 -21 -208 0
20 -21 208 0
-20 21 208 0
208 22 -209 0
-208 -22 -209 0
208 -22 209 0
-208 22 209 0
209 63 -210 0
-209 -63 -210 0
209 -63 210 0
-209 63 210 0
210 71 -211 0
-210 -71 -211 0
210 -71 211 0
-210 71 211 0
211 73 -212 0
-211 -73 -212 0
211 -73 212 0
-211 73 212 0
-212 0
21 22 -213 0
-21 -22 -213 0
21 -22 213 0
-21 22 213 0
213 23 -214 0
-213 -23 -214 0
213 -23 214 0
-213 23 214 0
214 64 -215 0
-214 -64 -215 0
214 -64 215 0
-214 64 215 0
215 72 -216 0
-215 -72 -216 0
215 -72 216 0
-215 72 216 0
216 74 -217 0
-216 -74 -217 0
216 -74 217 0
-216 74 217 0
-217 0
22 23 -218 0
-22 -23 -218 0
22 -23 218 0
-22 23 218 0
218 24 -219 0
-218 -24 -219 0
218 -24 219 0
-218 24 219 0
219 65 -220 0
-219 -65 -220 0
219 -65 220 0
-219 65 220 0
220 73 -221 0
-220 -73 -221 0
220 -73 221 0
-220 73 221 0
221 75 -222 0
-221 -75 -222 0
221 -75 222 0
-221 75 222 0
-222 0
23 24 -223 0
-23 -24 -223 0
23 -24 223 0
-23 24 223 0
223 25 -224 0
-223 -25 -224 0
223 -25 224 0
-223 25 224 0
224 66 -225 0
-224 -66 -225 0
224 -66 225 0
-224 66 225 0
225 74 -226 0
-225 -74 -226 0
225 -74 226 0
-225 74 226 0
226 76 -227 0
-226 -76 -227 0
226 -76 227 0
-226 76 227 0
-227 0
24 25 -228 0
-24 -25 -228 0
24 -25 228 0
-24 25 228 0
228 26 -229 0
-228 -26 -229 0
228 -26 229 0
-228 26 229 0
229 67 -230 0
-229 -67 -230 0
229 -67 230 0
-229 67 230 0
230 75 -231 0
-230 -75 -231 0
230 -75 231 0
-230 75 231 0
231 77 -232 0
-231 -77 -232 0
231 -77 232 0
-231 77 232 0
-232 0
25 26 -233 0
-25 -26 -233 0
25 -26 233 0
-25 26 233 0
233 27 -234 0
-233 -27 -234 0
233 -27 234 0
-233 27 234 0
234 68 -235 0
-234 -68 -235 0
234 -68 235 0
-234 68 235 0
235 76 -236 0
-235 -76 -236 0
235 -76 236 0
-235 76 236 0
236 78 -237 0
-236 -78 -237 0
236 -78 237 0
-236 78 237 0
-237 0
26 27 -238 0
-26 -27 -238 0
26 -27 238 0
-26 27 238 0
238 28 -239 0
-238 -28 -239 0
238 -28 239 0
-238 28 239 0
239 69 -240 0
-239 -69 -240 0
239 -69 240 0
-239 69 240 0
240 77 -241 0
-240 -77 -241 0
240 -77 241 0
-240 77 241 0
241 79 -242 0
-241 -79 -242 0
241 -79 242 0
-241 79 242 0
-242 0
27 28 -243 0
-27 -28 -243 0
27 -28 243 0
-27 28 243 0
243 29 -244 0
-243 -29 -244 0
243 -29 244 0
-243 29 244 0
244 70 -245 0
-244 -70 -245 0
244 -70 245 0
-244 70 245 0
245 78 -246 0
-245 -78 -246 0
245 -78 246 0
-245 78 246 0
246 80 -247 0
-246 -80 -247 0
246 -80 247 0
-246 80 247 0
-247 0
28 29 -248 0
-28 -29 -248 0
28 -29 248 0
-28 29 248 0
248 30 -249 0
-248 -30 -249 0
248 -30 249 0
-248 30 249 0
249 71 -250 0
-249 -71 -250 0
249 -71 250 0
-249 71 250 0
250 79 -251 0
-250 -79 -251 0
250 -79 251 0
-250 79 251 0
251 81 -252 0
-251 -81 -252 0
251 -81 252 0
-251 81 252 0
-252 0
29 30 -253 0
-29 -30 -253 0
29 -30 253 0
-29 30 253 0
253 31 -254 0
-253 -31 -254 0
253 -31 254 0
-253 31 254 0
254 72 -255 0
-254 -72 -255 0
254 -72 255 0
-254 72 255 0
255 80 -256 0
-255 -80 -256 0
255 -80 256 0
-255 80 256 0
256 82 -257 0
-256 -82 -257 0
256 -82 257 0
-256 82 257 0
-257 0
30 31 -258 0
-30 -31 -258 0
30 -31 258 0
-30 31 258 0
258 32 -259 0
-258 -32 -259 0
258 -32 259 0
-258 32 259 0
259 73 -260 0
-259 -73 -260 0
259 -73 260 0
-259 73 260 0
260 81 -261 0
-260 -81 -261 0
260 -81 261 0
-260 81 261 0
261 83 -262 0
-261 -83 -262 0
261 -83 262 0
-261 83 262 0
-262 0
31 32 -263 0
-31 -32 -263 0
31 -32 263 0
-31 32 263 0
263 33 -264 0
-263 -33 -264 0
263 -33 264 0
-263 33 264 0
264 74 -265 0
-264 -74 -265 0
264 -74 265 0
-264 74 265 0
265 82 -266 0
-265 -82 -266 0
265 -82 266 0
-265 82 266 0
266 84 -267 0
-266 -84 -267 0
266 -84 267 0
-266 84 267 0
-267 0
32 33 -268 0
-32 -33 -268 0
32 -33 268 0
-32 33 268 0
268 34 -269 0
-268 -34 -269 0
268 -34 269 0
-268 34 269 0
269 75 -270 0
-269 -75 -270 0
269 -75 270 0
-269 75 270 0
270 83 -271 0
-270 -83 -271 0
270 -83 271 0
-270 83 271 0
271 85 -272 0
-271 -85 -272 0
271 -85 272 0
-271 85 272 0
-272 0
33 34 -273 0
-33 -34 -273 0
33 -34 273 0
-33 34 273 0
273 35 -274 0
-273 -35 -274 0
273 -35 274 0
-273 35 274 0
274 76 -275 0
-274 -76 -275 0
274 -76 275 0
-274 76 275 0
275 84 -276 0
-275 -84 -276 0
275 -84 276 0
-275 84 276 0
276 86 -277 0
-276 -86 -277 0
276 -86 277 0
-276 86 277 0
-277 0
34 35 -278 0
-34 -35 -278 0
34 -35 278 0
-34 35 278 0
278 36 -279 0
-278 -36 -279 0
278 -36 279 0
-278 36 279 0
279 77 -280 0
-279 -77 -280 0
279 -77 280 0
-279 77 280 0
280 85 -281 0
-280 -85 -281 0
280 -85 281 0
-280 85 281 0
281 87 -282 0
-281 -87 -282 0
281 -87 282 0
-281 87 282 0
-282 0
35 36 -283 0
-35 -36 -283 0
35 -36 283 0
-35 36 283 0
283 37 -284 0
-283 -37 -284 0
283 -37 284 0
-283 37 284 0
284 78 -285 0
-284 -78 -285 0
284 -78 285 0
-284 78 285 0
285 86 -286 0
-285 -86 -286 0
285 -86 286 0
-285 86 286 0
286 88 -287 0
-286 -88 -287 0
286 -88 287 0
-286 88 287 0
-287 0
36 37 -288 0
-36 -37 -288 0
36 -37 288 0
-36 37 288 0
288 38 -289 0
-288 -38 -289 0
288 -38 289 0
-288 38 289 0
289 79 -290 0
-289 -79 -290 0
289 -79 290 0
-289 79 290 0
290 87 -291 0
-290 -87 -291 0
290 -87 291 0
-290 87 291 0
291 89 -292 0
-291 -89 -292 0
291 -89 292 0
-291 89 292 0
-292 0
37 38 -293 0
-37 -38 -293 0
37 -38 293 0
-37 38 293 0
293 39 -294 0
-293 -39 -294 0
293 -39 294 0
-293 39 294 0
294 80 -295 0
-294 -80 -295 0
294 -80 295 0
-294 80 295 0
295 88 -296 0
-295 -88 -296 0
295 -88 296 0
-295 88 296 0
296 90 -297 0
-296 -90 -297 0
296 -90 297 0
-296 90 297 0
-297 0
38 39 -298 0
-38 -39 -298 0
38 -39 298 0
-38 39 298 0
298 40 -299 0
-298 -40 -299 0
298 -40 299 0
-298 40 299 0
299 81 -300 0
-299 -81 -300 0
299 -81 300 0
-299 81 300 0
300 89 -301 0
-300 -89 -301 0
300 -89 301 0
-300 89 301 0
301 91 -302 0
-301 -91 -302 0
301 -91 302 0
-301 91 302 0
-302 0
39 40 -303 0
-39 -40 -303 0
39 -40 303 0
-39 40 303 0
303 41 -304 0
-303 -41 -304 0
303 -41 304 0
-303 41 304 0
304 82 -305 0
-304 -82 -305 0
304 -82 305 0
-304 82 305 0
305 90 -306 0
-305 -90 -306 0
305 -90 306 0
-305 90 306 0
306 92 -307 0
-306 -92 -307 0
306 -92 307 0
-306 92 307 0
-307 0
40 41 -308 0
-40 -41 -308 0
40 -41 308 0
-40 41 308 0
308 42 -309 0
-308 -42 -309 0
308 -42 309 0
-308 42 309 0
309 83 -310 0
-309 -83 -310 0
309 -83 310 0
-309 83 310 0
310 91 -311 0
-310 -91 -311 0
310 -91 311 0
-310 91 311 0
311 93 -312 0
-311 -93 -312 0
311 -93 312 0
-311 93 312 0
-312 0
41 42 -313 0
-41 -42 -313 0
41 -42 313 0
-41 42 313 0
313 43 -314 0
-313 -43 -314 0
313 -43 314 0
-313 43 314 0
314 84 -315 0
-314 -84 -315 0
314 -84 315 0
-314 84 315 0
315 92 -316 0
-315 -92 -316 0
315 -92 316 0
-315 92 316 0
316 94 -317 0
-316 -94 -317 0
316 -94 317 0
-316 94 317 0
-317 0
42 43 -318 0
-42 -43 -318 0
42 -43 318 0
-42 43 318 0
318 44 -319 0
-318 -44 -319 0
318 -44 319 0
-318 44 319 0
319 85 -320 0
-319 -85 -320 0
319 -85 320 0
-319 85 320 0
320 93 -321 0
-320 -93 -321 0
320 -93 321 0
-320 93 321 0
321 95 -322 0
-321 -95 -322 0
321 -95 322 0
-321 95 322 0
-322 0
43 44 -323 0
-43 -44 -323 0
43 -44 323 0
-43 44 323 0
323 45 -324 0
-323 -45 -324 0
323 -45 324 0
-323 45 324 0
324 86 -325 0
-324 -86 -325 0
324 -86 325 0
-324 86 325 0
325 94 -326 0
-325 -94 -326 0
325 -94 326 0
-325 94 326 0
326 96 -327 0
-326 -96 -327 0
326 -96 327 0
-326 96 327 0
-327 0
44 45 -328 0
-44 -45 -328 0
44 -45 328 0
-44 45 328 0
328 46 -329 0
-328 -46 -329 0
328 -46 329 0
-328 46 329 0
329 87 -330 0
-329 -87 -330 0
329 -87 330 0
-329 87 330 0
330 95 -331 0
-330 -95 -331 0
330 -95 331 0
-330 95 331 0
331 97 -332 0
-331 -97 -332 0
331 -97 332 0
-331 97 332 0
-332 0
45 46 -333 0
-45 -46 -333 0
45 -46 333 0
-45 46 333 0
333 47 -334 0
-333 -47 -334 0
333 -47 334 0
-333 47 334 0
334 88 -335 0
-334 -88 -335 0
334 -88 335 0
-334 88 335 0
335 96 -336 0
-335 -96 -336 0
335 -96 336 0
-335 96 336 0
336 98 -337 0
-336 -98 -337 0
336 -98 337 0
-336 98 337 0
-337 0
46 47 -338 0
-46 -47 -338 0
46 -47 338 0
-46 47 338 0
338 48 -339 0
-338 -48 -339 0
338 -48 339 0
-338 48 339 0
339 89 -340 0
-339 -89 -340 0
339 -89 340 0
-339 89 340 0
340 97 -341 0
-340 -97 -341 0
340 -97 341 0
-340 97 341 0
341 99 -342 0
-341 -99 -342 0
341 -99 342 0
-341 99 342 0
-342 0
47 48 -343 0
-47 -48 -343 0
47 -48 343 0
-47 48 343 0
343 49 -344 0
-343 -49 -344 0
343 -49 344 0
-343 49 344 0
344 90 -345 0
-344 -90 -345 0
344 -90 345 0
-344 90 345 0
345 98 -346 0
-345 -98 -346 0
345 -98 346 0
-345 98 346 0
346 100 -347 0
-346 -100 -347 0
346 -100 347 0
-346 100 347 0
-347 0
48 49 -348 0
-48 -49 -348 0
48 -49 348 0
-48 49 348 0
348 50 -349 0
-348 -50 -349 0
348 -50 349 0
-348 50 349 0
349 91 -350 0
-349 -91 -350 0
349 -91 350 0
-349 91 350 0
350 99 -351 0
-350 -99 -351 0
350 -99 351 0
-350 99 351 0
351 101 -352 0
-351 -101 -352 0
351 -101 352 0
-351 101 352 0
-352 0
49 50 -353 0
-49 -50 -353 0
49 -50 353 0
-49 50 353 0
353 51 -354 0
-353 -51 -354 0
353 -51 354 0
-353 51 354 0
354 92 -355 0
-354 -92 -355 0
354 -92 355 0
-354 92 355 0
355 100 -356 0
-355 -100 -356 0
355 -100 356 0
-355 100 356 0
356 102 -357 0
-356 -102 -357 0
356 -102 357 0
-356 102 357 0
-357 0
1 54 -358 0
-1 -54 -358 0
1 -54 358 0
-1 54 358 0
358 55 -359 0
-358 -55 -359 0
358 -55 359 0
-358 55 359 0
359 57 -360 0
-359 -57 -360 0
359 -57 360 0
-359 57 360 0
360 58 -361 0
-360 -58 -361 0
360 -58 361 0
-360 58 361 0
361 60 -362 0
-361 -60 -362 0
361 -60 362 0
-361 60 362 0
362 61 -363 0
-362 -61 -363 0
362 -61 363 0
-362 61 363 0
363 63 -364 0
-363 -63 -364 0
363 -63 364 0
-363 63 364 0
364 64 -365 0
-364 -64 -365 0
364 -64 365 0
-364 64 365 0
365 66 -366 0
-365 -66 -366 0
365 -66 366 0
-365 66 366 0
366 67 -367 0
-366 -67 -367 0
366 -67 367 0
-366 67 367 0
367 69 -368 0
-367 -69 -368 0
367 -69 368 0
-367 69 368 0
368 70 -369 0
-368 -70 -369 0
368 -70 369 0
-368 70 369 0
369 72 -370 0
-369 -72 -370 0
369 -72 370 0
-369 72 370 0
370 73 -371 0
-370 -73 -371 0
370 -73 371 0
-370 73 371 0
371 75 -372 0
-371 -75 -372 0
371 -75 372 0
-371 75 372 0
372 76 -373 0
-372 -76 -373 0
372 -76 373 0
-372 76 373 0
373 78 -374 0
-373 -78 -374 0
373 -78 374 0
-373 78 374 0
374 79 -375 0
-374 -79 -375 0
374 -79 375 0
-374 79 375 0
375 81 -376 0
-375 -81 -376 0
375 -81 376 0
-375 81 376 0
376 82 -377 0
-376 -82 -377 0
376 -82 377 0
-376 82 377 0
377 84 -378 0
-377 -84 -378 0
377 -84 378 0
-377 84 378 0
378 85 -379 0
-378 -85 -379 0
378 -85 379 0
-378 85 379 0
379 87 -380 0
-379 -87 -380 0
379 -87 380 0
-379 87 380 0
380 88 -381 0
-380 -88 -381 0
380 -88 381 0
-380 88 381 0
381 90 -382 0
-381 -90 -382 0
381 -90 382 0
-381 90 382 0
382 91 -383 0
-382 -91 -383 0
382 -91 383 0
-382 91 383 0
383 93 -384 0
-383 -93 -384 0
383 -93 384 0
-383 93 384 0
384 94 -385 0
-384 -94 -385 0
384 -94 385 0
-384 94 385 0
385 95 -386 0
-385 -95 -386 0
385 -95 386 0
-385 95 386 0
386 97 -387 0
-386 -97 -387 0
386 -97 387 0
-386 97 387 0
387 98 -388 0
-387 -98 -388 0
387 -98 388 0
-387 98 388 0
388 100 -389 0
-388 -100 -389 0
388 -100 389 0
-388 100 389 0
389 101 -390 0
-389 -101 -390 0
389 -101 390 0
-389 101 390 0
2 55 -391 0
-2 -55 -391 0
2 -55 391 0
-2 55 391 0
391 56 -392 0
-391 -56 -392 0
391 -56 392 0
-391 56 392 0
392 58 -393 0
-392 -58 -393 0
392 -58 393 0
-392 58 393 0
393 59 -394 0
-393 -59 -394 0
393 -59 394 0
-393 59 394 0
394 61 -395 0
-394 -61 -395 0
394 -61 395 0
-394 61 395 0
395 62 -396 0
-395 -62 -396 0
395 -62 396 0
-395 62 396 0
396 64 -397 0
-396 -64 -397 0
396 -64 397 0
-396 64 397 0
397 65 -398 0
-397 -65 -398 0
397 -65 398 0
-397 65 398 0
398 67 -399 0
-398 -67 -399 0
398 -67 399 0
-398 67 399 0
399 68 -400 0
-399 -68 -400 0
399 -68 400 0
-399 68 400 0
400 70 -401 0
-400 -70 -401 0
400 -70 401 0
-400 70 401 0
401 71 -402 0
-401 -71 -402 0
401 -71 402 0
-401 71 402 0
402 73 -403 0
-402 -73 -403 0
402 -73 403 0
-402 73 403 0
403 74 -404 0
-403 -74 -404 0
403 -74 404 0
-403 74 404 0
404 76 -405 0
-404 -76 -405 0
404 -76 405 0
-404 76 405 0
405 77 -406 0
-405 -77 -406 0
405 -77 406 0
-405 77 406 0
406 79 -407 0
-406 -79 -407 0
406 -79 407 0
-406 79 407 0
407 80 -408 0
-407 -80 -408 0
407 -80 408 0
-407 80 408 0
408 82 -409 0
-408 -82 -409 0
408 -82 409 0
-408 82 409 0
409 83 -410 0
-409 -83 -410 0
409 -83 410 0
-409 83 410 0
410 85 -411 0
-410 -85 -411 0
410 -85 411 0
-410 85 411 0
411 86 -412 0
-411 -86 -412 0
411 -86 412 0
-411 86 412 0
412 88 -413 0
-412 -88 -413 0
412 -88 413 0
-412 88 413 0
413 89 -414 0
-413 -89 -414 0
413 -89 414 0
-413 89 414 0
414 91 -415 0
-414 -91 -415 0
414 -91 415 0
-414 91 415 0
415 92 -416 0
-415 -92 -416 0
415 -92 416 0
-415 92 416 0
416 94 -417 0
-416 -94 -417 0
416 -94 417 0
-416 94 417 0
417 95 -418 0
-417 -95 -418 0
417 -95 418 0
-417 95 418 0
418 96 -419 0
-418 -96 -419 0
418 -96 419 0
-418 96 419 0
419 98 -420 0
-419 -98 -420 0
419 -98 420 0
-419 98 420 0
420 99 -421 0
-420 -99 -421 0
420 -99 421 0
-420 99 421 0
421 101 -422 0
-421 -101 -422 0
421 -101 422 0
-421 101 422 0
422 102 -423 0
-422 -102 -423 0
422 -102 423 0
-422 102 423 0
3 54 -424 0
-3 -54 -424 0
3 -54 424 0
-3 54 424 0
424 55 -425 0
-424 -55 -425 0
424 -55 425 0
-424 55 425 0
425 56 -426 0
-425 -56 -426 0
425 -56 426 0
-425 56 426 0
426 58 -427 0
-426 -58 -427 0
426 -58 427 0
-426 58 427 0
427 59 -428 0
-427 -59 -428 0
427 -59 428 0
-427 59 428 0
428 61 -429 0
-428 -61 -429 0
428 -61 429 0
-428 61 429 0
429 62 -430 0
-429 -62 -430 0
429 -62 430 0
-429 62 430 0
430 64 -431 0
-430 -64 -431 0
430 -64 431 0
-430 64 431 0
431 65 -432 0
-431 -65 -432 0
431 -65 432 0
-431 65 432 0
432 67 -433 0
-432 -67 -433 0
432 -67 433 0
-432 67 433 0
433 68 -434 0
-433 -68 -434 0
433 -68 434 0
-433 68 434 0
434 70 -435 0
-434 -70 -435 0
434 -70 435 0
-434 70 435 0
435 71 -436 0
-435 -71 -436 0
435 -71 436 0
-435 71 436 0
436 73 -437 0
-436 -73 -437 0
436 -73 437 0
-436 73 437 0
437 74 -438 0
-437 -74 -438 0
437 -74 438 0
-437 74 438 0
438 76 -439 0
-438 -76 -439 0
438 -76 439 0
-438 76 439 0
439 77 -440 0
-439 -77 -440 0
439 -77 440 0
-439 77 440 0
440 79 -441 0
-440 -79 -441 0
440 -79 441 0
-440 79 441 0
441 80 -442 0
-441 -80 -442 0
441 -80 442 0
-441 80 442 0
442 82 -443 0
-442 -82 -443 0
442 -82 443 0
-442 82 443 0
443 83 -444 0
-443 -83 -444 0
443 -83 444 0
-443 83 444 0
444 85 -445 0
-444 -85 -445 0
444 -85 445 0
-444 85 445 0
445 86 -446 0
-445 -86 -446 0
445 -86 446 0
-445 86 446 0
446 88 -447 0
-446 -88 -447 0
446 -88 447 0
-446 88 447 0
447 89 -448 0
-447 -89 -448 0
447 -89 448 0
-447 89 448 0
448 91 -449 0
-448 -91 -449 0
448 -91 449 0
-448 91 449 0
449 92 -450 0
-449 -92 -450 0
449 -92 450 0
-449 92 450 0
450 94 -451 0
-450 -94 -451 0
450 -94 451 0
-450 94 451 0
451 95 -452 0
-451 -95 -452 0
451 -95 452 0
-451 95 452 0
4 55 -453 0
-4 -55 -453 0
4 -55 453 0
-4 55 453 0
453 56 -454 0
-453 -56 -454 0
453 -56 454 0
-453 56 454 0
454 57 -455 0
-454 -57 -455 0
454 -57 455 0
-454 57 455 0
455 59 -456 0
-455 -59 -456 0
455 -59 456 0
-455 59 456 0
456 60 -457 0
-456 -60 -457 0
456 -60 457 0
-456 60 457 0
457 62 -458 0
-457 -62 -458 0
457 -62 458 0
-457 62 458 0
458 63 -459 0
-458 -63 -459 0
458 -63 459 0
-458 63 459 0
459 65 -460 0
-459 -65 -460 0
459 -65 460 0
-459 65 460 0
460 66 -461 0
-460 -66 -461 0
460 -66 461 0
-460 66 461 0
461 68 -462 0
-461 -68 -462 0
461 -68 462 0
-461 68 462 0
462 69 -463 0
-462 -69 -463 0
462 -69 463 0
-462 69 463 0
463 71 -464 0
-463 -71 -464 0
463 -71 464 0
-463 71 464 0
464 72 -465 0
-464 -72 -465 0
464 -72 465 0
-464 72 465 0
465 74 -466 0
-465 -74 -466 0
465 -74 466 0
-465 74 466 0
466 75 -467 0
-466 -75 -467 0
466 -75 467 0
-466 75 467 0
467 77 -468 0
-467 -77 -468 0
467 -77 468 0
-467 77 468 0
468 78 -469 0
-468 -78 -469 0
468 -78 469 0
-468 78 469 0
469 80 -470 0
-469 -80 -470 0
469 -80 470 0
-469 80 470 0
470 81 -471 0
-470 -81 -471 0
470 -81 471 0
-470 81 471 0
471 83 -472 0
-471 -83 -472 0
471 -83 472 0
-471 83 472 0
472 84 -473 0
-472 -84 -473 0
472 -84 473 0
-472 84 473 0
473 86 -474 0
-473 -86 -474 0
473 -86 474 0
-473 86 474 0
474 87 -475 0
-474 -87 -475 0
474 -87 475 0
-474 87 475 0
475 89 -476 0
-475 -89 -476 0
475 -89 476 0
-475 89 476 0
476 90 -477 0
-476 -90 -477 0
476 -90 477 0
-476 90 477 0
477 92 -478 0
-477 -92 -478 0
477 -92 478 0
-477 92 478 0
478 93 -479 0
-478 -93 -479 0
478 -93 479 0
-478 93 479 0
479 95 -480 0
-479 -95 -480 0
479 -95 480 0
-479 95 480 0
480 96 -481 0
-480 -96 -481 0
480 -96 481 0
-480 96 481 0
390 423 452 481 0
1 0
-493 485 494 0
-489 485 494 0
-489 -493 494 0
-494 482 0
-490 482 0
-494 -490 483 0
-491 483 0
-494 -491 484 0
-492 484 0
-494 -492 0
-486 482 0
-494 -486 483 0
-487 483 0
-494 -487 484 0
-488 484 0
-494 -488 0
-486 -490 483 0
-494 -486 -490 484 0
-486 -491 484 0
-494 -486 -491 0
-486 -492 0
-494 -486 -492 0
-487 -490 484 0
-494 -487 -490 0
-487 -491 0
-494 -487 -491 0
-487 -492 0
-494 -487 -492 0
-488 -490 0
-494 -488 -490 0
-488 -491 0
-494 -488 -491 0
-488 -492 0
-494 -488 -492 0
-502 493 503 0
-498 493 503 0
-498 -502 503 0
-503 490 0
-499 490 0
-503 -499 491 0
-500 491 0
-503 -500 492 0
-501 492 0
-503 -501 0
-495 490 0
-503 -495 491 0
-496 491 0
-503 -496 492 0
-497 492 0
-503 -497 0
-495 -499 491 0
-503 -495 -499 492 0
-495 -500 492 0
-503 -495 -500 0
-495 -501 0
-503 -495 -501 0
-496 -499 492 0
-503 -496 -499 0
-496 -500 0
-503 -496 -500 0
-496 -501 0
-503 -496 -501 0
-497 -499 0
-503 -497 -499 0
-497 -500 0
-503 -497 -500 0
-497 -501 0
-503 -497 -501 0
-511 502 512 0
-507 502 512 0
-507 -511 512 0
-512 499 0
-508 499 0
-512 -508 500 0
-509 500 0
-512 -509 501 0
-510 501 0
-512 -510 0
-504 499 0
-512 -504 500 0
-505 500 0
-512 -505 501 0
-506 501 0
-512 -506 0
-504 -508 500 0
-512 -504 -508 501 0
-504 -509 501 0
-512 -504 -509 0
-504 -510 0
-512 -504 -510 0
-505 -508 501 0
-512 -505 -508 0
-505 -509 0
-512 -505 -509 0
-505 -510 0
-512 -505 -510 0
-506 -508 0
-512 -506 -508 0
-506 -509 0
-512 -506 -509 0
-506 -510 0
-512 -506 -510 0
-520 511 521 0
-516 511 521 0
-516 -520 521 0
-521 508 0
-517 508 0
-521 -517 509 0
-518 509 0
-521 -518 510 0
-519 510 0
-521 -519 0
-513 508 0
-521 -513 509 0
-514 509 0
-521 -514 510 0
-515 510 0
-521 -515 0
-513 -517 509 0
-521 -513 -517 510 0
-513 -518 510 0
-521 -513 -518 0
-513 -519 0
-521 -513 -519 0
-514 -517 510 0
-521 -514 -517 0
-514 -518 0
-521 -514 -518 0
-514 -519 0
-521 -514 -519 0
-515 -517 0
-521 -515 -517 0
-515 -518 0
-521 -515 -518 0
-515 -519 0
-521 -515 -519 0
-525 520 526 0
-523 520 526 0
-523 -525 526 0
-526 517 0
-524 517 0
-526 -524 518 0
-522 517 0
-526 -522 518 0
-522 -524 518 0
-526 -522 -524 519 0
-102 525 529 0
-528 525 529 0
-528 -102 529 0
-529 524 0
-527 524 0
-529 -527 0
-101 528 530 0
-100 528 530 0
-100 -101 530 0
-530 527 0
-99 523 533 0
-532 523 533 0
-532 -99 533 0
-533 522 0
-531 522 0
-533 -531 0
-98 532 534 0
-97 532 534 0
-97 -98 534 0
-534 531 0
-538 516 539 0
-536 516 539 0
-536 -538 539 0
-539 513 0
-537 513 0
-539 -537 514 0
-535 513 0
-539 -535 514 0
-535 -537 514 0
-539 -535 -537 515 0
-96 538 542 0
-541 538 542 0
-541 -96 542 0
-542 537 0
-540 537 0
-542 -540 0
-95 541 543 0
-94 541 543 0
-94 -95 543 0
-543 540 0
-93 536 546 0
-545 536 546 0
-545 -93 546 0
-546 535 0
-544 535 0
-546 -544 0
-92 545 547 0
-91 545 547 0
-91 -92 547 0
-547 544 0
-555 507 556 0
-551 507 556 0
-551 -555 556 0
-556 504 0
-552 504 0
-556 -552 505 0
-553 505 0
-556 -553 506 0
-554 506 0
-556 -554 0
-548 504 0
-556 -548 505 0
-549 505 0
-556 -549 506 0
-550 506 0
-556 -550 0
-548 -552 505 0
-556 -548 -552 506 0
-548 -553 506 0
-556 -548 -553 0
-548 -554 0
-556 -548 -554 0
-549 -552 506 0
-556 -549 -552 0
-549 -553 0
-556 -549 -553 0
-549 -554 0
-556 -549 -554 0
-550 -552 0
-556 -550 -552 0
-550 -553 0
-556 -550 -553 0
-550 -554 0
-556 -550 -554 0
-560 555 561 0
-558 555 561 0
-558 -560 561 0
-561 552 0
-559 552 0
-561 -559 553 0
-557 552 0
-561 -557 553 0
-557 -559 553 0
-561 -557 -559 554 0
-90 560 564 0
-563 560 564 0
-563 -90 564 0
-564 559 0
-562 559 0
-564 -562 0
-89 563 565 0
-88 563 565 0
-88 -89 565 0
-565 562 0
-87 558 568 0
-567 558 568 0
-567 -87 568 0
-568 557 0
-566 557 0
-568 -566 0
-86 567 569 0
-85 567 569 0
-85 -86 569 0
-569 566 0
-574 551 575 0
-572 551 575 0
-572 -574 575 0
-575 548 0
-573 548 0
-575 -573 549 0
-570 548 0
-575 -570 549 0
-571 549 0
-575 -571 550 0
-570 -573 549 0
-575 -570 -573 550 0
-571 -573 550 0
-575 -571 -573 0
-84 574 578 0
-577 574 578 0
-577 -84 578 0
-578 573 0
-576 573 0
-578 -576 0
-83 577 579 0
-82 577 579 0
-82 -83 579 0
-579 576 0
-583 572 584 0
-581 572 584 0
-581 -583 584 0
-584 570 0
-582 570 0
-584 -582 571 0
-580 570 0
-584 -580 571 0
-580 -582 571 0
-584 -580 -582 0
-81 583 585 0
-80 583 585 0
-80 -81 585 0
-585 582 0
-79 581 586 0
-78 581 586 0
-78 -79 586 0
-586 580 0
-594 498 595 0
-590 498 595 0
-590 -594 595 0
-595 495 0
-591 495 0
-595 -591 496 0
-592 496 0
-595 -592 497 0
-593 497 0
-595 -593 0
-587 495 0
-595 -587 496 0
-588 496 0
-595 -588 497 0
-589 497 0
-595 -589 0
-587 -591 496 0
-595 -587 -591 497 0
-587 -592 497 0
-595 -587 -592 0
-587 -593 0
-595 -587 -593 0
-588 -591 497 0
-595 -588 -591 0
-588 -592 0
-595 -588 -592 0
-588 -593 0
-595 -588 -593 0
-589 -591 0
-595 -589 -591 0
-589 -592 0
-595 -589 -592 0
-589 -593 0
-595 -589 -593 0
-603 594 604 0
-599 594 604 0
-599 -603 604 0
-604 591 0
-600 591 0
-604 -600 592 0
-601 592 0
-604 -601 593 0
-602 593 0
-604 -602 0
-596 591 0
-604 -596 592 0
-597 592 0
-604 -597 593 0
-598 593 0
-604 -598 0
-596 -600 592 0
-604 -596 -600 593 0
-596 -601 593 0
-604 -596 -601 0
-596 -602 0
-604 -596 -602 0
-597 -600 593 0
-604 -597 -600 0
-597 -601 0
-604 -597 -601 0
-597 -602 0
-604 -597 -602 0
-598 -600 0
-604 -598 -600 0
-598 -601 0
-604 -598 -601 0
-598 -602 0
-604 -598 -602 0
-608 603 609 0
-606 603 609 0
-606 -608 609 0
-609 600 0
-607 600 0
-609 -607 601 0
-605 600 0
-609 -605 601 0
-605 -607 601 0
-609 -605 -607 602 0
-77 608 612 0
-611 608 612 0
-611 -77 612 0
-612 607 0
-610 607 0
-612 -610 0
-76 611 613 0
-75 611 613 0
-75 -76 613 0
-613 610 0
-74 606 616 0
-615 606 616 0
-615 -74 616 0
-616 605 0
-614 605 0
-616 -614 0
-73 615 617 0
-72 615 617 0
-72 -73 617 0
-617 614 0
-622 599 623 0
-620 599 623 0
-620 -622 623 0
-623 596 0
-621 596 0
-623 -621 597 0
-618 596 0
-623 -618 597 0
-619 597 0
-623 -619 598 0
-618 -621 597 0
-623 -618 -621 598 0
-619 -621 598 0
-623 -619 -621 0
-71 622 626 0
-625 622 626 0
-625 -71 626 0
-626 621 0
-624 621 0
-626 -624 0
-70 625 627 0
-69 625 627 0
-69 -70 627 0
-627 624 0
-631 620 632 0
-629 620 632 0
-629 -631 632 0
-632 618 0
-630 618 0
-632 -630 619 0
-628 618 0
-632 -628 619 0
-628 -630 619 0
-632 -628 -630 0
-68 631 633 0
-67 631 633 0
-67 -68 633 0
-633 630 0
-66 629 634 0
-65 629 634 0
-65 -66 634 0
-634 628 0
-642 590 643 0
-638 590 643 0
-638 -642 643 0
-643 587 0
-639 587 0
-643 -639 588 0
-640 588 0
-643 -640 589 0
-641 589 0
-643 -641 0
-635 587 0
-643 -635 588 0
-636 588 0
-643 -636 589 0
-637 589 0
-643 -637 0
-635 -639 588 0
-643 -635 -639 589 0
-635 -640 589 0
-643 -635 -640 0
-635 -641 0
-643 -635 -641 0
-636 -639 589 0
-643 -636 -639 0
-636 -640 0
-643 -636 -640 0
-636 -641 0
-643 -636 -641 0
-637 -639 0
-643 -637 -639 0
-637 -640 0
-643 -637 -640 0
-637 -641 0
-643 -637 -641 0
-647 642 648 0
-645 642 648 0
-645 -647 648 0
-648 639 0
-646 639 0
-648 -646 640 0
-644 639 0
-648 -644 640 0
-644 -646 640 0
-648 -644 -646 641 0
-64 647 651 0
-650 647 651 0
-650 -64 651 0
-651 646 0
-649 646 0
-651 -649 0
-63 650 652 0
-62 650 652 0
-62 -63 652 0
-652 649 0
-61 645 655 0
-654 645 655 0
-654 -61 655 0
-655 644 0
-653 644 0
-655 -653 0
-60 654 656 0
-59 654 656 0
-59 -60 656 0
-656 653 0
-661 638 662 0
-659 638 662 0
-659 -661 662 0
-662 635 0
-660 635 0
-662 -660 636 0
-657 635 0
-662 -657 636 0
-658 636 0
-662 -658 637 0
-657 -660 636 0
-662 -657 -660 637 0
-658 -660 637 0
-662 -658 -660 0
-58 661 665 0
-664 661 665 0
-664 -58 665 0
-665 660 0
-663 660 0
-665 -663 0
-57 664 666 0
-56 664 666 0
-56 -57 666 0
-666 663 0
-670 659 671 0
-668 659 671 0
-668 -670 671 0
-671 657 0
-669 657 0
-671 -669 658 0
-667 657 0
-671 -667 658 0
-667 -669 658 0
-671 -667 -669 0
-55 670 672 0
-54 670 672 0
-54 -55 672 0
-672 669 0
-53 668 673 0
-52 668 673 0
-52 -53 673 0
-673 667 0
-681 489 682 0
-677 489 682 0
-677 -681 682 0
-682 486 0
-678 486 0
-682 -678 487 0
-679 487 0
-682 -679 488 0
-680 488 0
-682 -680 0
-674 486 0
-682 -674 487 0
-675 487 0
-682 -675 488 0
-676 488 0
-682 -676 0
-674 -678 487 0
-682 -674 -678 488 0
-674 -679 488 0
-682 -674 -679 0
-674 -680 0
-682 -674 -680 0
-675 -678 488 0
-682 -675 -678 0
-675 -679 0
-682 -675 -679 0
-675 -680 0
-682 -675 -680 0
-676 -678 0
-682 -676 -678 0
-676 -679 0
-682 -676 -679 0
-676 -680 0
-682 -676 -680 0
-690 681 691 0
-686 681 691 0
-686 -690 691 0
-691 678 0
-687 678 0
-691 -687 679 0
-688 679 0
-691 -688 680 0
-689 680 0
-691 -689 0
-683 678 0
-691 -683 679 0
-684 679 0
-691 -684 680 0
-685 680 0
-691 -685 0
-683 -687 679 0
-691 -683 -687 680 0
-683 -688 680 0
-691 -683 -688 0
-683 -689 0
-691 -683 -689 0
-684 -687 680 0
-691 -684 -687 0
-684 -688 0
-691 -684 -688 0
-684 -689 0
-691 -684 -689 0
-685 -687 0
-691 -685 -687 0
-685 -688 0
-691 -685 -688 0
-685 -689 0
-691 -685 -689 0
-699 690 700 0
-695 690 700 0
-695 -699 700 0
-700 687 0
-696 687 0
-700 -696 688 0
-697 688 0
-700 -697 689 0
-698 689 0
-700 -698 0
-692 687 0
-700 -692 688 0
-693 688 0
-700 -693 689 0
-694 689 0
-700 -694 0
-692 -696 688 0
-700 -692 -696 689 0
-692 -697 689 0
-700 -692 -697 0
-692 -698 0
-700 -692 -698 0
-693 -696 689 0
-700 -693 -696 0
-693 -697 0
-700 -693 -697 0
-693 -698 0
-700 -693 -698 0
-694 -696 0
-700 -694 -696 0
-694 -697 0
-700 -694 -697 0
-694 -698 0
-700 -694 -698 0
-704 699 705 0
-702 699 705 0
-702 -704 705 0
-705 696 0
-703 696 0
-705 -703 697 0
-701 696 0
-705 -701 697 0
-701 -703 697 0
-705 -701 -703 698 0
-51 704 708 0
-707 704 708 0
-707 -51 708 0
-708 703 0
-706 703 0
-708 -706 0
-50 707 709 0
-49 707 709 0
-49 -50 709 0
-709 706 0
-48 702 712 0
-711 702 712 0
-711 -48 712 0
-712 701 0
-710 701 0
-712 -710 0
-47 711 713 0
-46 711 713 0
-46 -47 713 0
-713 710 0
-717 695 718 0
-715 695 718 0
-715 -717 718 0
-718 692 0
-716 692 0
-718 -716 693 0
-714 692 0
-718 -714 693 0
-714 -716 693 0
-718 -714 -716 694 0
-45 717 721 0
-720 717 721 0
-720 -45 721 0
-721 716 0
-719 716 0
-721 -719 0
-44 720 722 0
-43 720 722 0
-43 -44 722 0
-722 719 0
-42 715 725 0
-724 715 725 0
-724 -42 725 0
-725 714 0
-723 714 0
-725 -723 0
-41 724 726 0
-40 724 726 0
-40 -41 726 0
-726 723 0
-734 686 735 0
-730 686 735 0
-730 -734 735 0
-735 683 0
-731 683 0
-735 -731 684 0
-732 684 0
-735 -732 685 0
-733 685 0
-735 -733 0
-727 683 0
-735 -727 684 0
-728 684 0
-735 -728 685 0
-729 685 0
-735 -729 0
-727 -731 684 0
-735 -727 -731 685 0
-727 -732 685 0
-735 -727 -732 0
-727 -733 0
-735 -727 -733 0
-728 -731 685 0
-735 -728 -731 0
-728 -732 0
-735 -728 -732 0
-728 -733 0
-735 -728 -733 0
-729 -731 0
-735 -729 -731 0
-729 -732 0
-735 -729 -732 0
-729 -733 0
-735 -729 -733 0
-739 734 740 0
-737 734 740 0
-737 -739 740 0
-740 731 0
-738 731 0
-740 -738 732 0
-736 731 0
-740 -736 732 0
-736 -738 732 0
-740 -736 -738 733 0
-39 739 743 0
-742 739 743 0
-742 -39 743 0
-743 738 0
-741 738 0
-743 -741 0
-38 742 744 0
-37 742 744 0
-37 -38 744 0
-744 741 0
-36 737 747 0
-746 737 747 0
-746 -36 747 0
-747 736 0
-745 736 0
-747 -745 0
-35 746 748 0
-34 746 748 0
-34 -35 748 0
-748 745 0
-753 730 754 0
-751 730 754 0
-751 -753 754 0
-754 727 0
-752 727 0
-754 -752 728 0
-749 727 0
-754 -749 728 0
-750 728 0
-754 -750 729 0
-749 -752 728 0
-754 -749 -752 729 0
-750 -752 729 0
-754 -750 -752 0
-33 753 757 0
-756 753 757 0
-756 -33 757 0
-757 752 0
-755 752 0
-757 -755 0
-32 756 758 0
-31 756 758 0
-31 -32 758 0
-758 755 0
-762 751 763 0
-760 751 763 0
-760 -762 763 0
-763 749 0
-761 749 0
-763 -761 750 0
-759 749 0
-763 -759 750 0
-759 -761 750 0
-763 -759 -761 0
-30 762 764 0
-29 762 764 0
-29 -30 764 0
-764 761 0
-28 760 765 0
-27 760 765 0
-27 -28 765 0
-765 759 0
-773 677 774 0
-769 677 774 0
-769 -773 774 0
-774 674 0
-770 674 0
-774 -770 675 0
-771 675 0
-774 -771 676 0
-772 676 0
-774 -772 0
-766 674 0
-774 -766 675 0
-767 675 0
-774 -767 676 0
-768 676 0
-774 -768 0
-766 -770 675 0
-774 -766 -770 676 0
-766 -771 676 0
-774 -766 -771 0
-766 -772 0
-774 -766 -772 0
-767 -770 676 0
-774 -767 -770 0
-767 -771 0
-774 -767 -771 0
-767 -772 0
-774 -767 -772 0
-768 -770 0
-774 -768 -770 0
-768 -771 0
-774 -768 -771 0
-768 -772 0
-774 -768 -772 0
-782 773 783 0
-778 773 783 0
-778 -782 783 0
-783 770 0
-779 770 0
-783 -779 771 0
-780 771 0
-783 -780 772 0
-781 772 0
-783 -781 0
-775 770 0
-783 -775 771 0
-776 771 0
-783 -776 772 0
-777 772 0
-783 -777 0
-775 -779 771 0
-783 -775 -779 772 0
-775 -780 772 0
-783 -775 -780 0
-775 -781 0
-783 -775 -781 0
-776 -779 772 0
-783 -776 -779 0
-776 -780 0
-783 -776 -780 0
-776 -781 0
-783 -776 -781 0
-777 -779 0
-783 -777 -779 0
-777 -780 0
-783 -777 -780 0
-777 -781 0
-783 -777 -781 0
-787 782 788 0
-785 782 788 0
-785 -787 788 0
-788 779 0
-786 779 0
-788 -786 780 0
-784 779 0
-788 -784 780 0
-784 -786 780 0
-788 -784 -786 781 0
-26 787 791 0
-790 787 791 0
-790 -26 791 0
-791 786 0
-789 786 0
-791 -789 0
-25 790 792 0
-24 790 792 0
-24 -25 792 0
-792 789 0
-23 785 795 0
-794 785 795 0
-794 -23 795 0
-795 784 0
-793 784 0
-795 -793 0
-22 794 796 0
-21 794 796 0
-21 -22 796 0
-796 793 0
-801 778 802 0
-799 778 802 0
-799 -801 802 0
-802 775 0
-800 775 0
-802 -800 776 0
-797 775 0
-802 -797 776 0
-798 776 0
-802 -798 777 0
-797 -800 776 0
-802 -797 -800 777 0
-798 -800 777 0
-802 -798 -800 0
-20 801 805 0
-804 801 805 0
-804 -20 805 0
-805 800 0
-803 800 0
-805 -803 0
-19 804 806 0
-18 804 806 0
-18 -19 806 0
-806 803 0
-810 799 811 0
-808 799 811 0
-808 -810 811 0
-811 797 0
-809 797 0
-811 -809 798 0
-807 797 0
-811 -807 798 0
-807 -809 798 0
-811 -807 -809 0
-17 810 812 0
-16 810 812 0
-16 -17 812 0
-812 809 0
-15 808 813 0
-14 808 813 0
-14 -15 813 0
-813 807 0
-821 769 822 0
-817 769 822 0
-817 -821 822 0
-822 766 0
-818 766 0
-822 -818 767 0
-819 767 0
-822 -819 768 0
-820 768 0
-822 -820 0
-814 766 0
-822 -814 767 0
-815 767 0
-822 -815 768 0
-816 768 0
-822 -816 0
-814 -818 767 0
-822 -814 -818 768 0
-814 -819 768 0
-822 -814 -819 0
-814 -820 0
-822 -814 -820 0
-815 -818 768 0
-822 -815 -818 0
-815 -819 0
-822 -815 -819 0
-815 -820 0
-822 -815 -820 0
-816 -818 0
-822 -816 -818 0
-816 -819 0
-822 -816 -819 0
-816 -820 0
-822 -816 -820 0
-826 821 827 0
-824 821 827 0
-824 -826 827 0
-827 818 0
-825 818 0
-827 -825 819 0
-823 818 0
-827 -823 819 0
-823 -825 819 0
-827 -823 -825 820 0
-13 826 830 0
-829 826 830 0
-829 -13 830 0
-830 825 0
-828 825 0
-830 -828 0
-12 829 831 0
-11 829 831 0
-11 -12 831 0
-831 828 0
-10 824 834 0
-833 824 834 0
-833 -10 834 0
-834 823 0
-832 823 0
-834 -832 0
-9 833 835 0
-8 833 835 0
-8 -9 835 0
-835 832 0
-840 817 841 0
-838 817 841 0
-838 -840 841 0
-841 814 0
-839 814 0
-841 -839 815 0
-836 814 0
-841 -836 815 0
-837 815 0
-841 -837 816 0
-836 -839 815 0
-841 -836 -839 816 0
-837 -839 816 0
-841 -837 -839 0
-7 840 844 0
-843 840 844 0
-843 -7 844 0
-844 839 0
-842 839 0
-844 -842 0
-6 843 845 0
-5 843 845 0
-5 -6 845 0
-845 842 0
-849 838 850 0
-847 838 850 0
-847 -849 850 0
-850 836 0
-848 836 0
-850 -848 837 0
-846 836 0
-850 -846 837 0
-846 -848 837 0
-850 -846 -848 0
-4 849 851 0
-3 849 851 0
-3 -4 851 0
-851 848 0
-2 847 852 0
-1 847 852 0
-1 -2 852 0
-852 846 0
