p cnf 3806 12663
1 201 -409 0
-1 -201 -409 0
1 -201 409 0
-1 201 409 0
409 202 -410 0
-409 -202 -410 0
409 -202 410 0
-409 202 410 0
410 204 -411 0
-410 -204 -411 0
410 -204 411 0
-410 204 411 0
411 205 -412 0
-411 -205 -412 0
411 -205 412 0
-411 205 412 0
412 379 -413 0
-412 -379 -413 0
412 -379 413 0
-412 379 413 0
413 391 -414 0
-413 -391 -414 0
413 -391 414 0
-413 391 414 0
414 397 -415 0
-414 -397 -415 0
414 -397 415 0
-414 397 415 0
-415 0
1 2 -416 0
-1 -2 -416 0
1 -2 416 0
-1 2 416 0
416 202 -417 0
-416 -202 -417 0
416 -202 417 0
-416 202 417 0
417 203 -418 0
-417 -203 -418 0
417 -203 418 0
-417 203 418 0
418 206 -419 0
-418 -206 -419 0
418 -206 419 0
-418 206 419 0
419 380 -420 0
-419 -380 -420 0
419 -380 420 0
-419 380 420 0
420 392 -421 0
-420 -392 -421 0
420 -392 421 0
-420 392 421 0
421 398 -422 0
-421 -398 -422 0
421 -398 422 0
-421 398 422 0
-422 0
2 3 -423 0
-2 -3 -423 0
2 -3 423 0
-2 3 423 0
423 203 -424 0
-423 -203 -424 0
423 -203 424 0
-423 203 424 0
424 204 -425 0
-424 -204 -425 0
424 -204 425 0
-424 204 425 0
425 207 -426 0
-425 -207 -426 0
425 -207 426 0
-425 207 426 0
426 381 -427 0
-426 -381 -427 0
426 -381 427 0
-426 381 427 0
427 393 -428 0
-427 -393 -428 0
427 -393 428 0
-427 393 428 0
428 399 -429 0
-428 -399 -429 0
428 -399 429 0
-428 399 429 0
-429 0
1 3 -430 0
-1 -3 -430 0
1 -3 430 0
-1 3 430 0
430 4 -431 0
-430 -4 -431 0
430 -4 431 0
-430 4 431 0
431 204 -432 0
-431 -204 -432 0
431 -204 432 0
-431 204 432 0
432 208 -433 0
-432 -208 -433 0
432 -208 433 0
-432 208 433 0
433 382 -434 0
-433 -382 -434 0
433 -382 434 0
-433 382 434 0
434 394 -435 0
-434 -394 -435 0
434 -394 435 0
-434 394 435 0
435 400 -436 0
-435 -400 -436 0
435 -400 436 0
-435 400 436 0
-436 0
1 2 -437 0
-1 -2 -437 0
1 -2 437 0
-1 2 437 0
437 4 -438 0
-437 -4 -438 0
437 -4 438 0
-437 4 438 0
438 5 -439 0
-438 -5 -439 0
438 -5 439 0
-438 5 439 0
439 209 -440 0
-439 -209 -440 0
439 -209 440 0
-439 209 440 0
440 383 -441 0
-440 -383 -441 0
440 -383 441 0
-440 383 441 0
441 395 -442 0
-441 -395 -442 0
441 -395 442 0
-441 395 442 0
442 401 -443 0
-442 -401 -443 0
442 -401 443 0
-442 401 443 0
-443 0
2 3 -444 0
-2 -3 -444 0
2 -3 444 0
-2 3 444 0
444 5 -445 0
-444 -5 -445 0
444 -5 445 0
-444 5 445 0
445 6 -446 0
-445 -6 -446 0
445 -6 446 0
-445 6 446 0
446 210 -447 0
-446 -210 -447 0
446 -210 447 0
-446 210 447 0
447 384 -448 0
-447 -384 -448 0
447 -384 448 0
-447 384 448 0
448 396 -449 0
-448 -396 -449 0
448 -396 449 0
-448 396 449 0
449 402 -450 0
-449 -402 -450 0
449 -402 450 0
-449 402 450 0
-450 0
3 4 -451 0
-3 -4 -451 0
3 -4 451 0
-3 4 451 0
451 6 -452 0
-451 -6 -452 0
451 -6 452 0
-451 6 452 0
452 7 -453 0
-452 -7 -453 0
452 -7 453 0
-452 7 453 0
453 211 -454 0
-453 -211 -454 0
453 -211 454 0
-453 211 454 0
454 385 -455 0
-454 -385 -455 0
454 -385 455 0
-454 385 455 0
455 397 -456 0
-455 -397 -456 0
455 -397 456 0
-455 397 456 0
456 403 -457 0
-456 -403 -457 0
456 -403 457 0
-456 403 457 0
-457 0
4 5 -458 0
-4 -5 -458 0
4 -5 458 0
-4 5 458 0
458 7 -459 0
-458 -7 -459 0
458 -7 459 0
-458 7 459 0
459 8 -460 0
-459 -8 -460 0
459 -8 460 0
-459 8 460 0
460 212 -461 0
-460 -212 -461 0
460 -212 461 0
-460 212 461 0
461 386 -462 0
-461 -386 -462 0
461 -386 462 0
-461 386 462 0
462 398 -463 0
-462 -398 -463 0
462 -398 463 0
-462 398 463 0
463 404 -464 0
-463 -404 -464 0
463 -404 464 0
-463 404 464 0
-464 0
5 6 -465 0
-5 -6 -465 0
5 -6 465 0
-5 6 465 0
465 8 -466 0
-465 -8 -466 0
465 -8 466 0
-465 8 466 0
466 9 -467 0
-466 -9 -467 0
466 -9 467 0
-466 9 467 0
467 213 -468 0
-467 -213 -468 0
467 -213 468 0
-467 213 468 0
468 387 -469 0
-468 -387 -469 0
468 -387 469 0
-468 387 469 0
469 399 -470 0
-469 -399 -470 0
469 -399 470 0
-469 399 470 0
470 405 -471 0
-470 -405 -471 0
470 -405 471 0
-470 405 471 0
-471 0
6 7 -472 0
-6 -7 -472 0
6 -7 472 0
-6 7 472 0
472 9 -473 0
-472 -9 -473 0
472 -9 473 0
-472 9 473 0
473 10 -474 0
-473 -10 -474 0
473 -10 474 0
-473 10 474 0
474 214 -475 0
-474 -214 -475 0
474 -214 475 0
-474 214 475 0
475 388 -476 0
-475 -388 -476 0
475 -388 476 0
-475 388 476 0
476 400 -477 0
-476 -400 -477 0
476 -400 477 0
-476 400 477 0
477 406 -478 0
-477 -406 -478 0
477 -406 478 0
-477 406 478 0
-478 0
7 8 -479 0
-7 -8 -479 0
7 -8 479 0
-7 8 479 0
479 10 -480 0
-479 -10 -480 0
479 -10 480 0
-479 10 480 0
480 11 -481 0
-480 -11 -481 0
480 -11 481 0
-480 11 481 0
481 215 -482 0
-481 -215 -482 0
481 -215 482 0
-481 215 482 0
482 389 -483 0
-482 -389 -483 0
482 -389 483 0
-482 389 483 0
483 401 -484 0
-483 -401 -484 0
483 -401 484 0
-483 401 484 0
484 407 -485 0
-484 -407 -485 0
484 -407 485 0
-484 407 485 0
-485 0
8 9 -486 0
-8 -9 -486 0
8 -9 486 0
-8 9 486 0
486 11 -487 0
-486 -11 -487 0
486 -11 487 0
-486 11 487 0
487 12 -488 0
-487 -12 -488 0
487 -12 488 0
-487 12 488 0
488 216 -489 0
-488 -216 -489 0
488 -216 489 0
-488 216 489 0
489 390 -490 0
-489 -390 -490 0
489 -390 490 0
-489 390 490 0
490 402 -491 0
-490 -402 -491 0
490 -402 491 0
-490 402 491 0
491 408 -492 0
-491 -408 -492 0
491 -408 492 0
-491 408 492 0
-492 0
9 10 -493 0
-9 -10 -493 0
9 -10 493 0
-9 10 493 0
493 12 -494 0
-493 -12 -494 0
493 -12 494 0
-493 12 494 0
494 13 -495 0
-494 -13 -495 0
494 -13 495 0
-494 13 495 0
495 205 -496 0
-495 -205 -496 0
495 -205 496 0
-495 205 496 0
496 217 -497 0
-496 -217 -497 0
496 -217 497 0
-496 217 497 0
497 391 -498 0
-497 -391 -498 0
497 -391 498 0
-497 391 498 0
498 403 -499 0
-498 -403 -499 0
498 -403 499 0
-498 403 499 0
-499 0
10 11 -500 0
-10 -11 -500 0
10 -11 500 0
-10 11 500 0
500 13 -501 0
-500 -13 -501 0
500 -13 501 0
-500 13 501 0
501 14 -502 0
-501 -14 -502 0
501 -14 502 0
-501 14 502 0
502 206 -503 0
-502 -206 -503 0
502 -206 503 0
-502 206 503 0
503 218 -504 0
-503 -218 -504 0
503 -218 504 0
-503 218 504 0
504 392 -505 0
-504 -392 -505 0
504 -392 505 0
-504 392 505 0
505 404 -506 0
-505 -404 -506 0
505 -404 506 0
-505 404 506 0
-506 0
11 12 -507 0
-11 -12 -507 0
11 -12 507 0
-11 12 507 0
507 14 -508 0
-507 -14 -508 0
507 -14 508 0
-507 14 508 0
508 15 -509 0
-508 -15 -509 0
508 -15 509 0
-508 15 509 0
509 207 -510 0
-509 -207 -510 0
509 -207 510 0
-509 207 510 0
510 219 -511 0
-510 -219 -511 0
510 -219 511 0
-510 219 511 0
511 393 -512 0
-511 -393 -512 0
511 -393 512 0
-511 393 512 0
512 405 -513 0
-512 -405 -513 0
512 -405 513 0
-512 405 513 0
-513 0
12 13 -514 0
-12 -13 -514 0
12 -13 514 0
-12 13 514 0
514 15 -515 0
-514 -15 -515 0
514 -15 515 0
-514 15 515 0
515 16 -516 0
-515 -16 -516 0
515 -16 516 0
-515 16 516 0
516 208 -517 0
-516 -208 -517 0
516 -208 517 0
-516 208 517 0
517 220 -518 0
-517 -220 -518 0
517 -220 518 0
-517 220 518 0
518 394 -519 0
-518 -394 -519 0
518 -394 519 0
-518 394 519 0
519 406 -520 0
-519 -406 -520 0
519 -406 520 0
-519 406 520 0
-520 0
13 14 -521 0
-13 -14 -521 0
13 -14 521 0
-13 14 521 0
521 16 -522 0
-521 -16 -522 0
521 -16 522 0
-521 16 522 0
522 17 -523 0
-522 -17 -523 0
522 -17 523 0
-522 17 523 0
523 209 -524 0
-523 -209 -524 0
523 -209 524 0
-523 209 524 0
524 221 -525 0
-524 -221 -525 0
524 -221 525 0
-524 221 525 0
525 395 -526 0
-525 -395 -526 0
525 -395 526 0
-525 395 526 0
526 407 -527 0
-526 -407 -527 0
526 -407 527 0
-526 407 527 0
-527 0
14 15 -528 0
-14 -15 -528 0
14 -15 528 0
-14 15 528 0
528 17 -529 0
-528 -17 -529 0
528 -17 529 0
-528 17 529 0
529 18 -530 0
-529 -18 -530 0
529 -18 530 0
-529 18 530 0
530 210 -531 0
-530 -210 -531 0
530 -210 531 0
-530 210 531 0
531 222 -532 0
-531 -222 -532 0
531 -222 532 0
-531 222 532 0
532 396 -533 0
-532 -396 -533 0
532 -396 533 0
-532 396 533 0
533 408 -534 0
-533 -408 -534 0
533 -408 534 0
-533 408 534 0
-534 0
15 16 -535 0
-15 -16 -535 0
15 -16 535 0
-15 16 535 0
535 18 -536 0
-535 -18 -536 0
535 -18 536 0
-535 18 536 0
536 19 -537 0
-536 -19 -537 0
536 -19 537 0
-536 19 537 0
537 205 -538 0
-537 -205 -538 0
537 -205 538 0
-537 205 538 0
538 211 -539 0
-538 -211 -539 0
538 -211 539 0
-538 211 539 0
539 223 -540 0
-539 -223 -540 0
539 -223 540 0
-539 223 540 0
540 397 -541 0
-540 -397 -541 0
540 -397 541 0
-540 397 541 0
-541 0
16 17 -542 0
-16 -17 -542 0
16 -17 542 0
-16 17 542 0
542 19 -543 0
-542 -19 -543 0
542 -19 543 0
-542 19 543 0
543 20 -544 0
-543 -20 -544 0
543 -20 544 0
-543 20 544 0
544 206 -545 0
-544 -206 -545 0
544 -206 545 0
-544 206 545 0
545 212 -546 0
-545 -212 -546 0
545 -212 546 0
-545 212 546 0
546 224 -547 0
-546 -224 -547 0
546 -224 547 0
-546 224 547 0
547 398 -548 0
-547 -398 -548 0
547 -398 548 0
-547 398 548 0
-548 0
17 18 -549 0
-17 -18 -549 0
17 -18 549 0
-17 18 549 0
549 20 -550 0
-549 -20 -550 0
549 -20 550 0
-549 20 550 0
550 21 -551 0
-550 -21 -551 0
550 -21 551 0
-550 21 551 0
551 207 -552 0
-551 -207 -552 0
551 -207 552 0
-551 207 552 0
552 213 -553 0
-552 -213 -553 0
552 -213 553 0
-552 213 553 0
553 225 -554 0
-553 -225 -554 0
553 -225 554 0
-553 225 554 0
554 399 -555 0
-554 -399 -555 0
554 -399 555 0
-554 399 555 0
-555 0
18 19 -556 0
-18 -19 -556 0
18 -19 556 0
-18 19 556 0
556 21 -557 0
-556 -21 -557 0
556 -21 557 0
-556 21 557 0
557 22 -558 0
-557 -22 -558 0
557 -22 558 0
-557 22 558 0
558 208 -559 0
-558 -208 -559 0
558 -208 559 0
-558 208 559 0
559 214 -560 0
-559 -214 -560 0
559 -214 560 0
-559 214 560 0
560 226 -561 0
-560 -226 -561 0
560 -226 561 0
-560 226 561 0
561 400 -562 0
-561 -400 -562 0
561 -400 562 0
-561 400 562 0
-562 0
19 20 -563 0
-19 -20 -563 0
19 -20 563 0
-19 20 563 0
563 22 -564 0
-563 -22 -564 0
563 -22 564 0
-563 22 564 0
564 23 -565 0
-564 -23 -565 0
564 -23 565 0
-564 23 565 0
565 209 -566 0
-565 -209 -566 0
565 -209 566 0
-565 209 566 0
566 215 -567 0
-566 -215 -567 0
566 -215 567 0
-566 215 567 0
567 227 -568 0
-567 -227 -568 0
567 -227 568 0
-567 227 568 0
568 401 -569 0
-568 -401 -569 0
568 -401 569 0
-568 401 569 0
-569 0
20 21 -570 0
-20 -21 -570 0
20 -21 570 0
-20 21 570 0
570 23 -571 0
-570 -23 -571 0
570 -23 571 0
-570 23 571 0
571 24 -572 0
-571 -24 -572 0
571 -24 572 0
-571 24 572 0
572 210 -573 0
-572 -210 -573 0
572 -210 573 0
-572 210 573 0
573 216 -574 0
-573 -216 -574 0
573 -216 574 0
-573 216 574 0
574 228 -575 0
-574 -228 -575 0
574 -228 575 0
-574 228 575 0
575 402 -576 0
-575 -402 -576 0
575 -402 576 0
-575 402 576 0
-576 0
21 22 -577 0
-21 -22 -577 0
21 -22 577 0
-21 22 577 0
577 24 -578 0
-577 -24 -578 0
577 -24 578 0
-577 24 578 0
578 25 -579 0
-578 -25 -579 0
578 -25 579 0
-578 25 579 0
579 211 -580 0
-579 -211 -580 0
579 -211 580 0
-579 211 580 0
580 217 -581 0
-580 -217 -581 0
580 -217 581 0
-580 217 581 0
581 229 -582 0
-581 -229 -582 0
581 -229 582 0
-581 229 582 0
582 403 -583 0
-582 -403 -583 0
582 -403 583 0
-582 403 583 0
-583 0
22 23 -584 0
-22 -23 -584 0
22 -23 584 0
-22 23 584 0
584 25 -585 0
-584 -25 -585 0
584 -25 585 0
-584 25 585 0
585 26 -586 0
-585 -26 -586 0
585 -26 586 0
-585 26 586 0
586 212 -587 0
-586 -212 -587 0
586 -212 587 0
-586 212 587 0
587 218 -588 0
-587 -218 -588 0
587 -218 588 0
-587 218 588 0
588 230 -589 0
-588 -230 -589 0
588 -230 589 0
-588 230 589 0
589 404 -590 0
-589 -404 -590 0
589 -404 590 0
-589 404 590 0
-590 0
23 24 -591 0
-23 -24 -591 0
23 -24 591 0
-23 24 591 0
591 26 -592 0
-591 -26 -592 0
591 -26 592 0
-591 26 592 0
592 27 -593 0
-592 -27 -593 0
592 -27 593 0
-592 27 593 0
593 213 -594 0
-593 -213 -594 0
593 -213 594 0
-593 213 594 0
594 219 -595 0
-594 -219 -595 0
594 -219 595 0
-594 219 595 0
595 231 -596 0
-595 -231 -596 0
595 -231 596 0
-595 231 596 0
596 405 -597 0
-596 -405 -597 0
596 -405 597 0
-596 405 597 0
-597 0
24 25 -598 0
-24 -25 -598 0
24 -25 598 0
-24 25 598 0
598 27 -599 0
-598 -27 -599 0
598 -27 599 0
-598 27 599 0
599 28 -600 0
-599 -28 -600 0
599 -28 600 0
-599 28 600 0
600 214 -601 0
-600 -214 -601 0
600 -214 601 0
-600 214 601 0
601 220 -602 0
-601 -220 -602 0
601 -220 602 0
-601 220 602 0
602 232 -603 0
-602 -232 -603 0
602 -232 603 0
-602 232 603 0
603 406 -604 0
-603 -406 -604 0
603 -406 604 0
-603 406 604 0
-604 0
25 26 -605 0
-25 -26 -605 0
25 -26 605 0
-25 26 605 0
605 28 -606 0
-605 -28 -606 0
605 -28 606 0
-605 28 606 0
606 29 -607 0
-606 -29 -607 0
606 -29 607 0
-606 29 607 0
607 215 -608 0
-607 -215 -608 0
607 -215 608 0
-607 215 608 0
608 221 -609 0
-608 -221 -609 0
608 -221 609 0
-608 221 609 0
609 233 -610 0
-609 -233 -610 0
609 -233 610 0
-609 233 610 0
610 407 -611 0
-610 -407 -611 0
610 -407 611 0
-610 407 611 0
-611 0
26 27 -612 0
-26 -27 -612 0
26 -27 612 0
-26 27 612 0
612 29 -613 0
-612 -29 -613 0
612 -29 613 0
-612 29 613 0
613 30 -614 0
-613 -30 -614 0
613 -30 614 0
-613 30 614 0
614 216 -615 0
-614 -216 -615 0
614 -216 615 0
-614 216 615 0
615 222 -616 0
-615 -222 -616 0
615 -222 616 0
-615 222 616 0
616 234 -617 0
-616 -234 -617 0
616 -234 617 0
-616 234 617 0
617 408 -618 0
-617 -408 -618 0
617 -408 618 0
-617 408 618 0
-618 0
27 28 -619 0
-27 -28 -619 0
27 -28 619 0
-27 28 619 0
619 30 -620 0
-619 -30 -620 0
619 -30 620 0
-619 30 620 0
620 31 -621 0
-620 -31 -621 0
620 -31 621 0
-620 31 621 0
621 205 -622 0
-621 -205 -622 0
621 -205 622 0
-621 205 622 0
622 217 -623 0
-622 -217 -623 0
622 -217 623 0
-622 217 623 0
623 223 -624 0
-623 -223 -624 0
623 -223 624 0
-623 223 624 0
624 235 -625 0
-624 -235 -625 0
624 -235 625 0
-624 235 625 0
-625 0
28 29 -626 0
-28 -29 -626 0
28 -29 626 0
-28 29 626 0
626 31 -627 0
-626 -31 -627 0
626 -31 627 0
-626 31 627 0
627 32 -628 0
-627 -32 -628 0
627 -32 628 0
-627 32 628 0
628 206 -629 0
-628 -206 -629 0
628 -206 629 0
-628 206 629 0
629 218 -630 0
-629 -218 -630 0
629 -218 630 0
-629 218 630 0
630 224 -631 0
-630 -224 -631 0
630 -224 631 0
-630 224 631 0
631 236 -632 0
-631 -236 -632 0
631 -236 632 0
-631 236 632 0
-632 0
29 30 -633 0
-29 -30 -633 0
29 -30 633 0
-29 30 633 0
633 32 -634 0
-633 -32 -634 0
633 -32 634 0
-633 32 634 0
634 33 -635 0
-634 -33 -635 0
634 -33 635 0
-634 33 635 0
635 207 -636 0
-635 -207 -636 0
635 -207 636 0
-635 207 636 0
636 219 -637 0
-636 -219 -637 0
636 -219 637 0
-636 219 637 0
637 225 -638 0
-637 -225 -638 0
637 -225 638 0
-637 225 638 0
638 237 -639 0
-638 -237 -639 0
638 -237 639 0
-638 237 639 0
-639 0
30 31 -640 0
-30 -31 -640 0
30 -31 640 0
-30 31 640 0
640 33 -641 0
-640 -33 -641 0
640 -33 641 0
-640 33 641 0
641 34 -642 0
-641 -34 -642 0
641 -34 642 0
-641 34 642 0
642 208 -643 0
-642 -208 -643 0
642 -208 643 0
-642 208 643 0
643 220 -644 0
-643 -220 -644 0
643 -220 644 0
-643 220 644 0
644 226 -645 0
-644 -226 -645 0
644 -226 645 0
-644 226 645 0
645 238 -646 0
-645 -238 -646 0
645 -238 646 0
-645 238 646 0
-646 0
31 32 -647 0
-31 -32 -647 0
31 -32 647 0
-31 32 647 0
647 34 -648 0
-647 -34 -648 0
647 -34 648 0
-647 34 648 0
648 35 -649 0
-648 -35 -649 0
648 -35 649 0
-648 35 649 0
649 209 -650 0
-649 -209 -650 0
649 -209 650 0
-649 209 650 0
650 221 -651 0
-650 -221 -651 0
650 -221 651 0
-650 221 651 0
651 227 -652 0
-651 -227 -652 0
651 -227 652 0
-651 227 652 0
652 239 -653 0
-652 -239 -653 0
652 -239 653 0
-652 239 653 0
-653 0
32 33 -654 0
-32 -33 -654 0
32 -33 654 0
-32 33 654 0
654 35 -655 0
-654 -35 -655 0
654 -35 655 0
-654 35 655 0
655 36 -656 0
-655 -36 -656 0
655 -36 656 0
-655 36 656 0
656 210 -657 0
-656 -210 -657 0
656 -210 657 0
-656 210 657 0
657 222 -658 0
-657 -222 -658 0
657 -222 658 0
-657 222 658 0
658 228 -659 0
-658 -228 -659 0
658 -228 659 0
-658 228 659 0
659 240 -660 0
-659 -240 -660 0
659 -240 660 0
-659 240 660 0
-660 0
33 34 -661 0
-33 -34 -661 0
33 -34 661 0
-33 34 661 0
661 36 -662 0
-661 -36 -662 0
661 -36 662 0
-661 36 662 0
662 37 -663 0
-662 -37 -663 0
662 -37 663 0
-662 37 663 0
663 211 -664 0
-663 -211 -664 0
663 -211 664 0
-663 211 664 0
664 223 -665 0
-664 -223 -665 0
664 -223 665 0
-664 223 665 0
665 229 -666 0
-665 -229 -666 0
665 -229 666 0
-665 229 666 0
666 241 -667 0
-666 -241 -667 0
666 -241 667 0
-666 241 667 0
-667 0
34 35 -668 0
-34 -35 -668 0
34 -35 668 0
-34 35 668 0
668 37 -669 0
-668 -37 -669 0
668 -37 669 0
-668 37 669 0
669 38 -670 0
-669 -38 -670 0
669 -38 670 0
-669 38 670 0
670 212 -671 0
-670 -212 -671 0
670 -212 671 0
-670 212 671 0
671 224 -672 0
-671 -224 -672 0
671 -224 672 0
-671 224 672 0
672 230 -673 0
-672 -230 -673 0
672 -230 673 0
-672 230 673 0
673 242 -674 0
-673 -242 -674 0
673 -242 674 0
-673 242 674 0
-674 0
35 36 -675 0
-35 -36 -675 0
35 -36 675 0
-35 36 675 0
675 38 -676 0
-675 -38 -676 0
675 -38 676 0
-675 38 676 0
676 39 -677 0
-676 -39 -677 0
676 -39 677 0
-676 39 677 0
677 213 -678 0
-677 -213 -678 0
677 -213 678 0
-677 213 678 0
678 225 -679 0
-678 -225 -679 0
678 -225 679 0
-678 225 679 0
679 231 -680 0
-679 -231 -680 0
679 -231 680 0
-679 231 680 0
680 243 -681 0
-680 -243 -681 0
680 -243 681 0
-680 243 681 0
-681 0
36 37 -682 0
-36 -37 -682 0
36 -37 682 0
-36 37 682 0
682 39 -683 0
-682 -39 -683 0
682 -39 683 0
-682 39 683 0
683 40 -684 0
-683 -40 -684 0
683 -40 684 0
-683 40 684 0
684 214 -685 0
-684 -214 -685 0
684 -214 685 0
-684 214 685 0
685 226 -686 0
-685 -226 -686 0
685 -226 686 0
-685 226 686 0
686 232 -687 0
-686 -232 -687 0
686 -232 687 0
-686 232 687 0
687 244 -688 0
-687 -244 -688 0
687 -244 688 0
-687 244 688 0
-688 0
37 38 -689 0
-37 -38 -689 0
37 -38 689 0
-37 38 689 0
689 40 -690 0
-689 -40 -690 0
689 -40 690 0
-689 40 690 0
690 41 -691 0
-690 -41 -691 0
690 -41 691 0
-690 41 691 0
691 215 -692 0
-691 -215 -692 0
691 -215 692 0
-691 215 692 0
692 227 -693 0
-692 -227 -693 0
692 -227 693 0
-692 227 693 0
693 233 -694 0
-693 -233 -694 0
693 -233 694 0
-693 233 694 0
694 245 -695 0
-694 -245 -695 0
694 -245 695 0
-694 245 695 0
-695 0
38 39 -696 0
-38 -39 -696 0
38 -39 696 0
-38 39 696 0
696 41 -697 0
-696 -41 -697 0
696 -41 697 0
-696 41 697 0
697 42 -698 0
-697 -42 -698 0
697 -42 698 0
-697 42 698 0
698 216 -699 0
-698 -216 -699 0
698 -216 699 0
-698 216 699 0
699 228 -700 0
-699 -228 -700 0
699 -228 700 0
-699 228 700 0
700 234 -701 0
-700 -234 -701 0
700 -234 701 0
-700 234 701 0
701 246 -702 0
-701 -246 -702 0
701 -246 702 0
-701 246 702 0
-702 0
39 40 -703 0
-39 -40 -703 0
39 -40 703 0
-39 40 703 0
703 42 -704 0
-703 -42 -704 0
703 -42 704 0
-703 42 704 0
704 43 -705 0
-704 -43 -705 0
704 -43 705 0
-704 43 705 0
705 217 -706 0
-705 -217 -706 0
705 -217 706 0
-705 217 706 0
706 229 -707 0
-706 -229 -707 0
706 -229 707 0
-706 229 707 0
707 235 -708 0
-707 -235 -708 0
707 -235 708 0
-707 235 708 0
708 247 -709 0
-708 -247 -709 0
708 -247 709 0
-708 247 709 0
-709 0
40 41 -710 0
-40 -41 -710 0
40 -41 710 0
-40 41 710 0
710 43 -711 0
-710 -43 -711 0
710 -43 711 0
-710 43 711 0
711 44 -712 0
-711 -44 -712 0
711 -44 712 0
-711 44 712 0
712 218 -713 0
-712 -218 -713 0
712 -218 713 0
-712 218 713 0
713 230 -714 0
-713 -230 -714 0
713 -230 714 0
-713 230 714 0
714 236 -715 0
-714 -236 -715 0
714 -236 715 0
-714 236 715 0
715 248 -716 0
-715 -248 -716 0
715 -248 716 0
-715 248 716 0
-716 0
41 42 -717 0
-41 -42 -717 0
41 -42 717 0
-41 42 717 0
717 44 -718 0
-717 -44 -718 0
717 -44 718 0
-717 44 718 0
718 45 -719 0
-718 -45 -719 0
718 -45 719 0
-718 45 719 0
719 219 -720 0
-719 -219 -720 0
719 -219 720 0
-719 219 720 0
720 231 -721 0
-720 -231 -721 0
720 -231 721 0
-720 231 721 0
721 237 -722 0
-721 -237 -722 0
721 -237 722 0
-721 237 722 0
722 249 -723 0
-722 -249 -723 0
722 -249 723 0
-722 249 723 0
-723 0
42 43 -724 0
-42 -43 -724 0
42 -43 724 0
-42 43 724 0
724 45 -725 0
-724 -45 -725 0
724 -45 725 0
-724 45 725 0
725 46 -726 0
-725 -46 -726 0
725 -46 726 0
-725 46 726 0
726 220 -727 0
-726 -220 -727 0
726 -220 727 0
-726 220 727 0
727 232 -728 0
-727 -232 -728 0
727 -232 728 0
-727 232 728 0
728 238 -729 0
-728 -238 -729 0
728 -238 729 0
-728 238 729 0
729 250 -730 0
-729 -250 -730 0
729 -250 730 0
-729 250 730 0
-730 0
43 44 -731 0
-43 -44 -731 0
43 -44 731 0
-43 44 731 0
731 46 -732 0
-731 -46 -732 0
731 -46 732 0
-731 46 732 0
732 47 -733 0
-732 -47 -733 0
732 -47 733 0
-732 47 733 0
733 221 -734 0
-733 -221 -734 0
733 -221 734 0
-733 221 734 0
734 233 -735 0
-734 -233 -735 0
734 -233 735 0
-734 233 735 0
735 239 -736 0
-735 -239 -736 0
735 -239 736 0
-735 239 736 0
736 251 -737 0
-736 -251 -737 0
736 -251 737 0
-736 251 737 0
-737 0
44 45 -738 0
-44 -45 -738 0
44 -45 738 0
-44 45 738 0
738 47 -739 0
-738 -47 -739 0
738 -47 739 0
-738 47 739 0
739 48 -740 0
-739 -48 -740 0
739 -48 740 0
-739 48 740 0
740 222 -741 0
-740 -222 -741 0
740 -222 741 0
-740 222 741 0
741 234 -742 0
-741 -234 -742 0
741 -234 742 0
-741 234 742 0
742 240 -743 0
-742 -240 -743 0
742 -240 743 0
-742 240 743 0
743 252 -744 0
-743 -252 -744 0
743 -252 744 0
-743 252 744 0
-744 0
45 46 -745 0
-45 -46 -745 0
45 -46 745 0
-45 46 745 0
745 48 -746 0
-745 -48 -746 0
745 -48 746 0
-745 48 746 0
746 49 -747 0
-746 -49 -747 0
746 -49 747 0
-746 49 747 0
747 223 -748 0
-747 -223 -748 0
747 -223 748 0
-747 223 748 0
748 235 -749 0
-748 -235 -749 0
748 -235 749 0
-748 235 749 0
749 241 -750 0
-749 -241 -750 0
749 -241 750 0
-749 241 750 0
750 253 -751 0
-750 -253 -751 0
750 -253 751 0
-750 253 751 0
-751 0
46 47 -752 0
-46 -47 -752 0
46 -47 752 0
-46 47 752 0
752 49 -753 0
-752 -49 -753 0
752 -49 753 0
-752 49 753 0
753 50 -754 0
-753 -50 -754 0
753 -50 754 0
-753 50 754 0
754 224 -755 0
-754 -224 -755 0
754 -224 755 0
-754 224 755 0
755 236 -756 0
-755 -236 -756 0
755 -236 756 0
-755 236 756 0
756 242 -757 0
-756 -242 -757 0
756 -242 757 0
-756 242 757 0
757 254 -758 0
-757 -254 -758 0
757 -254 758 0
-757 254 758 0
-758 0
47 48 -759 0
-47 -48 -759 0
47 -48 759 0
-47 48 759 0
759 50 -760 0
-759 -50 -760 0
759 -50 760 0
-759 50 760 0
760 51 -761 0
-760 -51 -761 0
760 -51 761 0
-760 51 761 0
761 225 -762 0
-761 -225 -762 0
761 -225 762 0
-761 225 762 0
762 237 -763 0
-762 -237 -763 0
762 -237 763 0
-762 237 763 0
763 243 -764 0
-763 -243 -764 0
763 -243 764 0
-763 243 764 0
764 255 -765 0
-764 -255 -765 0
764 -255 765 0
-764 255 765 0
-765 0
48 49 -766 0
-48 -49 -766 0
48 -49 766 0
-48 49 766 0
766 51 -767 0
-766 -51 -767 0
766 -51 767 0
-766 51 767 0
767 52 -768 0
-767 -52 -768 0
767 -52 768 0
-767 52 768 0
768 226 -769 0
-768 -226 -769 0
768 -226 769 0
-768 226 769 0
769 238 -770 0
-769 -238 -770 0
769 -238 770 0
-769 238 770 0
770 244 -771 0
-770 -244 -771 0
770 -244 771 0
-770 244 771 0
771 256 -772 0
-771 -256 -772 0
771 -256 772 0
-771 256 772 0
-772 0
49 50 -773 0
-49 -50 -773 0
49 -50 773 0
-49 50 773 0
773 52 -774 0
-773 -52 -774 0
773 -52 774 0
-773 52 774 0
774 53 -775 0
-774 -53 -775 0
774 -53 775 0
-774 53 775 0
775 227 -776 0
-775 -227 -776 0
775 -227 776 0
-775 227 776 0
776 239 -777 0
-776 -239 -777 0
776 -239 777 0
-776 239 777 0
777 245 -778 0
-777 -245 -778 0
777 -245 778 0
-777 245 778 0
778 257 -779 0
-778 -257 -779 0
778 -257 779 0
-778 257 779 0
-779 0
50 51 -780 0
-50 -51 -780 0
50 -51 780 0
-50 51 780 0
780 53 -781 0
-780 -53 -781 0
780 -53 781 0
-780 53 781 0
781 54 -782 0
-781 -54 -782 0
781 -54 782 0
-781 54 782 0
782 228 -783 0
-782 -228 -783 0
782 -228 783 0
-782 228 783 0
783 240 -784 0
-783 -240 -784 0
783 -240 784 0
-783 240 784 0
784 246 -785 0
-784 -246 -785 0
784 -246 785 0
-784 246 785 0
785 258 -786 0
-785 -258 -786 0
785 -258 786 0
-785 258 786 0
-786 0
51 52 -787 0
-51 -52 -787 0
51 -52 787 0
-51 52 787 0
787 54 -788 0
-787 -54 -788 0
787 -54 788 0
-787 54 788 0
788 55 -789 0
-788 -55 -789 0
788 -55 789 0
-788 55 789 0
789 229 -790 0
-789 -229 -790 0
789 -229 790 0
-789 229 790 0
790 241 -791 0
-790 -241 -791 0
790 -241 791 0
-790 241 791 0
791 247 -792 0
-791 -247 -792 0
791 -247 792 0
-791 247 792 0
792 259 -793 0
-792 -259 -793 0
792 -259 793 0
-792 259 793 0
-793 0
52 53 -794 0
-52 -53 -794 0
52 -53 794 0
-52 53 794 0
794 55 -795 0
-794 -55 -795 0
794 -55 795 0
-794 55 795 0
795 56 -796 0
-795 -56 -796 0
795 -56 796 0
-795 56 796 0
796 230 -797 0
-796 -230 -797 0
796 -230 797 0
-796 230 797 0
797 242 -798 0
-797 -242 -798 0
797 -242 798 0
-797 242 798 0
798 248 -799 0
-798 -248 -799 0
798 -248 799 0
-798 248 799 0
799 260 -800 0
-799 -260 -800 0
799 -260 800 0
-799 260 800 0
-800 0
53 54 -801 0
-53 -54 -801 0
53 -54 801 0
-53 54 801 0
801 56 -802 0
-801 -56 -802 0
801 -56 802 0
-801 56 802 0
802 57 -803 0
-802 -57 -803 0
802 -57 803 0
-802 57 803 0
803 231 -804 0
-803 -231 -804 0
803 -231 804 0
-803 231 804 0
804 243 -805 0
-804 -243 -805 0
804 -243 805 0
-804 243 805 0
805 249 -806 0
-805 -249 -806 0
805 -249 806 0
-805 249 806 0
806 261 -807 0
-806 -261 -807 0
806 -261 807 0
-806 261 807 0
-807 0
54 55 -808 0
-54 -55 -808 0
54 -55 808 0
-54 55 808 0
808 57 -809 0
-808 -57 -809 0
808 -57 809 0
-808 57 809 0
809 58 -810 0
-809 -58 -810 0
809 -58 810 0
-809 58 810 0
810 232 -811 0
-810 -232 -811 0
810 -232 811 0
-810 232 811 0
811 244 -812 0
-811 -244 -812 0
811 -244 812 0
-811 244 812 0
812 250 -813 0
-812 -250 -813 0
812 -250 813 0
-812 250 813 0
813 262 -814 0
-813 -262 -814 0
813 -262 814 0
-813 262 814 0
-814 0
55 56 -815 0
-55 -56 -815 0
55 -56 815 0
-55 56 815 0
815 58 -816 0
-815 -58 -816 0
815 -58 816 0
-815 58 816 0
816 59 -817 0
-816 -59 -817 0
816 -59 817 0
-816 59 817 0
817 233 -818 0
-817 -233 -818 0
817 -233 818 0
-817 233 818 0
818 245 -819 0
-818 -245 -819 0
818 -245 819 0
-818 245 819 0
819 251 -820 0
-819 -251 -820 0
819 -251 820 0
-819 251 820 0
820 263 -821 0
-820 -263 -821 0
820 -263 821 0
-820 263 821 0
-821 0
56 57 -822 0
-56 -57 -822 0
56 -57 822 0
-56 57 822 0
822 59 -823 0
-822 -59 -823 0
822 -59 823 0
-822 59 823 0
823 60 -824 0
-823 -60 -824 0
823 -60 824 0
-823 60 824 0
824 234 -825 0
-824 -234 -825 0
824 -234 825 0
-824 234 825 0
825 246 -826 0
-825 -246 -826 0
825 -246 826 0
-825 246 826 0
826 252 -827 0
-826 -252 -827 0
826 -252 827 0
-826 252 827 0
827 264 -828 0
-827 -264 -828 0
827 -264 828 0
-827 264 828 0
-828 0
57 58 -829 0
-57 -58 -829 0
57 -58 829 0
-57 58 829 0
829 60 -830 0
-829 -60 -830 0
829 -60 830 0
-829 60 830 0
830 61 -831 0
-830 -61 -831 0
830 -61 831 0
-830 61 831 0
831 235 -832 0
-831 -235 -832 0
831 -235 832 0
-831 235 832 0
832 247 -833 0
-832 -247 -833 0
832 -247 833 0
-832 247 833 0
833 253 -834 0
-833 -253 -834 0
833 -253 834 0
-833 253 834 0
834 265 -835 0
-834 -265 -835 0
834 -265 835 0
-834 265 835 0
-835 0
58 59 -836 0
-58 -59 -836 0
58 -59 836 0
-58 59 836 0
836 61 -837 0
-836 -61 -837 0
836 -61 837 0
-836 61 837 0
837 62 -838 0
-837 -62 -838 0
837 -62 838 0
-837 62 838 0
838 236 -839 0
-838 -236 -839 0
838 -236 839 0
-838 236 839 0
839 248 -840 0
-839 -248 -840 0
839 -248 840 0
-839 248 840 0
840 254 -841 0
-840 -254 -841 0
840 -254 841 0
-840 254 841 0
841 266 -842 0
-841 -266 -842 0
841 -266 842 0
-841 266 842 0
-842 0
59 60 -843 0
-59 -60 -843 0
59 -60 843 0
-59 60 843 0
843 62 -844 0
-843 -62 -844 0
843 -62 844 0
-843 62 844 0
844 63 -845 0
-844 -63 -845 0
844 -63 845 0
-844 63 845 0
845 237 -846 0
-845 -237 -846 0
845 -237 846 0
-845 237 846 0
846 249 -847 0
-846 -249 -847 0
846 -249 847 0
-846 249 847 0
847 255 -848 0
-847 -255 -848 0
847 -255 848 0
-847 255 848 0
848 267 -849 0
-848 -267 -849 0
848 -267 849 0
-848 267 849 0
-849 0
60 61 -850 0
-60 -61 -850 0
60 -61 850 0
-60 61 850 0
850 63 -851 0
-850 -63 -851 0
850 -63 851 0
-850 63 851 0
851 64 -852 0
-851 -64 -852 0
851 -64 852 0
-851 64 852 0
852 238 -853 0
-852 -238 -853 0
852 -238 853 0
-852 238 853 0
853 250 -854 0
-853 -250 -854 0
853 -250 854 0
-853 250 854 0
854 256 -855 0
-854 -256 -855 0
854 -256 855 0
-854 256 855 0
855 268 -856 0
-855 -268 -856 0
855 -268 856 0
-855 268 856 0
-856 0
61 62 -857 0
-61 -62 -857 0
61 -62 857 0
-61 62 857 0
857 64 -858 0
-857 -64 -858 0
857 -64 858 0
-857 64 858 0
858 65 -859 0
-858 -65 -859 0
858 -65 859 0
-858 65 859 0
859 239 -860 0
-859 -239 -860 0
859 -239 860 0
-859 239 860 0
860 251 -861 0
-860 -251 -861 0
860 -251 861 0
-860 251 861 0
861 257 -862 0
-861 -257 -862 0
861 -257 862 0
-861 257 862 0
862 269 -863 0
-862 -269 -863 0
862 -269 863 0
-862 269 863 0
-863 0
62 63 -864 0
-62 -63 -864 0
62 -63 864 0
-62 63 864 0
864 65 -865 0
-864 -65 -865 0
864 -65 865 0
-864 65 865 0
865 66 -866 0
-865 -66 -866 0
865 -66 866 0
-865 66 866 0
866 240 -867 0
-866 -240 -867 0
866 -240 867 0
-866 240 867 0
867 252 -868 0
-867 -252 -868 0
867 -252 868 0
-867 252 868 0
868 258 -869 0
-868 -258 -869 0
868 -258 869 0
-868 258 869 0
869 270 -870 0
-869 -270 -870 0
869 -270 870 0
-869 270 870 0
-870 0
63 64 -871 0
-63 -64 -871 0
63 -64 871 0
-63 64 871 0
871 66 -872 0
-871 -66 -872 0
871 -66 872 0
-871 66 872 0
872 67 -873 0
-872 -67 -873 0
872 -67 873 0
-872 67 873 0
873 241 -874 0
-873 -241 -874 0
873 -241 874 0
-873 241 874 0
874 253 -875 0
-874 -253 -875 0
874 -253 875 0
-874 253 875 0
875 259 -876 0
-875 -259 -876 0
875 -259 876 0
-875 259 876 0
876 271 -877 0
-876 -271 -877 0
876 -271 877 0
-876 271 877 0
-877 0
64 65 -878 0
-64 -65 -878 0
64 -65 878 0
-64 65 878 0
878 67 -879 0
-878 -67 -879 0
878 -67 879 0
-878 67 879 0
879 68 -880 0
-879 -68 -880 0
879 -68 880 0
-879 68 880 0
880 242 -881 0
-880 -242 -881 0
880 -242 881 0
-880 242 881 0
881 254 -882 0
-881 -254 -882 0
881 -254 882 0
-881 254 882 0
882 260 -883 0
-882 -260 -883 0
882 -260 883 0
-882 260 883 0
883 272 -884 0
-883 -272 -884 0
883 -272 884 0
-883 272 884 0
-884 0
65 66 -885 0
-65 -66 -885 0
65 -66 885 0
-65 66 885 0
885 68 -886 0
-885 -68 -886 0
885 -68 886 0
-885 68 886 0
886 69 -887 0
-886 -69 -887 0
886 -69 887 0
-886 69 887 0
887 243 -888 0
-887 -243 -888 0
887 -243 888 0
-887 243 888 0
888 255 -889 0
-888 -255 -889 0
888 -255 889 0
-888 255 889 0
889 261 -890 0
-889 -261 -890 0
889 -261 890 0
-889 261 890 0
890 273 -891 0
-890 -273 -891 0
890 -273 891 0
-890 273 891 0
-891 0
66 67 -892 0
-66 -67 -892 0
66 -67 892 0
-66 67 892 0
892 69 -893 0
-892 -69 -893 0
892 -69 893 0
-892 69 893 0
893 70 -894 0
-893 -70 -894 0
893 -70 894 0
-893 70 894 0
894 244 -895 0
-894 -244 -895 0
894 -244 895 0
-894 244 895 0
895 256 -896 0
-895 -256 -896 0
895 -256 896 0
-895 256 896 0
896 262 -897 0
-896 -262 -897 0
896 -262 897 0
-896 262 897 0
897 274 -898 0
-897 -274 -898 0
897 -274 898 0
-897 274 898 0
-898 0
67 68 -899 0
-67 -68 -899 0
67 -68 899 0
-67 68 899 0
899 70 -900 0
-899 -70 -900 0
899 -70 900 0
-899 70 900 0
900 71 -901 0
-900 -71 -901 0
900 -71 901 0
-900 71 901 0
901 245 -902 0
-901 -245 -902 0
901 -245 902 0
-901 245 902 0
902 257 -903 0
-902 -257 -903 0
902 -257 903 0
-902 257 903 0
903 263 -904 0
-903 -263 -904 0
903 -263 904 0
-903 263 904 0
904 275 -905 0
-904 -275 -905 0
904 -275 905 0
-904 275 905 0
-905 0
68 69 -906 0
-68 -69 -906 0
68 -69 906 0
-68 69 906 0
906 71 -907 0
-906 -71 -907 0
906 -71 907 0
-906 71 907 0
907 72 -908 0
-907 -72 -908 0
907 -72 908 0
-907 72 908 0
908 246 -909 0
-908 -246 -909 0
908 -246 909 0
-908 246 909 0
909 258 -910 0
-909 -258 -910 0
909 -258 910 0
-909 258 910 0
910 264 -911 0
-910 -264 -911 0
910 -264 911 0
-910 264 911 0
911 276 -912 0
-911 -276 -912 0
911 -276 912 0
-911 276 912 0
-912 0
69 70 -913 0
-69 -70 -913 0
69 -70 913 0
-69 70 913 0
913 72 -914 0
-913 -72 -914 0
913 -72 914 0
-913 72 914 0
914 73 -915 0
-914 -73 -915 0
914 -73 915 0
-914 73 915 0
915 247 -916 0
-915 -247 -916 0
915 -247 916 0
-915 247 916 0
916 259 -917 0
-916 -259 -917 0
916 -259 917 0
-916 259 917 0
917 265 -918 0
-917 -265 -918 0
917 -265 918 0
-917 265 918 0
918 277 -919 0
-918 -277 -919 0
918 -277 919 0
-918 277 919 0
-919 0
70 71 -920 0
-70 -71 -920 0
70 -71 920 0
-70 71 920 0
920 73 -921 0
-920 -73 -921 0
920 -73 921 0
-920 73 921 0
921 74 -922 0
-921 -74 -922 0
921 -74 922 0
-921 74 922 0
922 248 -923 0
-922 -248 -923 0
922 -248 923 0
-922 248 923 0
923 260 -924 0
-923 -260 -924 0
923 -260 924 0
-923 260 924 0
924 266 -925 0
-924 -266 -925 0
924 -266 925 0
-924 266 925 0
925 278 -926 0
-925 -278 -926 0
925 -278 926 0
-925 278 926 0
-926 0
71 72 -927 0
-71 -72 -927 0
71 -72 927 0
-71 72 927 0
927 74 -928 0
-927 -74 -928 0
927 -74 928 0
-927 74 928 0
928 75 -929 0
-928 -75 -929 0
928 -75 929 0
-928 75 929 0
929 249 -930 0
-929 -249 -930 0
929 -249 930 0
-929 249 930 0
930 261 -931 0
-930 -261 -931 0
930 -261 931 0
-930 261 931 0
931 267 -932 0
-931 -267 -932 0
931 -267 932 0
-931 267 932 0
932 279 -933 0
-932 -279 -933 0
932 -279 933 0
-932 279 933 0
-933 0
72 73 -934 0
-72 -73 -934 0
72 -73 934 0
-72 73 934 0
934 75 -935 0
-934 -75 -935 0
934 -75 935 0
-934 75 935 0
935 76 -936 0
-935 -76 -936 0
935 -76 936 0
-935 76 936 0
936 250 -937 0
-936 -250 -937 0
936 -250 937 0
-936 250 937 0
937 262 -938 0
-937 -262 -938 0
937 -262 938 0
-937 262 938 0
938 268 -939 0
-938 -268 -939 0
938 -268 939 0
-938 268 939 0
939 280 -940 0
-939 -280 -940 0
939 -280 940 0
-939 280 940 0
-940 0
73 74 -941 0
-73 -74 -941 0
73 -74 941 0
-73 74 941 0
941 76 -942 0
-941 -76 -942 0
941 -76 942 0
-941 76 942 0
942 77 -943 0
-942 -77 -943 0
942 -77 943 0
-942 77 943 0
943 251 -944 0
-943 -251 -944 0
943 -251 944 0
-943 251 944 0
944 263 -945 0
-944 -263 -945 0
944 -263 945 0
-944 263 945 0
945 269 -946 0
-945 -269 -946 0
945 -269 946 0
-945 269 946 0
946 281 -947 0
-946 -281 -947 0
946 -281 947 0
-946 281 947 0
-947 0
74 75 -948 0
-74 -75 -948 0
74 -75 948 0
-74 75 948 0
948 77 -949 0
-948 -77 -949 0
948 -77 949 0
-948 77 949 0
949 78 -950 0
-949 -78 -950 0
949 -78 950 0
-949 78 950 0
950 252 -951 0
-950 -252 -951 0
950 -252 951 0
-950 252 951 0
951 264 -952 0
-951 -264 -952 0
951 -264 952 0
-951 264 952 0
952 270 -953 0
-952 -270 -953 0
952 -270 953 0
-952 270 953 0
953 282 -954 0
-953 -282 -954 0
953 -282 954 0
-953 282 954 0
-954 0
75 76 -955 0
-75 -76 -955 0
75 -76 955 0
-75 76 955 0
955 78 -956 0
-955 -78 -956 0
955 -78 956 0
-955 78 956 0
956 79 -957 0
-956 -79 -957 0
956 -79 957 0
-956 79 957 0
957 253 -958 0
-957 -253 -958 0
957 -253 958 0
-957 253 958 0
958 265 -959 0
-958 -265 -959 0
958 -265 959 0
-958 265 959 0
959 271 -960 0
-959 -271 -960 0
959 -271 960 0
-959 271 960 0
960 283 -961 0
-960 -283 -961 0
960 -283 961 0
-960 283 961 0
-961 0
76 77 -962 0
-76 -77 -962 0
76 -77 962 0
-76 77 962 0
962 79 -963 0
-962 -79 -963 0
962 -79 963 0
-962 79 963 0
963 80 -964 0
-963 -80 -964 0
963 -80 964 0
-963 80 964 0
964 254 -965 0
-964 -254 -965 0
964 -254 965 0
-964 254 965 0
965 266 -966 0
-965 -266 -966 0
965 -266 966 0
-965 266 966 0
966 272 -967 0
-966 -272 -967 0
966 -272 967 0
-966 272 967 0
967 284 -968 0
-967 -284 -968 0
967 -284 968 0
-967 284 968 0
-968 0
77 78 -969 0
-77 -78 -969 0
77 -78 969 0
-77 78 969 0
969 80 -970 0
-969 -80 -970 0
969 -80 970 0
-969 80 970 0
970 81 -971 0
-970 -81 -971 0
970 -81 971 0
-970 81 971 0
971 255 -972 0
-971 -255 -972 0
971 -255 972 0
-971 255 972 0
972 267 -973 0
-972 -267 -973 0
972 -267 973 0
-972 267 973 0
973 273 -974 0
-973 -273 -974 0
973 -273 974 0
-973 273 974 0
974 285 -975 0
-974 -285 -975 0
974 -285 975 0
-974 285 975 0
-975 0
78 79 -976 0
-78 -79 -976 0
78 -79 976 0
-78 79 976 0
976 81 -977 0
-976 -81 -977 0
976 -81 977 0
-976 81 977 0
977 82 -978 0
-977 -82 -978 0
977 -82 978 0
-977 82 978 0
978 256 -979 0
-978 -256 -979 0
978 -256 979 0
-978 256 979 0
979 268 -980 0
-979 -268 -980 0
979 -268 980 0
-979 268 980 0
980 274 -981 0
-980 -274 -981 0
980 -274 981 0
-980 274 981 0
981 286 -982 0
-981 -286 -982 0
981 -286 982 0
-981 286 982 0
-982 0
79 80 -983 0
-79 -80 -983 0
79 -80 983 0
-79 80 983 0
983 82 -984 0
-983 -82 -984 0
983 -82 984 0
-983 82 984 0
984 83 -985 0
-984 -83 -985 0
984 -83 985 0
-984 83 985 0
985 257 -986 0
-985 -257 -986 0
985 -257 986 0
-985 257 986 0
986 269 -987 0
-986 -269 -987 0
986 -269 987 0
-986 269 987 0
987 275 -988 0
-987 -275 -988 0
987 -275 988 0
-987 275 988 0
988 287 -989 0
-988 -287 -989 0
988 -287 989 0
-988 287 989 0
-989 0
80 81 -990 0
-80 -81 -990 0
80 -81 990 0
-80 81 990 0
990 83 -991 0
-990 -83 -991 0
990 -83 991 0
-990 83 991 0
991 84 -992 0
-991 -84 -992 0
991 -84 992 0
-991 84 992 0
992 258 -993 0
-992 -258 -993 0
992 -258 993 0
-992 258 993 0
993 270 -994 0
-993 -270 -994 0
993 -270 994 0
-993 270 994 0
994 276 -995 0
-994 -276 -995 0
994 -276 995 0
-994 276 995 0
995 288 -996 0
-995 -288 -996 0
995 -288 996 0
-995 288 996 0
-996 0
81 82 -997 0
-81 -82 -997 0
81 -82 997 0
-81 82 997 0
997 84 -998 0
-997 -84 -998 0
997 -84 998 0
-997 84 998 0
998 85 -999 0
-998 -85 -999 0
998 -85 999 0
-998 85 999 0
999 259 -1000 0
-999 -259 -1000 0
999 -259 1000 0
-999 259 1000 0
1000 271 -1001 0
-1000 -271 -1001 0
1000 -271 1001 0
-1000 271 1001 0
1001 277 -1002 0
-1001 -277 -1002 0
1001 -277 1002 0
-1001 277 1002 0
1002 289 -1003 0
-1002 -289 -1003 0
1002 -289 1003 0
-1002 289 1003 0
-1003 0
82 83 -1004 0
-82 -83 -1004 0
82 -83 1004 0
-82 83 1004 0
1004 85 -1005 0
-1004 -85 -1005 0
1004 -85 1005 0
-1004 85 1005 0
1005 86 -1006 0
-1005 -86 -1006 0
1005 -86 1006 0
-1005 86 1006 0
1006 260 -1007 0
-1006 -260 -1007 0
1006 -260 1007 0
-1006 260 1007 0
1007 272 -1008 0
-1007 -272 -1008 0
1007 -272 1008 0
-1007 272 1008 0
1008 278 -1009 0
-1008 -278 -1009 0
1008 -278 1009 0
-1008 278 1009 0
1009 290 -1010 0
-1009 -290 -1010 0
1009 -290 1010 0
-1009 290 1010 0
-1010 0
83 84 -1011 0
-83 -84 -1011 0
83 -84 1011 0
-83 84 1011 0
1011 86 -1012 0
-1011 -86 -1012 0
1011 -86 1012 0
-1011 86 1012 0
1012 87 -1013 0
-1012 -87 -1013 0
1012 -87 1013 0
-1012 87 1013 0
1013 261 -1014 0
-1013 -261 -1014 0
1013 -261 1014 0
-1013 261 1014 0
1014 273 -1015 0
-1014 -273 -1015 0
1014 -273 1015 0
-1014 273 1015 0
1015 279 -1016 0
-1015 -279 -1016 0
1015 -279 1016 0
-1015 279 1016 0
1016 291 -1017 0
-1016 -291 -1017 0
1016 -291 1017 0
-1016 291 1017 0
-1017 0
84 85 -1018 0
-84 -85 -1018 0
84 -85 1018 0
-84 85 1018 0
1018 87 -1019 0
-1018 -87 -1019 0
1018 -87 1019 0
-1018 87 1019 0
1019 88 -1020 0
-1019 -88 -1020 0
1019 -88 1020 0
-1019 88 1020 0
1020 262 -1021 0
-1020 -262 -1021 0
1020 -262 1021 0
-1020 262 1021 0
1021 274 -1022 0
-1021 -274 -1022 0
1021 -274 1022 0
-1021 274 1022 0
1022 280 -1023 0
-1022 -280 -1023 0
1022 -280 1023 0
-1022 280 1023 0
1023 292 -1024 0
-1023 -292 -1024 0
1023 -292 1024 0
-1023 292 1024 0
-1024 0
85 86 -1025 0
-85 -86 -1025 0
85 -86 1025 0
-85 86 1025 0
1025 88 -1026 0
-1025 -88 -1026 0
1025 -88 1026 0
-1025 88 1026 0
1026 89 -1027 0
-1026 -89 -1027 0
1026 -89 1027 0
-1026 89 1027 0
1027 263 -1028 0
-1027 -263 -1028 0
1027 -263 1028 0
-1027 263 1028 0
1028 275 -1029 0
-1028 -275 -1029 0
1028 -275 1029 0
-1028 275 1029 0
1029 281 -1030 0
-1029 -281 -1030 0
1029 -281 1030 0
-1029 281 1030 0
1030 293 -1031 0
-1030 -293 -1031 0
1030 -293 1031 0
-1030 293 1031 0
-1031 0
86 87 -1032 0
-86 -87 -1032 0
86 -87 1032 0
-86 87 1032 0
1032 89 -1033 0
-1032 -89 -1033 0
1032 -89 1033 0
-1032 89 1033 0
1033 90 -1034 0
-1033 -90 -1034 0
1033 -90 1034 0
-1033 90 1034 0
1034 264 -1035 0
-1034 -264 -1035 0
1034 -264 1035 0
-1034 264 1035 0
1035 276 -1036 0
-1035 -276 -1036 0
1035 -276 1036 0
-1035 276 1036 0
1036 282 -1037 0
-1036 -282 -1037 0
1036 -282 1037 0
-1036 282 1037 0
1037 294 -1038 0
-1037 -294 -1038 0
1037 -294 1038 0
-1037 294 1038 0
-1038 0
87 88 -1039 0
-87 -88 -1039 0
87 -88 1039 0
-87 88 1039 0
1039 90 -1040 0
-1039 -90 -1040 0
1039 -90 1040 0
-1039 90 1040 0
1040 91 -1041 0
-1040 -91 -1041 0
1040 -91 1041 0
-1040 91 1041 0
1041 265 -1042 0
-1041 -265 -1042 0
1041 -265 1042 0
-1041 265 1042 0
1042 277 -1043 0
-1042 -277 -1043 0
1042 -277 1043 0
-1042 277 1043 0
1043 283 -1044 0
-1043 -283 -1044 0
1043 -283 1044 0
-1043 283 1044 0
1044 295 -1045 0
-1044 -295 -1045 0
1044 -295 1045 0
-1044 295 1045 0
-1045 0
88 89 -1046 0
-88 -89 -1046 0
88 -89 1046 0
-88 89 1046 0
1046 91 -1047 0
-1046 -91 -1047 0
1046 -91 1047 0
-1046 91 1047 0
1047 92 -1048 0
-1047 -92 -1048 0
1047 -92 1048 0
-1047 92 1048 0
1048 266 -1049 0
-1048 -266 -1049 0
1048 -266 1049 0
-1048 266 1049 0
1049 278 -1050 0
-1049 -278 -1050 0
1049 -278 1050 0
-1049 278 1050 0
1050 284 -1051 0
-1050 -284 -1051 0
1050 -284 1051 0
-1050 284 1051 0
1051 296 -1052 0
-1051 -296 -1052 0
1051 -296 1052 0
-1051 296 1052 0
-1052 0
89 90 -1053 0
-89 -90 -1053 0
89 -90 1053 0
-89 90 1053 0
1053 92 -1054 0
-1053 -92 -1054 0
1053 -92 1054 0
-1053 92 1054 0
1054 93 -1055 0
-1054 -93 -1055 0
1054 -93 1055 0
-1054 93 1055 0
1055 267 -1056 0
-1055 -267 -1056 0
1055 -267 1056 0
-1055 267 1056 0
1056 279 -1057 0
-1056 -279 -1057 0
1056 -279 1057 0
-1056 279 1057 0
1057 285 -1058 0
-1057 -285 -1058 0
1057 -285 1058 0
-1057 285 1058 0
1058 297 -1059 0
-1058 -297 -1059 0
1058 -297 1059 0
-1058 297 1059 0
-1059 0
90 91 -1060 0
-90 -91 -1060 0
90 -91 1060 0
-90 91 1060 0
1060 93 -1061 0
-1060 -93 -1061 0
1060 -93 1061 0
-1060 93 1061 0
1061 94 -1062 0
-1061 -94 -1062 0
1061 -94 1062 0
-1061 94 1062 0
1062 268 -1063 0
-1062 -268 -1063 0
1062 -268 1063 0
-1062 268 1063 0
1063 280 -1064 0
-1063 -280 -1064 0
1063 -280 1064 0
-1063 280 1064 0
1064 286 -1065 0
-1064 -286 -1065 0
1064 -286 1065 0
-1064 286 1065 0
1065 298 -1066 0
-1065 -298 -1066 0
1065 -298 1066 0
-1065 298 1066 0
-1066 0
91 92 -1067 0
-91 -92 -1067 0
91 -92 1067 0
-91 92 1067 0
1067 94 -1068 0
-1067 -94 -1068 0
1067 -94 1068 0
-1067 94 1068 0
1068 95 -1069 0
-1068 -95 -1069 0
1068 -95 1069 0
-1068 95 1069 0
1069 269 -1070 0
-1069 -269 -1070 0
1069 -269 1070 0
-1069 269 1070 0
1070 281 -1071 0
-1070 -281 -1071 0
1070 -281 1071 0
-1070 281 1071 0
1071 287 -1072 0
-1071 -287 -1072 0
1071 -287 1072 0
-1071 287 1072 0
1072 299 -1073 0
-1072 -299 -1073 0
1072 -299 1073 0
-1072 299 1073 0
-1073 0
92 93 -1074 0
-92 -93 -1074 0
92 -93 1074 0
-92 93 1074 0
1074 95 -1075 0
-1074 -95 -1075 0
1074 -95 1075 0
-1074 95 1075 0
1075 96 -1076 0
-1075 -96 -1076 0
1075 -96 1076 0
-1075 96 1076 0
1076 270 -1077 0
-1076 -270 -1077 0
1076 -270 1077 0
-1076 270 1077 0
1077 282 -1078 0
-1077 -282 -1078 0
1077 -282 1078 0
-1077 282 1078 0
1078 288 -1079 0
-1078 -288 -1079 0
1078 -288 1079 0
-1078 288 1079 0
1079 300 -1080 0
-1079 -300 -1080 0
1079 -300 1080 0
-1079 300 1080 0
-1080 0
93 94 -1081 0
-93 -94 -1081 0
93 -94 1081 0
-93 94 1081 0
1081 96 -1082 0
-1081 -96 -1082 0
1081 -96 1082 0
-1081 96 1082 0
1082 97 -1083 0
-1082 -97 -1083 0
1082 -97 1083 0
-1082 97 1083 0
1083 271 -1084 0
-1083 -271 -1084 0
1083 -271 1084 0
-1083 271 1084 0
1084 283 -1085 0
-1084 -283 -1085 0
1084 -283 1085 0
-1084 283 1085 0
1085 289 -1086 0
-1085 -289 -1086 0
1085 -289 1086 0
-1085 289 1086 0
1086 301 -1087 0
-1086 -301 -1087 0
1086 -301 1087 0
-1086 301 1087 0
-1087 0
94 95 -1088 0
-94 -95 -1088 0
94 -95 1088 0
-94 95 1088 0
1088 97 -1089 0
-1088 -97 -1089 0
1088 -97 1089 0
-1088 97 1089 0
1089 98 -1090 0
-1089 -98 -1090 0
1089 -98 1090 0
-1089 98 1090 0
1090 272 -1091 0
-1090 -272 -1091 0
1090 -272 1091 0
-1090 272 1091 0
1091 284 -1092 0
-1091 -284 -1092 0
1091 -284 1092 0
-1091 284 1092 0
1092 290 -1093 0
-1092 -290 -1093 0
1092 -290 1093 0
-1092 290 1093 0
1093 302 -1094 0
-1093 -302 -1094 0
1093 -302 1094 0
-1093 302 1094 0
-1094 0
95 96 -1095 0
-95 -96 -1095 0
95 -96 1095 0
-95 96 1095 0
1095 98 -1096 0
-1095 -98 -1096 0
1095 -98 1096 0
-1095 98 1096 0
1096 99 -1097 0
-1096 -99 -1097 0
1096 -99 1097 0
-1096 99 1097 0
1097 273 -1098 0
-1097 -273 -1098 0
1097 -273 1098 0
-1097 273 1098 0
1098 285 -1099 0
-1098 -285 -1099 0
1098 -285 1099 0
-1098 285 1099 0
1099 291 -1100 0
-1099 -291 -1100 0
1099 -291 1100 0
-1099 291 1100 0
1100 303 -1101 0
-1100 -303 -1101 0
1100 -303 1101 0
-1100 303 1101 0
-1101 0
96 97 -1102 0
-96 -97 -1102 0
96 -97 1102 0
-96 97 1102 0
1102 99 -1103 0
-1102 -99 -1103 0
1102 -99 1103 0
-1102 99 1103 0
1103 100 -1104 0
-1103 -100 -1104 0
1103 -100 1104 0
-1103 100 1104 0
1104 274 -1105 0
-1104 -274 -1105 0
1104 -274 1105 0
-1104 274 1105 0
1105 286 -1106 0
-1105 -286 -1106 0
1105 -286 1106 0
-1105 286 1106 0
1106 292 -1107 0
-1106 -292 -1107 0
1106 -292 1107 0
-1106 292 1107 0
1107 304 -1108 0
-1107 -304 -1108 0
1107 -304 1108 0
-1107 304 1108 0
-1108 0
97 98 -1109 0
-97 -98 -1109 0
97 -98 1109 0
-97 98 1109 0
1109 100 -1110 0
-1109 -100 -1110 0
1109 -100 1110 0
-1109 100 1110 0
1110 101 -1111 0
-1110 -101 -1111 0
1110 -101 1111 0
-1110 101 1111 0
1111 275 -1112 0
-1111 -275 -1112 0
1111 -275 1112 0
-1111 275 1112 0
1112 287 -1113 0
-1112 -287 -1113 0
1112 -287 1113 0
-1112 287 1113 0
1113 293 -1114 0
-1113 -293 -1114 0
1113 -293 1114 0
-1113 293 1114 0
1114 305 -1115 0
-1114 -305 -1115 0
1114 -305 1115 0
-1114 305 1115 0
-1115 0
98 99 -1116 0
-98 -99 -1116 0
98 -99 1116 0
-98 99 1116 0
1116 101 -1117 0
-1116 -101 -1117 0
1116 -101 1117 0
-1116 101 1117 0
1117 102 -1118 0
-1117 -102 -1118 0
1117 -102 1118 0
-1117 102 1118 0
1118 276 -1119 0
-1118 -276 -1119 0
1118 -276 1119 0
-1118 276 1119 0
1119 288 -1120 0
-1119 -288 -1120 0
1119 -288 1120 0
-1119 288 1120 0
1120 294 -1121 0
-1120 -294 -1121 0
1120 -294 1121 0
-1120 294 1121 0
1121 306 -1122 0
-1121 -306 -1122 0
1121 -306 1122 0
-1121 306 1122 0
-1122 0
99 100 -1123 0
-99 -100 -1123 0
99 -100 1123 0
-99 100 1123 0
1123 102 -1124 0
-1123 -102 -1124 0
1123 -102 1124 0
-1123 102 1124 0
1124 103 -1125 0
-1124 -103 -1125 0
1124 -103 1125 0
-1124 103 1125 0
1125 277 -1126 0
-1125 -277 -1126 0
1125 -277 1126 0
-1125 277 1126 0
1126 289 -1127 0
-1126 -289 -1127 0
1126 -289 1127 0
-1126 289 1127 0
1127 295 -1128 0
-1127 -295 -1128 0
1127 -295 1128 0
-1127 295 1128 0
1128 307 -1129 0
-1128 -307 -1129 0
1128 -307 1129 0
-1128 307 1129 0
-1129 0
100 101 -1130 0
-100 -101 -1130 0
100 -101 1130 0
-100 101 1130 0
1130 103 -1131 0
-1130 -103 -1131 0
1130 -103 1131 0
-1130 103 1131 0
1131 104 -1132 0
-1131 -104 -1132 0
1131 -104 1132 0
-1131 104 1132 0
1132 278 -1133 0
-1132 -278 -1133 0
1132 -278 1133 0
-1132 278 1133 0
1133 290 -1134 0
-1133 -290 -1134 0
1133 -290 1134 0
-1133 290 1134 0
1134 296 -1135 0
-1134 -296 -1135 0
1134 -296 1135 0
-1134 296 1135 0
1135 308 -1136 0
-1135 -308 -1136 0
1135 -308 1136 0
-1135 308 1136 0
-1136 0
101 102 -1137 0
-101 -102 -1137 0
101 -102 1137 0
-101 102 1137 0
1137 104 -1138 0
-1137 -104 -1138 0
1137 -104 1138 0
-1137 104 1138 0
1138 105 -1139 0
-1138 -105 -1139 0
1138 -105 1139 0
-1138 105 1139 0
1139 279 -1140 0
-1139 -279 -1140 0
1139 -279 1140 0
-1139 279 1140 0
1140 291 -1141 0
-1140 -291 -1141 0
1140 -291 1141 0
-1140 291 1141 0
1141 297 -1142 0
-1141 -297 -1142 0
1141 -297 1142 0
-1141 297 1142 0
1142 309 -1143 0
-1142 -309 -1143 0
1142 -309 1143 0
-1142 309 1143 0
-1143 0
102 103 -1144 0
-102 -103 -1144 0
102 -103 1144 0
-102 103 1144 0
1144 105 -1145 0
-1144 -105 -1145 0
1144 -105 1145 0
-1144 105 1145 0
1145 106 -1146 0
-1145 -106 -1146 0
1145 -106 1146 0
-1145 106 1146 0
1146 280 -1147 0
-1146 -280 -1147 0
1146 -280 1147 0
-1146 280 1147 0
1147 292 -1148 0
-1147 -292 -1148 0
1147 -292 1148 0
-1147 292 1148 0
1148 298 -1149 0
-1148 -298 -1149 0
1148 -298 1149 0
-1148 298 1149 0
1149 310 -1150 0
-1149 -310 -1150 0
1149 -310 1150 0
-1149 310 1150 0
-1150 0
103 104 -1151 0
-103 -104 -1151 0
103 -104 1151 0
-103 104 1151 0
1151 106 -1152 0
-1151 -106 -1152 0
1151 -106 1152 0
-1151 106 1152 0
1152 107 -1153 0
-1152 -107 -1153 0
1152 -107 1153 0
-1152 107 1153 0
1153 281 -1154 0
-1153 -281 -1154 0
1153 -281 1154 0
-1153 281 1154 0
1154 293 -1155 0
-1154 -293 -1155 0
1154 -293 1155 0
-1154 293 1155 0
1155 299 -1156 0
-1155 -299 -1156 0
1155 -299 1156 0
-1155 299 1156 0
1156 311 -1157 0
-1156 -311 -1157 0
1156 -311 1157 0
-1156 311 1157 0
-1157 0
104 105 -1158 0
-104 -105 -1158 0
104 -105 1158 0
-104 105 1158 0
1158 107 -1159 0
-1158 -107 -1159 0
1158 -107 1159 0
-1158 107 1159 0
1159 108 -1160 0
-1159 -108 -1160 0
1159 -108 1160 0
-1159 108 1160 0
1160 282 -1161 0
-1160 -282 -1161 0
1160 -282 1161 0
-1160 282 1161 0
1161 294 -1162 0
-1161 -294 -1162 0
1161 -294 1162 0
-1161 294 1162 0
1162 300 -1163 0
-1162 -300 -1163 0
1162 -300 1163 0
-1162 300 1163 0
1163 312 -1164 0
-1163 -312 -1164 0
1163 -312 1164 0
-1163 312 1164 0
-1164 0
105 106 -1165 0
-105 -106 -1165 0
105 -106 1165 0
-105 106 1165 0
1165 108 -1166 0
-1165 -108 -1166 0
1165 -108 1166 0
-1165 108 1166 0
1166 109 -1167 0
-1166 -109 -1167 0
1166 -109 1167 0
-1166 109 1167 0
1167 283 -1168 0
-1167 -283 -1168 0
1167 -283 1168 0
-1167 283 1168 0
1168 295 -1169 0
-1168 -295 -1169 0
1168 -295 1169 0
-1168 295 1169 0
1169 301 -1170 0
-1169 -301 -1170 0
1169 -301 1170 0
-1169 301 1170 0
1170 313 -1171 0
-1170 -313 -1171 0
1170 -313 1171 0
-1170 313 1171 0
-1171 0
106 107 -1172 0
-106 -107 -1172 0
106 -107 1172 0
-106 107 1172 0
1172 109 -1173 0
-1172 -109 -1173 0
1172 -109 1173 0
-1172 109 1173 0
1173 110 -1174 0
-1173 -110 -1174 0
1173 -110 1174 0
-1173 110 1174 0
1174 284 -1175 0
-1174 -284 -1175 0
1174 -284 1175 0
-1174 284 1175 0
1175 296 -1176 0
-1175 -296 -1176 0
1175 -296 1176 0
-1175 296 1176 0
1176 302 -1177 0
-1176 -302 -1177 0
1176 -302 1177 0
-1176 302 1177 0
1177 314 -1178 0
-1177 -314 -1178 0
1177 -314 1178 0
-1177 314 1178 0
-1178 0
107 108 -1179 0
-107 -108 -1179 0
107 -108 1179 0
-107 108 1179 0
1179 110 -1180 0
-1179 -110 -1180 0
1179 -110 1180 0
-1179 110 1180 0
1180 111 -1181 0
-1180 -111 -1181 0
1180 -111 1181 0
-1180 111 1181 0
1181 285 -1182 0
-1181 -285 -1182 0
1181 -285 1182 0
-1181 285 1182 0
1182 297 -1183 0
-1182 -297 -1183 0
1182 -297 1183 0
-1182 297 1183 0
1183 303 -1184 0
-1183 -303 -1184 0
1183 -303 1184 0
-1183 303 1184 0
1184 315 -1185 0
-1184 -315 -1185 0
1184 -315 1185 0
-1184 315 1185 0
-1185 0
108 109 -1186 0
-108 -109 -1186 0
108 -109 1186 0
-108 109 1186 0
1186 111 -1187 0
-1186 -111 -1187 0
1186 -111 1187 0
-1186 111 1187 0
1187 112 -1188 0
-1187 -112 -1188 0
1187 -112 1188 0
-1187 112 1188 0
1188 286 -1189 0
-1188 -286 -1189 0
1188 -286 1189 0
-1188 286 1189 0
1189 298 -1190 0
-1189 -298 -1190 0
1189 -298 1190 0
-1189 298 1190 0
1190 304 -1191 0
-1190 -304 -1191 0
1190 -304 1191 0
-1190 304 1191 0
1191 316 -1192 0
-1191 -316 -1192 0
1191 -316 1192 0
-1191 316 1192 0
-1192 0
109 110 -1193 0
-109 -110 -1193 0
109 -110 1193 0
-109 110 1193 0
1193 112 -1194 0
-1193 -112 -1194 0
1193 -112 1194 0
-1193 112 1194 0
1194 113 -1195 0
-1194 -113 -1195 0
1194 -113 1195 0
-1194 113 1195 0
1195 287 -1196 0
-1195 -287 -1196 0
1195 -287 1196 0
-1195 287 1196 0
1196 299 -1197 0
-1196 -299 -1197 0
1196 -299 1197 0
-1196 299 1197 0
1197 305 -1198 0
-1197 -305 -1198 0
1197 -305 1198 0
-1197 305 1198 0
1198 317 -1199 0
-1198 -317 -1199 0
1198 -317 1199 0
-1198 317 1199 0
-1199 0
110 111 -1200 0
-110 -111 -1200 0
110 -111 1200 0
-110 111 1200 0
1200 113 -1201 0
-1200 -113 -1201 0
1200 -113 1201 0
-1200 113 1201 0
1201 114 -1202 0
-1201 -114 -1202 0
1201 -114 1202 0
-1201 114 1202 0
1202 288 -1203 0
-1202 -288 -1203 0
1202 -288 1203 0
-1202 288 1203 0
1203 300 -1204 0
-1203 -300 -1204 0
1203 -300 1204 0
-1203 300 1204 0
1204 306 -1205 0
-1204 -306 -1205 0
1204 -306 1205 0
-1204 306 1205 0
1205 318 -1206 0
-1205 -318 -1206 0
1205 -318 1206 0
-1205 318 1206 0
-1206 0
111 112 -1207 0
-111 -112 -1207 0
111 -112 1207 0
-111 112 1207 0
1207 114 -1208 0
-1207 -114 -1208 0
1207 -114 1208 0
-1207 114 1208 0
1208 115 -1209 0
-1208 -115 -1209 0
1208 -115 1209 0
-1208 115 1209 0
1209 289 -1210 0
-1209 -289 -1210 0
1209 -289 1210 0
-1209 289 1210 0
1210 301 -1211 0
-1210 -301 -1211 0
1210 -301 1211 0
-1210 301 1211 0
1211 307 -1212 0
-1211 -307 -1212 0
1211 -307 1212 0
-1211 307 1212 0
1212 319 -1213 0
-1212 -319 -1213 0
1212 -319 1213 0
-1212 319 1213 0
-1213 0
112 113 -1214 0
-112 -113 -1214 0
112 -113 1214 0
-112 113 1214 0
1214 115 -1215 0
-1214 -115 -1215 0
1214 -115 1215 0
-1214 115 1215 0
1215 116 -1216 0
-1215 -116 -1216 0
1215 -116 1216 0
-1215 116 1216 0
1216 290 -1217 0
-1216 -290 -1217 0
1216 -290 1217 0
-1216 290 1217 0
1217 302 -1218 0
-1217 -302 -1218 0
1217 -302 1218 0
-1217 302 1218 0
1218 308 -1219 0
-1218 -308 -1219 0
1218 -308 1219 0
-1218 308 1219 0
1219 320 -1220 0
-1219 -320 -1220 0
1219 -320 1220 0
-1219 320 1220 0
-1220 0
113 114 -1221 0
-113 -114 -1221 0
113 -114 1221 0
-113 114 1221 0
1221 116 -1222 0
-1221 -116 -1222 0
1221 -116 1222 0
-1221 116 1222 0
1222 117 -1223 0
-1222 -117 -1223 0
1222 -117 1223 0
-1222 117 1223 0
1223 291 -1224 0
-1223 -291 -1224 0
1223 -291 1224 0
-1223 291 1224 0
1224 303 -1225 0
-1224 -303 -1225 0
1224 -303 1225 0
-1224 303 1225 0
1225 309 -1226 0
-1225 -309 -1226 0
1225 -309 1226 0
-1225 309 1226 0
1226 321 -1227 0
-1226 -321 -1227 0
1226 -321 1227 0
-1226 321 1227 0
-1227 0
114 115 -1228 0
-114 -115 -1228 0
114 -115 1228 0
-114 115 1228 0
1228 117 -1229 0
-1228 -117 -1229 0
1228 -117 1229 0
-1228 117 1229 0
1229 118 -1230 0
-1229 -118 -1230 0
1229 -118 1230 0
-1229 118 1230 0
1230 292 -1231 0
-1230 -292 -1231 0
1230 -292 1231 0
-1230 292 1231 0
1231 304 -1232 0
-1231 -304 -1232 0
1231 -304 1232 0
-1231 304 1232 0
1232 310 -1233 0
-1232 -310 -1233 0
1232 -310 1233 0
-1232 310 1233 0
1233 322 -1234 0
-1233 -322 -1234 0
1233 -322 1234 0
-1233 322 1234 0
-1234 0
115 116 -1235 0
-115 -116 -1235 0
115 -116 1235 0
-115 116 1235 0
1235 118 -1236 0
-1235 -118 -1236 0
1235 -118 1236 0
-1235 118 1236 0
1236 119 -1237 0
-1236 -119 -1237 0
1236 -119 1237 0
-1236 119 1237 0
1237 293 -1238 0
-1237 -293 -1238 0
1237 -293 1238 0
-1237 293 1238 0
1238 305 -1239 0
-1238 -305 -1239 0
1238 -305 1239 0
-1238 305 1239 0
1239 311 -1240 0
-1239 -311 -1240 0
1239 -311 1240 0
-1239 311 1240 0
1240 323 -1241 0
-1240 -323 -1241 0
1240 -323 1241 0
-1240 323 1241 0
-1241 0
116 117 -1242 0
-116 -117 -1242 0
116 -117 1242 0
-116 117 1242 0
1242 119 -1243 0
-1242 -119 -1243 0
1242 -119 1243 0
-1242 119 1243 0
1243 120 -1244 0
-1243 -120 -1244 0
1243 -120 1244 0
-1243 120 1244 0
1244 294 -1245 0
-1244 -294 -1245 0
1244 -294 1245 0
-1244 294 1245 0
1245 306 -1246 0
-1245 -306 -1246 0
1245 -306 1246 0
-1245 306 1246 0
1246 312 -1247 0
-1246 -312 -1247 0
1246 -312 1247 0
-1246 312 1247 0
1247 324 -1248 0
-1247 -324 -1248 0
1247 -324 1248 0
-1247 324 1248 0
-1248 0
117 118 -1249 0
-117 -118 -1249 0
117 -118 1249 0
-117 118 1249 0
1249 120 -1250 0
-1249 -120 -1250 0
1249 -120 1250 0
-1249 120 1250 0
1250 121 -1251 0
-1250 -121 -1251 0
1250 -121 1251 0
-1250 121 1251 0
1251 295 -1252 0
-1251 -295 -1252 0
1251 -295 1252 0
-1251 295 1252 0
1252 307 -1253 0
-1252 -307 -1253 0
1252 -307 1253 0
-1252 307 1253 0
1253 313 -1254 0
-1253 -313 -1254 0
1253 -313 1254 0
-1253 313 1254 0
1254 325 -1255 0
-1254 -325 -1255 0
1254 -325 1255 0
-1254 325 1255 0
-1255 0
118 119 -1256 0
-118 -119 -1256 0
118 -119 1256 0
-118 119 1256 0
1256 121 -1257 0
-1256 -121 -1257 0
1256 -121 1257 0
-1256 121 1257 0
1257 122 -1258 0
-1257 -122 -1258 0
1257 -122 1258 0
-1257 122 1258 0
1258 296 -1259 0
-1258 -296 -1259 0
1258 -296 1259 0
-1258 296 1259 0
1259 308 -1260 0
-1259 -308 -1260 0
1259 -308 1260 0
-1259 308 1260 0
1260 314 -1261 0
-1260 -314 -1261 0
1260 -314 1261 0
-1260 314 1261 0
1261 326 -1262 0
-1261 -326 -1262 0
1261 -326 1262 0
-1261 326 1262 0
-1262 0
119 120 -1263 0
-119 -120 -1263 0
119 -120 1263 0
-119 120 1263 0
1263 122 -1264 0
-1263 -122 -1264 0
1263 -122 1264 0
-1263 122 1264 0
1264 123 -1265 0
-1264 -123 -1265 0
1264 -123 1265 0
-1264 123 1265 0
1265 297 -1266 0
-1265 -297 -1266 0
1265 -297 1266 0
-1265 297 1266 0
1266 309 -1267 0
-1266 -309 -1267 0
1266 -309 1267 0
-1266 309 1267 0
1267 315 -1268 0
-1267 -315 -1268 0
1267 -315 1268 0
-1267 315 1268 0
1268 327 -1269 0
-1268 -327 -1269 0
1268 -327 1269 0
-1268 327 1269 0
-1269 0
120 121 -1270 0
-120 -121 -1270 0
120 -121 1270 0
-120 121 1270 0
1270 123 -1271 0
-1270 -123 -1271 0
1270 -123 1271 0
-1270 123 1271 0
1271 124 -1272 0
-1271 -124 -1272 0
1271 -124 1272 0
-1271 124 1272 0
1272 298 -1273 0
-1272 -298 -1273 0
1272 -298 1273 0
-1272 298 1273 0
1273 310 -1274 0
-1273 -310 -1274 0
1273 -310 1274 0
-1273 310 1274 0
1274 316 -1275 0
-1274 -316 -1275 0
1274 -316 1275 0
-1274 316 1275 0
1275 328 -1276 0
-1275 -328 -1276 0
1275 -328 1276 0
-1275 328 1276 0
-1276 0
121 122 -1277 0
-121 -122 -1277 0
121 -122 1277 0
-121 122 1277 0
1277 124 -1278 0
-1277 -124 -1278 0
1277 -124 1278 0
-1277 124 1278 0
1278 125 -1279 0
-1278 -125 -1279 0
1278 -125 1279 0
-1278 125 1279 0
1279 299 -1280 0
-1279 -299 -1280 0
1279 -299 1280 0
-1279 299 1280 0
1280 311 -1281 0
-1280 -311 -1281 0
1280 -311 1281 0
-1280 311 1281 0
1281 317 -1282 0
-1281 -317 -1282 0
1281 -317 1282 0
-1281 317 1282 0
1282 329 -1283 0
-1282 -329 -1283 0
1282 -329 1283 0
-1282 329 1283 0
-1283 0
122 123 -1284 0
-122 -123 -1284 0
122 -123 1284 0
-122 123 1284 0
1284 125 -1285 0
-1284 -125 -1285 0
1284 -125 1285 0
-1284 125 1285 0
1285 126 -1286 0
-1285 -126 -1286 0
1285 -126 1286 0
-1285 126 1286 0
1286 300 -1287 0
-1286 -300 -1287 0
1286 -300 1287 0
-1286 300 1287 0
1287 312 -1288 0
-1287 -312 -1288 0
1287 -312 1288 0
-1287 312 1288 0
1288 318 -1289 0
-1288 -318 -1289 0
1288 -318 1289 0
-1288 318 1289 0
1289 330 -1290 0
-1289 -330 -1290 0
1289 -330 1290 0
-1289 330 1290 0
-1290 0
123 124 -1291 0
-123 -124 -1291 0
123 -124 1291 0
-123 124 1291 0
1291 126 -1292 0
-1291 -126 -1292 0
1291 -126 1292 0
-1291 126 1292 0
1292 127 -1293 0
-1292 -127 -1293 0
1292 -127 1293 0
-1292 127 1293 0
1293 301 -1294 0
-1293 -301 -1294 0
1293 -301 1294 0
-1293 301 1294 0
1294 313 -1295 0
-1294 -313 -1295 0
1294 -313 1295 0
-1294 313 1295 0
1295 319 -1296 0
-1295 -319 -1296 0
1295 -319 1296 0
-1295 319 1296 0
1296 331 -1297 0
-1296 -331 -1297 0
1296 -331 1297 0
-1296 331 1297 0
-1297 0
124 125 -1298 0
-124 -125 -1298 0
124 -125 1298 0
-124 125 1298 0
1298 127 -1299 0
-1298 -127 -1299 0
1298 -127 1299 0
-1298 127 1299 0
1299 128 -1300 0
-1299 -128 -1300 0
1299 -128 1300 0
-1299 128 1300 0
1300 302 -1301 0
-1300 -302 -1301 0
1300 -302 1301 0
-1300 302 1301 0
1301 314 -1302 0
-1301 -314 -1302 0
1301 -314 1302 0
-1301 314 1302 0
1302 320 -1303 0
-1302 -320 -1303 0
1302 -320 1303 0
-1302 320 1303 0
1303 332 -1304 0
-1303 -332 -1304 0
1303 -332 1304 0
-1303 332 1304 0
-1304 0
125 126 -1305 0
-125 -126 -1305 0
125 -126 1305 0
-125 126 1305 0
1305 128 -1306 0
-1305 -128 -1306 0
1305 -128 1306 0
-1305 128 1306 0
1306 129 -1307 0
-1306 -129 -1307 0
1306 -129 1307 0
-1306 129 1307 0
1307 303 -1308 0
-1307 -303 -1308 0
1307 -303 1308 0
-1307 303 1308 0
1308 315 -1309 0
-1308 -315 -1309 0
1308 -315 1309 0
-1308 315 1309 0
1309 321 -1310 0
-1309 -321 -1310 0
1309 -321 1310 0
-1309 321 1310 0
1310 333 -1311 0
-1310 -333 -1311 0
1310 -333 1311 0
-1310 333 1311 0
-1311 0
126 127 -1312 0
-126 -127 -1312 0
126 -127 1312 0
-126 127 1312 0
1312 129 -1313 0
-1312 -129 -1313 0
1312 -129 1313 0
-1312 129 1313 0
1313 130 -1314 0
-1313 -130 -1314 0
1313 -130 1314 0
-1313 130 1314 0
1314 304 -1315 0
-1314 -304 -1315 0
1314 -304 1315 0
-1314 304 1315 0
1315 316 -1316 0
-1315 -316 -1316 0
1315 -316 1316 0
-1315 316 1316 0
1316 322 -1317 0
-1316 -322 -1317 0
1316 -322 1317 0
-1316 322 1317 0
1317 334 -1318 0
-1317 -334 -1318 0
1317 -334 1318 0
-1317 334 1318 0
-1318 0
127 128 -1319 0
-127 -128 -1319 0
127 -128 1319 0
-127 128 1319 0
1319 130 -1320 0
-1319 -130 -1320 0
1319 -130 1320 0
-1319 130 1320 0
1320 131 -1321 0
-1320 -131 -1321 0
1320 -131 1321 0
-1320 131 1321 0
1321 305 -1322 0
-1321 -305 -1322 0
1321 -305 1322 0
-1321 305 1322 0
1322 317 -1323 0
-1322 -317 -1323 0
1322 -317 1323 0
-1322 317 1323 0
1323 323 -1324 0
-1323 -323 -1324 0
1323 -323 1324 0
-1323 323 1324 0
1324 335 -1325 0
-1324 -335 -1325 0
1324 -335 1325 0
-1324 335 1325 0
-1325 0
128 129 -1326 0
-128 -129 -1326 0
128 -129 1326 0
-128 129 1326 0
1326 131 -1327 0
-1326 -131 -1327 0
1326 -131 1327 0
-1326 131 1327 0
1327 132 -1328 0
-1327 -132 -1328 0
1327 -132 1328 0
-1327 132 1328 0
1328 306 -1329 0
-1328 -306 -1329 0
1328 -306 1329 0
-1328 306 1329 0
1329 318 -1330 0
-1329 -318 -1330 0
1329 -318 1330 0
-1329 318 1330 0
1330 324 -1331 0
-1330 -324 -1331 0
1330 -324 1331 0
-1330 324 1331 0
1331 336 -1332 0
-1331 -336 -1332 0
1331 -336 1332 0
-1331 336 1332 0
-1332 0
129 130 -1333 0
-129 -130 -1333 0
129 -130 1333 0
-129 130 1333 0
1333 132 -1334 0
-1333 -132 -1334 0
1333 -132 1334 0
-1333 132 1334 0
1334 133 -1335 0
-1334 -133 -1335 0
1334 -133 1335 0
-1334 133 1335 0
1335 307 -1336 0
-1335 -307 -1336 0
1335 -307 1336 0
-1335 307 1336 0
1336 319 -1337 0
-1336 -319 -1337 0
1336 -319 1337 0
-1336 319 1337 0
1337 325 -1338 0
-1337 -325 -1338 0
1337 -325 1338 0
-1337 325 1338 0
1338 337 -1339 0
-1338 -337 -1339 0
1338 -337 1339 0
-1338 337 1339 0
-1339 0
130 131 -1340 0
-130 -131 -1340 0
130 -131 1340 0
-130 131 1340 0
1340 133 -1341 0
-1340 -133 -1341 0
1340 -133 1341 0
-1340 133 1341 0
1341 134 -1342 0
-1341 -134 -1342 0
1341 -134 1342 0
-1341 134 1342 0
1342 308 -1343 0
-1342 -308 -1343 0
1342 -308 1343 0
-1342 308 1343 0
1343 320 -1344 0
-1343 -320 -1344 0
1343 -320 1344 0
-1343 320 1344 0
1344 326 -1345 0
-1344 -326 -1345 0
1344 -326 1345 0
-1344 326 1345 0
1345 338 -1346 0
-1345 -338 -1346 0
1345 -338 1346 0
-1345 338 1346 0
-1346 0
131 132 -1347 0
-131 -132 -1347 0
131 -132 1347 0
-131 132 1347 0
1347 134 -1348 0
-1347 -134 -1348 0
1347 -134 1348 0
-1347 134 1348 0
1348 135 -1349 0
-1348 -135 -1349 0
1348 -135 1349 0
-1348 135 1349 0
1349 309 -1350 0
-1349 -309 -1350 0
1349 -309 1350 0
-1349 309 1350 0
1350 321 -1351 0
-1350 -321 -1351 0
1350 -321 1351 0
-1350 321 1351 0
1351 327 -1352 0
-1351 -327 -1352 0
1351 -327 1352 0
-1351 327 1352 0
1352 339 -1353 0
-1352 -339 -1353 0
1352 -339 1353 0
-1352 339 1353 0
-1353 0
132 133 -1354 0
-132 -133 -1354 0
132 -133 1354 0
-132 133 1354 0
1354 135 -1355 0
-1354 -135 -1355 0
1354 -135 1355 0
-1354 135 1355 0
1355 136 -1356 0
-1355 -136 -1356 0
1355 -136 1356 0
-1355 136 1356 0
1356 310 -1357 0
-1356 -310 -1357 0
1356 -310 1357 0
-1356 310 1357 0
1357 322 -1358 0
-1357 -322 -1358 0
1357 -322 1358 0
-1357 322 1358 0
1358 328 -1359 0
-1358 -328 -1359 0
1358 -328 1359 0
-1358 328 1359 0
1359 340 -1360 0
-1359 -340 -1360 0
1359 -340 1360 0
-1359 340 1360 0
-1360 0
133 134 -1361 0
-133 -134 -1361 0
133 -134 1361 0
-133 134 1361 0
1361 136 -1362 0
-1361 -136 -1362 0
1361 -136 1362 0
-1361 136 1362 0
1362 137 -1363 0
-1362 -137 -1363 0
1362 -137 1363 0
-1362 137 1363 0
1363 311 -1364 0
-1363 -311 -1364 0
1363 -311 1364 0
-1363 311 1364 0
1364 323 -1365 0
-1364 -323 -1365 0
1364 -323 1365 0
-1364 323 1365 0
1365 329 -1366 0
-1365 -329 -1366 0
1365 -329 1366 0
-1365 329 1366 0
1366 341 -1367 0
-1366 -341 -1367 0
1366 -341 1367 0
-1366 341 1367 0
-1367 0
134 135 -1368 0
-134 -135 -1368 0
134 -135 1368 0
-134 135 1368 0
1368 137 -1369 0
-1368 -137 -1369 0
1368 -137 1369 0
-1368 137 1369 0
1369 138 -1370 0
-1369 -138 -1370 0
1369 -138 1370 0
-1369 138 1370 0
1370 312 -1371 0
-1370 -312 -1371 0
1370 -312 1371 0
-1370 312 1371 0
1371 324 -1372 0
-1371 -324 -1372 0
1371 -324 1372 0
-1371 324 1372 0
1372 330 -1373 0
-1372 -330 -1373 0
1372 -330 1373 0
-1372 330 1373 0
1373 342 -1374 0
-1373 -342 -1374 0
1373 -342 1374 0
-1373 342 1374 0
-1374 0
135 136 -1375 0
-135 -136 -1375 0
135 -136 1375 0
-135 136 1375 0
1375 138 -1376 0
-1375 -138 -1376 0
1375 -138 1376 0
-1375 138 1376 0
1376 139 -1377 0
-1376 -139 -1377 0
1376 -139 1377 0
-1376 139 1377 0
1377 313 -1378 0
-1377 -313 -1378 0
1377 -313 1378 0
-1377 313 1378 0
1378 325 -1379 0
-1378 -325 -1379 0
1378 -325 1379 0
-1378 325 1379 0
1379 331 -1380 0
-1379 -331 -1380 0
1379 -331 1380 0
-1379 331 1380 0
1380 343 -1381 0
-1380 -343 -1381 0
1380 -343 1381 0
-1380 343 1381 0
-1381 0
136 137 -1382 0
-136 -137 -1382 0
136 -137 1382 0
-136 137 1382 0
1382 139 -1383 0
-1382 -139 -1383 0
1382 -139 1383 0
-1382 139 1383 0
1383 140 -1384 0
-1383 -140 -1384 0
1383 -140 1384 0
-1383 140 1384 0
1384 314 -1385 0
-1384 -314 -1385 0
1384 -314 1385 0
-1384 314 1385 0
1385 326 -1386 0
-1385 -326 -1386 0
1385 -326 1386 0
-1385 326 1386 0
1386 332 -1387 0
-1386 -332 -1387 0
1386 -332 1387 0
-1386 332 1387 0
1387 344 -1388 0
-1387 -344 -1388 0
1387 -344 1388 0
-1387 344 1388 0
-1388 0
137 138 -1389 0
-137 -138 -1389 0
137 -138 1389 0
-137 138 1389 0
1389 140 -1390 0
-1389 -140 -1390 0
1389 -140 1390 0
-1389 140 1390 0
1390 141 -1391 0
-1390 -141 -1391 0
1390 -141 1391 0
-1390 141 1391 0
1391 315 -1392 0
-1391 -315 -1392 0
1391 -315 1392 0
-1391 315 1392 0
1392 327 -1393 0
-1392 -327 -1393 0
1392 -327 1393 0
-1392 327 1393 0
1393 333 -1394 0
-1393 -333 -1394 0
1393 -333 1394 0
-1393 333 1394 0
1394 345 -1395 0
-1394 -345 -1395 0
1394 -345 1395 0
-1394 345 1395 0
-1395 0
138 139 -1396 0
-138 -139 -1396 0
138 -139 1396 0
-138 139 1396 0
1396 141 -1397 0
-1396 -141 -1397 0
1396 -141 1397 0
-1396 141 1397 0
1397 142 -1398 0
-1397 -142 -1398 0
1397 -142 1398 0
-1397 142 1398 0
1398 316 -1399 0
-1398 -316 -1399 0
1398 -316 1399 0
-1398 316 1399 0
1399 328 -1400 0
-1399 -328 -1400 0
1399 -328 1400 0
-1399 328 1400 0
1400 334 -1401 0
-1400 -334 -1401 0
1400 -334 1401 0
-1400 334 1401 0
1401 346 -1402 0
-1401 -346 -1402 0
1401 -346 1402 0
-1401 346 1402 0
-1402 0
139 140 -1403 0
-139 -140 -1403 0
139 -140 1403 0
-139 140 1403 0
1403 142 -1404 0
-1403 -142 -1404 0
1403 -142 1404 0
-1403 142 1404 0
1404 143 -1405 0
-1404 -143 -1405 0
1404 -143 1405 0
-1404 143 1405 0
1405 317 -1406 0
-1405 -317 -1406 0
1405 -317 1406 0
-1405 317 1406 0
1406 329 -1407 0
-1406 -329 -1407 0
1406 -329 1407 0
-1406 329 1407 0
1407 335 -1408 0
-1407 -335 -1408 0
1407 -335 1408 0
-1407 335 1408 0
1408 347 -1409 0
-1408 -347 -1409 0
1408 -347 1409 0
-1408 347 1409 0
-1409 0
140 141 -1410 0
-140 -141 -1410 0
140 -141 1410 0
-140 141 1410 0
1410 143 -1411 0
-1410 -143 -1411 0
1410 -143 1411 0
-1410 143 1411 0
1411 144 -1412 0
-1411 -144 -1412 0
1411 -144 1412 0
-1411 144 1412 0
1412 318 -1413 0
-1412 -318 -1413 0
1412 -318 1413 0
-1412 318 1413 0
1413 330 -1414 0
-1413 -330 -1414 0
1413 -330 1414 0
-1413 330 1414 0
1414 336 -1415 0
-1414 -336 -1415 0
1414 -336 1415 0
-1414 336 1415 0
1415 348 -1416 0
-1415 -348 -1416 0
1415 -348 1416 0
-1415 348 1416 0
-1416 0
141 142 -1417 0
-141 -142 -1417 0
141 -142 1417 0
-141 142 1417 0
1417 144 -1418 0
-1417 -144 -1418 0
1417 -144 1418 0
-1417 144 1418 0
1418 145 -1419 0
-1418 -145 -1419 0
1418 -145 1419 0
-1418 145 1419 0
1419 319 -1420 0
-1419 -319 -1420 0
1419 -319 1420 0
-1419 319 1420 0
1420 331 -1421 0
-1420 -331 -1421 0
1420 -331 1421 0
-1420 331 1421 0
1421 337 -1422 0
-1421 -337 -1422 0
1421 -337 1422 0
-1421 337 1422 0
1422 349 -1423 0
-1422 -349 -1423 0
1422 -349 1423 0
-1422 349 1423 0
-1423 0
142 143 -1424 0
-142 -143 -1424 0
142 -143 1424 0
-142 143 1424 0
1424 145 -1425 0
-1424 -145 -1425 0
1424 -145 1425 0
-1424 145 1425 0
1425 146 -1426 0
-1425 -146 -1426 0
1425 -146 1426 0
-1425 146 1426 0
1426 320 -1427 0
-1426 -320 -1427 0
1426 -320 1427 0
-1426 320 1427 0
1427 332 -1428 0
-1427 -332 -1428 0
1427 -332 1428 0
-1427 332 1428 0
1428 338 -1429 0
-1428 -338 -1429 0
1428 -338 1429 0
-1428 338 1429 0
1429 350 -1430 0
-1429 -350 -1430 0
1429 -350 1430 0
-1429 350 1430 0
-1430 0
143 144 -1431 0
-143 -144 -1431 0
143 -144 1431 0
-143 144 1431 0
1431 146 -1432 0
-1431 -146 -1432 0
1431 -146 1432 0
-1431 146 1432 0
1432 147 -1433 0
-1432 -147 -1433 0
1432 -147 1433 0
-1432 147 1433 0
1433 321 -1434 0
-1433 -321 -1434 0
1433 -321 1434 0
-1433 321 1434 0
1434 333 -1435 0
-1434 -333 -1435 0
1434 -333 1435 0
-1434 333 1435 0
1435 339 -1436 0
-1435 -339 -1436 0
1435 -339 1436 0
-1435 339 1436 0
1436 351 -1437 0
-1436 -351 -1437 0
1436 -351 1437 0
-1436 351 1437 0
-1437 0
144 145 -1438 0
-144 -145 -1438 0
144 -145 1438 0
-144 145 1438 0
1438 147 -1439 0
-1438 -147 -1439 0
1438 -147 1439 0
-1438 147 1439 0
1439 148 -1440 0
-1439 -148 -1440 0
1439 -148 1440 0
-1439 148 1440 0
1440 322 -1441 0
-1440 -322 -1441 0
1440 -322 1441 0
-1440 322 1441 0
1441 334 -1442 0
-1441 -334 -1442 0
1441 -334 1442 0
-1441 334 1442 0
1442 340 -1443 0
-1442 -340 -1443 0
1442 -340 1443 0
-1442 340 1443 0
1443 352 -1444 0
-1443 -352 -1444 0
1443 -352 1444 0
-1443 352 1444 0
-1444 0
145 146 -1445 0
-145 -146 -1445 0
145 -146 1445 0
-145 146 1445 0
1445 148 -1446 0
-1445 -148 -1446 0
1445 -148 1446 0
-1445 148 1446 0
1446 149 -1447 0
-1446 -149 -1447 0
1446 -149 1447 0
-1446 149 1447 0
1447 323 -1448 0
-1447 -323 -1448 0
1447 -323 1448 0
-1447 323 1448 0
1448 335 -1449 0
-1448 -335 -1449 0
1448 -335 1449 0
-1448 335 1449 0
1449 341 -1450 0
-1449 -341 -1450 0
1449 -341 1450 0
-1449 341 1450 0
1450 353 -1451 0
-1450 -353 -1451 0
1450 -353 1451 0
-1450 353 1451 0
-1451 0
146 147 -1452 0
-146 -147 -1452 0
146 -147 1452 0
-146 147 1452 0
1452 149 -1453 0
-1452 -149 -1453 0
1452 -149 1453 0
-1452 149 1453 0
1453 150 -1454 0
-1453 -150 -1454 0
1453 -150 1454 0
-1453 150 1454 0
1454 324 -1455 0
-1454 -324 -1455 0
1454 -324 1455 0
-1454 324 1455 0
1455 336 -1456 0
-1455 -336 -1456 0
1455 -336 1456 0
-1455 336 1456 0
1456 342 -1457 0
-1456 -342 -1457 0
1456 -342 1457 0
-1456 342 1457 0
1457 354 -1458 0
-1457 -354 -1458 0
1457 -354 1458 0
-1457 354 1458 0
-1458 0
147 148 -1459 0
-147 -148 -1459 0
147 -148 1459 0
-147 148 1459 0
1459 150 -1460 0
-1459 -150 -1460 0
1459 -150 1460 0
-1459 150 1460 0
1460 151 -1461 0
-1460 -151 -1461 0
1460 -151 1461 0
-1460 151 1461 0
1461 325 -1462 0
-1461 -325 -1462 0
1461 -325 1462 0
-1461 325 1462 0
1462 337 -1463 0
-1462 -337 -1463 0
1462 -337 1463 0
-1462 337 1463 0
1463 343 -1464 0
-1463 -343 -1464 0
1463 -343 1464 0
-1463 343 1464 0
1464 355 -1465 0
-1464 -355 -1465 0
1464 -355 1465 0
-1464 355 1465 0
-1465 0
148 149 -1466 0
-148 -149 -1466 0
148 -149 1466 0
-148 149 1466 0
1466 151 -1467 0
-1466 -151 -1467 0
1466 -151 1467 0
-1466 151 1467 0
1467 152 -1468 0
-1467 -152 -1468 0
1467 -152 1468 0
-1467 152 1468 0
1468 326 -1469 0
-1468 -326 -1469 0
1468 -326 1469 0
-1468 326 1469 0
1469 338 -1470 0
-1469 -338 -1470 0
1469 -338 1470 0
-1469 338 1470 0
1470 344 -1471 0
-1470 -344 -1471 0
1470 -344 1471 0
-1470 344 1471 0
1471 356 -1472 0
-1471 -356 -1472 0
1471 -356 1472 0
-1471 356 1472 0
-1472 0
149 150 -1473 0
-149 -150 -1473 0
149 -150 1473 0
-149 150 1473 0
1473 152 -1474 0
-1473 -152 -1474 0
1473 -152 1474 0
-1473 152 1474 0
1474 153 -1475 0
-1474 -153 -1475 0
1474 -153 1475 0
-1474 153 1475 0
1475 327 -1476 0
-1475 -327 -1476 0
1475 -327 1476 0
-1475 327 1476 0
1476 339 -1477 0
-1476 -339 -1477 0
1476 -339 1477 0
-1476 339 1477 0
1477 345 -1478 0
-1477 -345 -1478 0
1477 -345 1478 0
-1477 345 1478 0
1478 357 -1479 0
-1478 -357 -1479 0
1478 -357 1479 0
-1478 357 1479 0
-1479 0
150 151 -1480 0
-150 -151 -1480 0
150 -151 1480 0
-150 151 1480 0
1480 153 -1481 0
-1480 -153 -1481 0
1480 -153 1481 0
-1480 153 1481 0
1481 154 -1482 0
-1481 -154 -1482 0
1481 -154 1482 0
-1481 154 1482 0
1482 328 -1483 0
-1482 -328 -1483 0
1482 -328 1483 0
-1482 328 1483 0
1483 340 -1484 0
-1483 -340 -1484 0
1483 -340 1484 0
-1483 340 1484 0
1484 346 -1485 0
-1484 -346 -1485 0
1484 -346 1485 0
-1484 346 1485 0
1485 358 -1486 0
-1485 -358 -1486 0
1485 -358 1486 0
-1485 358 1486 0
-1486 0
151 152 -1487 0
-151 -152 -1487 0
151 -152 1487 0
-151 152 1487 0
1487 154 -1488 0
-1487 -154 -1488 0
1487 -154 1488 0
-1487 154 1488 0
1488 155 -1489 0
-1488 -155 -1489 0
1488 -155 1489 0
-1488 155 1489 0
1489 329 -1490 0
-1489 -329 -1490 0
1489 -329 1490 0
-1489 329 1490 0
1490 341 -1491 0
-1490 -341 -1491 0
1490 -341 1491 0
-1490 341 1491 0
1491 347 -1492 0
-1491 -347 -1492 0
1491 -347 1492 0
-1491 347 1492 0
1492 359 -1493 0
-1492 -359 -1493 0
1492 -359 1493 0
-1492 359 1493 0
-1493 0
152 153 -1494 0
-152 -153 -1494 0
152 -153 1494 0
-152 153 1494 0
1494 155 -1495 0
-1494 -155 -1495 0
1494 -155 1495 0
-1494 155 1495 0
1495 156 -1496 0
-1495 -156 -1496 0
1495 -156 1496 0
-1495 156 1496 0
1496 330 -1497 0
-1496 -330 -1497 0
1496 -330 1497 0
-1496 330 1497 0
1497 342 -1498 0
-1497 -342 -1498 0
1497 -342 1498 0
-1497 342 1498 0
1498 348 -1499 0
-1498 -348 -1499 0
1498 -348 1499 0
-1498 348 1499 0
1499 360 -1500 0
-1499 -360 -1500 0
1499 -360 1500 0
-1499 360 1500 0
-1500 0
153 154 -1501 0
-153 -154 -1501 0
153 -154 1501 0
-153 154 1501 0
1501 156 -1502 0
-1501 -156 -1502 0
1501 -156 1502 0
-1501 156 1502 0
1502 157 -1503 0
-1502 -157 -1503 0
1502 -157 1503 0
-1502 157 1503 0
1503 331 -1504 0
-1503 -331 -1504 0
1503 -331 1504 0
-1503 331 1504 0
1504 343 -1505 0
-1504 -343 -1505 0
1504 -343 1505 0
-1504 343 1505 0
1505 349 -1506 0
-1505 -349 -1506 0
1505 -349 1506 0
-1505 349 1506 0
1506 361 -1507 0
-1506 -361 -1507 0
1506 -361 1507 0
-1506 361 1507 0
-1507 0
154 155 -1508 0
-154 -155 -1508 0
154 -155 1508 0
-154 155 1508 0
1508 157 -1509 0
-1508 -157 -1509 0
1508 -157 1509 0
-1508 157 1509 0
1509 158 -1510 0
-1509 -158 -1510 0
1509 -158 1510 0
-1509 158 1510 0
1510 332 -1511 0
-1510 -332 -1511 0
1510 -332 1511 0
-1510 332 1511 0
1511 344 -1512 0
-1511 -344 -1512 0
1511 -344 1512 0
-1511 344 1512 0
1512 350 -1513 0
-1512 -350 -1513 0
1512 -350 1513 0
-1512 350 1513 0
1513 362 -1514 0
-1513 -362 -1514 0
1513 -362 1514 0
-1513 362 1514 0
-1514 0
155 156 -1515 0
-155 -156 -1515 0
155 -156 1515 0
-155 156 1515 0
1515 158 -1516 0
-1515 -158 -1516 0
1515 -158 1516 0
-1515 158 1516 0
1516 159 -1517 0
-1516 -159 -1517 0
1516 -159 1517 0
-1516 159 1517 0
1517 333 -1518 0
-1517 -333 -1518 0
1517 -333 1518 0
-1517 333 1518 0
1518 345 -1519 0
-1518 -345 -1519 0
1518 -345 1519 0
-1518 345 1519 0
1519 351 -1520 0
-1519 -351 -1520 0
1519 -351 1520 0
-1519 351 1520 0
1520 363 -1521 0
-1520 -363 -1521 0
1520 -363 1521 0
-1520 363 1521 0
-1521 0
156 157 -1522 0
-156 -157 -1522 0
156 -157 1522 0
-156 157 1522 0
1522 159 -1523 0
-1522 -159 -1523 0
1522 -159 1523 0
-1522 159 1523 0
1523 160 -1524 0
-1523 -160 -1524 0
1523 -160 1524 0
-1523 160 1524 0
1524 334 -1525 0
-1524 -334 -1525 0
1524 -334 1525 0
-1524 334 1525 0
1525 346 -1526 0
-1525 -346 -1526 0
1525 -346 1526 0
-1525 346 1526 0
1526 352 -1527 0
-1526 -352 -1527 0
1526 -352 1527 0
-1526 352 1527 0
1527 364 -1528 0
-1527 -364 -1528 0
1527 -364 1528 0
-1527 364 1528 0
-1528 0
157 158 -1529 0
-157 -158 -1529 0
157 -158 1529 0
-157 158 1529 0
1529 160 -1530 0
-1529 -160 -1530 0
1529 -160 1530 0
-1529 160 1530 0
1530 161 -1531 0
-1530 -161 -1531 0
1530 -161 1531 0
-1530 161 1531 0
1531 335 -1532 0
-1531 -335 -1532 0
1531 -335 1532 0
-1531 335 1532 0
1532 347 -1533 0
-1532 -347 -1533 0
1532 -347 1533 0
-1532 347 1533 0
1533 353 -1534 0
-1533 -353 -1534 0
1533 -353 1534 0
-1533 353 1534 0
1534 365 -1535 0
-1534 -365 -1535 0
1534 -365 1535 0
-1534 365 1535 0
-1535 0
158 159 -1536 0
-158 -159 -1536 0
158 -159 1536 0
-158 159 1536 0
1536 161 -1537 0
-1536 -161 -1537 0
1536 -161 1537 0
-1536 161 1537 0
1537 162 -1538 0
-1537 -162 -1538 0
1537 -162 1538 0
-1537 162 1538 0
1538 336 -1539 0
-1538 -336 -1539 0
1538 -336 1539 0
-1538 336 1539 0
1539 348 -1540 0
-1539 -348 -1540 0
1539 -348 1540 0
-1539 348 1540 0
1540 354 -1541 0
-1540 -354 -1541 0
1540 -354 1541 0
-1540 354 1541 0
1541 366 -1542 0
-1541 -366 -1542 0
1541 -366 1542 0
-1541 366 1542 0
-1542 0
159 160 -1543 0
-159 -160 -1543 0
159 -160 1543 0
-159 160 1543 0
1543 162 -1544 0
-1543 -162 -1544 0
1543 -162 1544 0
-1543 162 1544 0
1544 163 -1545 0
-1544 -163 -1545 0
1544 -163 1545 0
-1544 163 1545 0
1545 337 -1546 0
-1545 -337 -1546 0
1545 -337 1546 0
-1545 337 1546 0
1546 349 -1547 0
-1546 -349 -1547 0
1546 -349 1547 0
-1546 349 1547 0
1547 355 -1548 0
-1547 -355 -1548 0
1547 -355 1548 0
-1547 355 1548 0
1548 367 -1549 0
-1548 -367 -1549 0
1548 -367 1549 0
-1548 367 1549 0
-1549 0
160 161 -1550 0
-160 -161 -1550 0
160 -161 1550 0
-160 161 1550 0
1550 163 -1551 0
-1550 -163 -1551 0
1550 -163 1551 0
-1550 163 1551 0
1551 164 -1552 0
-1551 -164 -1552 0
1551 -164 1552 0
-1551 164 1552 0
1552 338 -1553 0
-1552 -338 -1553 0
1552 -338 1553 0
-1552 338 1553 0
1553 350 -1554 0
-1553 -350 -1554 0
1553 -350 1554 0
-1553 350 1554 0
1554 356 -1555 0
-1554 -356 -1555 0
1554 -356 1555 0
-1554 356 1555 0
1555 368 -1556 0
-1555 -368 -1556 0
1555 -368 1556 0
-1555 368 1556 0
-1556 0
161 162 -1557 0
-161 -162 -1557 0
161 -162 1557 0
-161 162 1557 0
1557 164 -1558 0
-1557 -164 -1558 0
1557 -164 1558 0
-1557 164 1558 0
1558 165 -1559 0
-1558 -165 -1559 0
1558 -165 1559 0
-1558 165 1559 0
1559 339 -1560 0
-1559 -339 -1560 0
1559 -339 1560 0
-1559 339 1560 0
1560 351 -1561 0
-1560 -351 -1561 0
1560 -351 1561 0
-1560 351 1561 0
1561 357 -1562 0
-1561 -357 -1562 0
1561 -357 1562 0
-1561 357 1562 0
1562 369 -1563 0
-1562 -369 -1563 0
1562 -369 1563 0
-1562 369 1563 0
-1563 0
162 163 -1564 0
-162 -163 -1564 0
162 -163 1564 0
-162 163 1564 0
1564 165 -1565 0
-1564 -165 -1565 0
1564 -165 1565 0
-1564 165 1565 0
1565 166 -1566 0
-1565 -166 -1566 0
1565 -166 1566 0
-1565 166 1566 0
1566 340 -1567 0
-1566 -340 -1567 0
1566 -340 1567 0
-1566 340 1567 0
1567 352 -1568 0
-1567 -352 -1568 0
1567 -352 1568 0
-1567 352 1568 0
1568 358 -1569 0
-1568 -358 -1569 0
1568 -358 1569 0
-1568 358 1569 0
1569 370 -1570 0
-1569 -370 -1570 0
1569 -370 1570 0
-1569 370 1570 0
-1570 0
163 164 -1571 0
-163 -164 -1571 0
163 -164 1571 0
-163 164 1571 0
1571 166 -1572 0
-1571 -166 -1572 0
1571 -166 1572 0
-1571 166 1572 0
1572 167 -1573 0
-1572 -167 -1573 0
1572 -167 1573 0
-1572 167 1573 0
1573 341 -1574 0
-1573 -341 -1574 0
1573 -341 1574 0
-1573 341 1574 0
1574 353 -1575 0
-1574 -353 -1575 0
1574 -353 1575 0
-1574 353 1575 0
1575 359 -1576 0
-1575 -359 -1576 0
1575 -359 1576 0
-1575 359 1576 0
1576 371 -1577 0
-1576 -371 -1577 0
1576 -371 1577 0
-1576 371 1577 0
-1577 0
164 165 -1578 0
-164 -165 -1578 0
164 -165 1578 0
-164 165 1578 0
1578 167 -1579 0
-1578 -167 -1579 0
1578 -167 1579 0
-1578 167 1579 0
1579 168 -1580 0
-1579 -168 -1580 0
1579 -168 1580 0
-1579 168 1580 0
1580 342 -1581 0
-1580 -342 -1581 0
1580 -342 1581 0
-1580 342 1581 0
1581 354 -1582 0
-1581 -354 -1582 0
1581 -354 1582 0
-1581 354 1582 0
1582 360 -1583 0
-1582 -360 -1583 0
1582 -360 1583 0
-1582 360 1583 0
1583 372 -1584 0
-1583 -372 -1584 0
1583 -372 1584 0
-1583 372 1584 0
-1584 0
165 166 -1585 0
-165 -166 -1585 0
165 -166 1585 0
-165 166 1585 0
1585 168 -1586 0
-1585 -168 -1586 0
1585 -168 1586 0
-1585 168 1586 0
1586 169 -1587 0
-1586 -169 -1587 0
1586 -169 1587 0
-1586 169 1587 0
1587 343 -1588 0
-1587 -343 -1588 0
1587 -343 1588 0
-1587 343 1588 0
1588 355 -1589 0
-1588 -355 -1589 0
1588 -355 1589 0
-1588 355 1589 0
1589 361 -1590 0
-1589 -361 -1590 0
1589 -361 1590 0
-1589 361 1590 0
1590 373 -1591 0
-1590 -373 -1591 0
1590 -373 1591 0
-1590 373 1591 0
-1591 0
166 167 -1592 0
-166 -167 -1592 0
166 -167 1592 0
-166 167 1592 0
1592 169 -1593 0
-1592 -169 -1593 0
1592 -169 1593 0
-1592 169 1593 0
1593 170 -1594 0
-1593 -170 -1594 0
1593 -170 1594 0
-1593 170 1594 0
1594 344 -1595 0
-1594 -344 -1595 0
1594 -344 1595 0
-1594 344 1595 0
1595 356 -1596 0
-1595 -356 -1596 0
1595 -356 1596 0
-1595 356 1596 0
1596 362 -1597 0
-1596 -362 -1597 0
1596 -362 1597 0
-1596 362 1597 0
1597 374 -1598 0
-1597 -374 -1598 0
1597 -374 1598 0
-1597 374 1598 0
-1598 0
167 168 -1599 0
-167 -168 -1599 0
167 -168 1599 0
-167 168 1599 0
1599 170 -1600 0
-1599 -170 -1600 0
1599 -170 1600 0
-1599 170 1600 0
1600 171 -1601 0
-1600 -171 -1601 0
1600 -171 1601 0
-1600 171 1601 0
1601 345 -1602 0
-1601 -345 -1602 0
1601 -345 1602 0
-1601 345 1602 0
1602 357 -1603 0
-1602 -357 -1603 0
1602 -357 1603 0
-1602 357 1603 0
1603 363 -1604 0
-1603 -363 -1604 0
1603 -363 1604 0
-1603 363 1604 0
1604 375 -1605 0
-1604 -375 -1605 0
1604 -375 1605 0
-1604 375 1605 0
-1605 0
168 169 -1606 0
-168 -169 -1606 0
168 -169 1606 0
-168 169 1606 0
1606 171 -1607 0
-1606 -171 -1607 0
1606 -171 1607 0
-1606 171 1607 0
1607 172 -1608 0
-1607 -172 -1608 0
1607 -172 1608 0
-1607 172 1608 0
1608 346 -1609 0
-1608 -346 -1609 0
1608 -346 1609 0
-1608 346 1609 0
1609 358 -1610 0
-1609 -358 -1610 0
1609 -358 1610 0
-1609 358 1610 0
1610 364 -1611 0
-1610 -364 -1611 0
1610 -364 1611 0
-1610 364 1611 0
1611 376 -1612 0
-1611 -376 -1612 0
1611 -376 1612 0
-1611 376 1612 0
-1612 0
169 170 -1613 0
-169 -170 -1613 0
169 -170 1613 0
-169 170 1613 0
1613 172 -1614 0
-1613 -172 -1614 0
1613 -172 1614 0
-1613 172 1614 0
1614 173 -1615 0
-1614 -173 -1615 0
1614 -173 1615 0
-1614 173 1615 0
1615 347 -1616 0
-1615 -347 -1616 0
1615 -347 1616 0
-1615 347 1616 0
1616 359 -1617 0
-1616 -359 -1617 0
1616 -359 1617 0
-1616 359 1617 0
1617 365 -1618 0
-1617 -365 -1618 0
1617 -365 1618 0
-1617 365 1618 0
1618 377 -1619 0
-1618 -377 -1619 0
1618 -377 1619 0
-1618 377 1619 0
-1619 0
170 171 -1620 0
-170 -171 -1620 0
170 -171 1620 0
-170 171 1620 0
1620 173 -1621 0
-1620 -173 -1621 0
1620 -173 1621 0
-1620 173 1621 0
1621 174 -1622 0
-1621 -174 -1622 0
1621 -174 1622 0
-1621 174 1622 0
1622 348 -1623 0
-1622 -348 -1623 0
1622 -348 1623 0
-1622 348 1623 0
1623 360 -1624 0
-1623 -360 -1624 0
1623 -360 1624 0
-1623 360 1624 0
1624 366 -1625 0
-1624 -366 -1625 0
1624 -366 1625 0
-1624 366 1625 0
1625 378 -1626 0
-1625 -378 -1626 0
1625 -378 1626 0
-1625 378 1626 0
-1626 0
171 172 -1627 0
-171 -172 -1627 0
171 -172 1627 0
-171 172 1627 0
1627 174 -1628 0
-1627 -174 -1628 0
1627 -174 1628 0
-1627 174 1628 0
1628 175 -1629 0
-1628 -175 -1629 0
1628 -175 1629 0
-1628 175 1629 0
1629 349 -1630 0
-1629 -349 -1630 0
1629 -349 1630 0
-1629 349 1630 0
1630 361 -1631 0
-1630 -361 -1631 0
1630 -361 1631 0
-1630 361 1631 0
1631 367 -1632 0
-1631 -367 -1632 0
1631 -367 1632 0
-1631 367 1632 0
1632 379 -1633 0
-1632 -379 -1633 0
1632 -379 1633 0
-1632 379 1633 0
-1633 0
172 173 -1634 0
-172 -173 -1634 0
172 -173 1634 0
-172 173 1634 0
1634 175 -1635 0
-1634 -175 -1635 0
1634 -175 1635 0
-1634 175 1635 0
1635 176 -1636 0
-1635 -176 -1636 0
1635 -176 1636 0
-1635 176 1636 0
1636 350 -1637 0
-1636 -350 -1637 0
1636 -350 1637 0
-1636 350 1637 0
1637 362 -1638 0
-1637 -362 -1638 0
1637 -362 1638 0
-1637 362 1638 0
1638 368 -1639 0
-1638 -368 -1639 0
1638 -368 1639 0
-1638 368 1639 0
1639 380 -1640 0
-1639 -380 -1640 0
1639 -380 1640 0
-1639 380 1640 0
-1640 0
173 174 -1641 0
-173 -174 -1641 0
173 -174 1641 0
-173 174 1641 0
1641 176 -1642 0
-1641 -176 -1642 0
1641 -176 1642 0
-1641 176 1642 0
1642 177 -1643 0
-1642 -177 -1643 0
1642 -177 1643 0
-1642 177 1643 0
1643 351 -1644 0
-1643 -351 -1644 0
1643 -351 1644 0
-1643 351 1644 0
1644 363 -1645 0
-1644 -363 -1645 0
1644 -363 1645 0
-1644 363 1645 0
1645 369 -1646 0
-1645 -369 -1646 0
1645 -369 1646 0
-1645 369 1646 0
1646 381 -1647 0
-1646 -381 -1647 0
1646 -381 1647 0
-1646 381 1647 0
-1647 0
174 175 -1648 0
-174 -175 -1648 0
174 -175 1648 0
-174 175 1648 0
1648 177 -1649 0
-1648 -177 -1649 0
1648 -177 1649 0
-1648 177 1649 0
1649 178 -1650 0
-1649 -178 -1650 0
1649 -178 1650 0
-1649 178 1650 0
1650 352 -1651 0
-1650 -352 -1651 0
1650 -352 1651 0
-1650 352 1651 0
1651 364 -1652 0
-1651 -364 -1652 0
1651 -364 1652 0
-1651 364 1652 0
1652 370 -1653 0
-1652 -370 -1653 0
1652 -370 1653 0
-1652 370 1653 0
1653 382 -1654 0
-1653 -382 -1654 0
1653 -382 1654 0
-1653 382 1654 0
-1654 0
175 176 -1655 0
-175 -176 -1655 0
175 -176 1655 0
-175 176 1655 0
1655 178 -1656 0
-1655 -178 -1656 0
1655 -178 1656 0
-1655 178 1656 0
1656 179 -1657 0
-1656 -179 -1657 0
1656 -179 1657 0
-1656 179 1657 0
1657 353 -1658 0
-1657 -353 -1658 0
1657 -353 1658 0
-1657 353 1658 0
1658 365 -1659 0
-1658 -365 -1659 0
1658 -365 1659 0
-1658 365 1659 0
1659 371 -1660 0
-1659 -371 -1660 0
1659 -371 1660 0
-1659 371 1660 0
1660 383 -1661 0
-1660 -383 -1661 0
1660 -383 1661 0
-1660 383 1661 0
-1661 0
176 177 -1662 0
-176 -177 -1662 0
176 -177 1662 0
-176 177 1662 0
1662 179 -1663 0
-1662 -179 -1663 0
1662 -179 1663 0
-1662 179 1663 0
1663 180 -1664 0
-1663 -180 -1664 0
1663 -180 1664 0
-1663 180 1664 0
1664 354 -1665 0
-1664 -354 -1665 0
1664 -354 1665 0
-1664 354 1665 0
1665 366 -1666 0
-1665 -366 -1666 0
1665 -366 1666 0
-1665 366 1666 0
1666 372 -1667 0
-1666 -372 -1667 0
1666 -372 1667 0
-1666 372 1667 0
1667 384 -1668 0
-1667 -384 -1668 0
1667 -384 1668 0
-1667 384 1668 0
-1668 0
177 178 -1669 0
-177 -178 -1669 0
177 -178 1669 0
-177 178 1669 0
1669 180 -1670 0
-1669 -180 -1670 0
1669 -180 1670 0
-1669 180 1670 0
1670 181 -1671 0
-1670 -181 -1671 0
1670 -181 1671 0
-1670 181 1671 0
1671 355 -1672 0
-1671 -355 -1672 0
1671 -355 1672 0
-1671 355 1672 0
1672 367 -1673 0
-1672 -367 -1673 0
1672 -367 1673 0
-1672 367 1673 0
1673 373 -1674 0
-1673 -373 -1674 0
1673 -373 1674 0
-1673 373 1674 0
1674 385 -1675 0
-1674 -385 -1675 0
1674 -385 1675 0
-1674 385 1675 0
-1675 0
178 179 -1676 0
-178 -179 -1676 0
178 -179 1676 0
-178 179 1676 0
1676 181 -1677 0
-1676 -181 -1677 0
1676 -181 1677 0
-1676 181 1677 0
1677 182 -1678 0
-1677 -182 -1678 0
1677 -182 1678 0
-1677 182 1678 0
1678 356 -1679 0
-1678 -356 -1679 0
1678 -356 1679 0
-1678 356 1679 0
1679 368 -1680 0
-1679 -368 -1680 0
1679 -368 1680 0
-1679 368 1680 0
1680 374 -1681 0
-1680 -374 -1681 0
1680 -374 1681 0
-1680 374 1681 0
1681 386 -1682 0
-1681 -386 -1682 0
1681 -386 1682 0
-1681 386 1682 0
-1682 0
179 180 -1683 0
-179 -180 -1683 0
179 -180 1683 0
-179 180 1683 0
1683 182 -1684 0
-1683 -182 -1684 0
1683 -182 1684 0
-1683 182 1684 0
1684 183 -1685 0
-1684 -183 -1685 0
1684 -183 1685 0
-1684 183 1685 0
1685 357 -1686 0
-1685 -357 -1686 0
1685 -357 1686 0
-1685 357 1686 0
1686 369 -1687 0
-1686 -369 -1687 0
1686 -369 1687 0
-1686 369 1687 0
1687 375 -1688 0
-1687 -375 -1688 0
1687 -375 1688 0
-1687 375 1688 0
1688 387 -1689 0
-1688 -387 -1689 0
1688 -387 1689 0
-1688 387 1689 0
-1689 0
180 181 -1690 0
-180 -181 -1690 0
180 -181 1690 0
-180 181 1690 0
1690 183 -1691 0
-1690 -183 -1691 0
1690 -183 1691 0
-1690 183 1691 0
1691 184 -1692 0
-1691 -184 -1692 0
1691 -184 1692 0
-1691 184 1692 0
1692 358 -1693 0
-1692 -358 -1693 0
1692 -358 1693 0
-1692 358 1693 0
1693 370 -1694 0
-1693 -370 -1694 0
1693 -370 1694 0
-1693 370 1694 0
1694 376 -1695 0
-1694 -376 -1695 0
1694 -376 1695 0
-1694 376 1695 0
1695 388 -1696 0
-1695 -388 -1696 0
1695 -388 1696 0
-1695 388 1696 0
-1696 0
181 182 -1697 0
-181 -182 -1697 0
181 -182 1697 0
-181 182 1697 0
1697 184 -1698 0
-1697 -184 -1698 0
1697 -184 1698 0
-1697 184 1698 0
1698 185 -1699 0
-1698 -185 -1699 0
1698 -185 1699 0
-1698 185 1699 0
1699 359 -1700 0
-1699 -359 -1700 0
1699 -359 1700 0
-1699 359 1700 0
1700 371 -1701 0
-1700 -371 -1701 0
1700 -371 1701 0
-1700 371 1701 0
1701 377 -1702 0
-1701 -377 -1702 0
1701 -377 1702 0
-1701 377 1702 0
1702 389 -1703 0
-1702 -389 -1703 0
1702 -389 1703 0
-1702 389 1703 0
-1703 0
182 183 -1704 0
-182 -183 -1704 0
182 -183 1704 0
-182 183 1704 0
1704 185 -1705 0
-1704 -185 -1705 0
1704 -185 1705 0
-1704 185 1705 0
1705 186 -1706 0
-1705 -186 -1706 0
1705 -186 1706 0
-1705 186 1706 0
1706 360 -1707 0
-1706 -360 -1707 0
1706 -360 1707 0
-1706 360 1707 0
1707 372 -1708 0
-1707 -372 -1708 0
1707 -372 1708 0
-1707 372 1708 0
1708 378 -1709 0
-1708 -378 -1709 0
1708 -378 1709 0
-1708 378 1709 0
1709 390 -1710 0
-1709 -390 -1710 0
1709 -390 1710 0
-1709 390 1710 0
-1710 0
183 184 -1711 0
-183 -184 -1711 0
183 -184 1711 0
-183 184 1711 0
1711 186 -1712 0
-1711 -186 -1712 0
1711 -186 1712 0
-1711 186 1712 0
1712 187 -1713 0
-1712 -187 -1713 0
1712 -187 1713 0
-1712 187 1713 0
1713 361 -1714 0
-1713 -361 -1714 0
1713 -361 1714 0
-1713 361 1714 0
1714 373 -1715 0
-1714 -373 -1715 0
1714 -373 1715 0
-1714 373 1715 0
1715 379 -1716 0
-1715 -379 -1716 0
1715 -379 1716 0
-1715 379 1716 0
1716 391 -1717 0
-1716 -391 -1717 0
1716 -391 1717 0
-1716 391 1717 0
-1717 0
184 185 -1718 0
-184 -185 -1718 0
184 -185 1718 0
-184 185 1718 0
1718 187 -1719 0
-1718 -187 -1719 0
1718 -187 1719 0
-1718 187 1719 0
1719 188 -1720 0
-1719 -188 -1720 0
1719 -188 1720 0
-1719 188 1720 0
1720 362 -1721 0
-1720 -362 -1721 0
1720 -362 1721 0
-1720 362 1721 0
1721 374 -1722 0
-1721 -374 -1722 0
1721 -374 1722 0
-1721 374 1722 0
1722 380 -1723 0
-1722 -380 -1723 0
1722 -380 1723 0
-1722 380 1723 0
1723 392 -1724 0
-1723 -392 -1724 0
1723 -392 1724 0
-1723 392 1724 0
-1724 0
185 186 -1725 0
-185 -186 -1725 0
185 -186 1725 0
-185 186 1725 0
1725 188 -1726 0
-1725 -188 -1726 0
1725 -188 1726 0
-1725 188 1726 0
1726 189 -1727 0
-1726 -189 -1727 0
1726 -189 1727 0
-1726 189 1727 0
1727 363 -1728 0
-1727 -363 -1728 0
1727 -363 1728 0
-1727 363 1728 0
1728 375 -1729 0
-1728 -375 -1729 0
1728 -375 1729 0
-1728 375 1729 0
1729 381 -1730 0
-1729 -381 -1730 0
1729 -381 1730 0
-1729 381 1730 0
1730 393 -1731 0
-1730 -393 -1731 0
1730 -393 1731 0
-1730 393 1731 0
-1731 0
186 187 -1732 0
-186 -187 -1732 0
186 -187 1732 0
-186 187 1732 0
1732 189 -1733 0
-1732 -189 -1733 0
1732 -189 1733 0
-1732 189 1733 0
1733 190 -1734 0
-1733 -190 -1734 0
1733 -190 1734 0
-1733 190 1734 0
1734 364 -1735 0
-1734 -364 -1735 0
1734 -364 1735 0
-1734 364 1735 0
1735 376 -1736 0
-1735 -376 -1736 0
1735 -376 1736 0
-1735 376 1736 0
1736 382 -1737 0
-1736 -382 -1737 0
1736 -382 1737 0
-1736 382 1737 0
1737 394 -1738 0
-1737 -394 -1738 0
1737 -394 1738 0
-1737 394 1738 0
-1738 0
187 188 -1739 0
-187 -188 -1739 0
187 -188 1739 0
-187 188 1739 0
1739 190 -1740 0
-1739 -190 -1740 0
1739 -190 1740 0
-1739 190 1740 0
1740 191 -1741 0
-1740 -191 -1741 0
1740 -191 1741 0
-1740 191 1741 0
1741 365 -1742 0
-1741 -365 -1742 0
1741 -365 1742 0
-1741 365 1742 0
1742 377 -1743 0
-1742 -377 -1743 0
1742 -377 1743 0
-1742 377 1743 0
1743 383 -1744 0
-1743 -383 -1744 0
1743 -383 1744 0
-1743 383 1744 0
1744 395 -1745 0
-1744 -395 -1745 0
1744 -395 1745 0
-1744 395 1745 0
-1745 0
188 189 -1746 0
-188 -189 -1746 0
188 -189 1746 0
-188 189 1746 0
1746 191 -1747 0
-1746 -191 -1747 0
1746 -191 1747 0
-1746 191 1747 0
1747 192 -1748 0
-1747 -192 -1748 0
1747 -192 1748 0
-1747 192 1748 0
1748 366 -1749 0
-1748 -366 -1749 0
1748 -366 1749 0
-1748 366 1749 0
1749 378 -1750 0
-1749 -378 -1750 0
1749 -378 1750 0
-1749 378 1750 0
1750 384 -1751 0
-1750 -384 -1751 0
1750 -384 1751 0
-1750 384 1751 0
1751 396 -1752 0
-1751 -396 -1752 0
1751 -396 1752 0
-1751 396 1752 0
-1752 0
189 190 -1753 0
-189 -190 -1753 0
189 -190 1753 0
-189 190 1753 0
1753 192 -1754 0
-1753 -192 -1754 0
1753 -192 1754 0
-1753 192 1754 0
1754 193 -1755 0
-1754 -193 -1755 0
1754 -193 1755 0
-1754 193 1755 0
1755 367 -1756 0
-1755 -367 -1756 0
1755 -367 1756 0
-1755 367 1756 0
1756 379 -1757 0
-1756 -379 -1757 0
1756 -379 1757 0
-1756 379 1757 0
1757 385 -1758 0
-1757 -385 -1758 0
1757 -385 1758 0
-1757 385 1758 0
1758 397 -1759 0
-1758 -397 -1759 0
1758 -397 1759 0
-1758 397 1759 0
-1759 0
190 191 -1760 0
-190 -191 -1760 0
190 -191 1760 0
-190 191 1760 0
1760 193 -1761 0
-1760 -193 -1761 0
1760 -193 1761 0
-1760 193 1761 0
1761 194 -1762 0
-1761 -194 -1762 0
1761 -194 1762 0
-1761 194 1762 0
1762 368 -1763 0
-1762 -368 -1763 0
1762 -368 1763 0
-1762 368 1763 0
1763 380 -1764 0
-1763 -380 -1764 0
1763 -380 1764 0
-1763 380 1764 0
1764 386 -1765 0
-1764 -386 -1765 0
1764 -386 1765 0
-1764 386 1765 0
1765 398 -1766 0
-1765 -398 -1766 0
1765 -398 1766 0
-1765 398 1766 0
-1766 0
191 192 -1767 0
-191 -192 -1767 0
191 -192 1767 0
-191 192 1767 0
1767 194 -1768 0
-1767 -194 -1768 0
1767 -194 1768 0
-1767 194 1768 0
1768 195 -1769 0
-1768 -195 -1769 0
1768 -195 1769 0
-1768 195 1769 0
1769 369 -1770 0
-1769 -369 -1770 0
1769 -369 1770 0
-1769 369 1770 0
1770 381 -1771 0
-1770 -381 -1771 0
1770 -381 1771 0
-1770 381 1771 0
1771 387 -1772 0
-1771 -387 -1772 0
1771 -387 1772 0
-1771 387 1772 0
1772 399 -1773 0
-1772 -399 -1773 0
1772 -399 1773 0
-1772 399 1773 0
-1773 0
192 193 -1774 0
-192 -193 -1774 0
192 -193 1774 0
-192 193 1774 0
1774 195 -1775 0
-1774 -195 -1775 0
1774 -195 1775 0
-1774 195 1775 0
1775 196 -1776 0
-1775 -196 -1776 0
1775 -196 1776 0
-1775 196 1776 0
1776 370 -1777 0
-1776 -370 -1777 0
1776 -370 1777 0
-1776 370 1777 0
1777 382 -1778 0
-1777 -382 -1778 0
1777 -382 1778 0
-1777 382 1778 0
1778 388 -1779 0
-1778 -388 -1779 0
1778 -388 1779 0
-1778 388 1779 0
1779 400 -1780 0
-1779 -400 -1780 0
1779 -400 1780 0
-1779 400 1780 0
-1780 0
193 194 -1781 0
-193 -194 -1781 0
193 -194 1781 0
-193 194 1781 0
1781 196 -1782 0
-1781 -196 -1782 0
1781 -196 1782 0
-1781 196 1782 0
1782 197 -1783 0
-1782 -197 -1783 0
1782 -197 1783 0
-1782 197 1783 0
1783 371 -1784 0
-1783 -371 -1784 0
1783 -371 1784 0
-1783 371 1784 0
1784 383 -1785 0
-1784 -383 -1785 0
1784 -383 1785 0
-1784 383 1785 0
1785 389 -1786 0
-1785 -389 -1786 0
1785 -389 1786 0
-1785 389 1786 0
1786 401 -1787 0
-1786 -401 -1787 0
1786 -401 1787 0
-1786 401 1787 0
-1787 0
194 195 -1788 0
-194 -195 -1788 0
194 -195 1788 0
-194 195 1788 0
1788 197 -1789 0
-1788 -197 -1789 0
1788 -197 1789 0
-1788 197 1789 0
1789 198 -1790 0
-1789 -198 -1790 0
1789 -198 1790 0
-1789 198 1790 0
1790 372 -1791 0
-1790 -372 -1791 0
1790 -372 1791 0
-1790 372 1791 0
1791 384 -1792 0
-1791 -384 -1792 0
1791 -384 1792 0
-1791 384 1792 0
1792 390 -1793 0
-1792 -390 -1793 0
1792 -390 1793 0
-1792 390 1793 0
1793 402 -1794 0
-1793 -402 -1794 0
1793 -402 1794 0
-1793 402 1794 0
-1794 0
195 196 -1795 0
-195 -196 -1795 0
195 -196 1795 0
-195 196 1795 0
1795 198 -1796 0
-1795 -198 -1796 0
1795 -198 1796 0
-1795 198 1796 0
1796 199 -1797 0
-1796 -199 -1797 0
1796 -199 1797 0
-1796 199 1797 0
1797 373 -1798 0
-1797 -373 -1798 0
1797 -373 1798 0
-1797 373 1798 0
1798 385 -1799 0
-1798 -385 -1799 0
1798 -385 1799 0
-1798 385 1799 0
1799 391 -1800 0
-1799 -391 -1800 0
1799 -391 1800 0
-1799 391 1800 0
1800 403 -1801 0
-1800 -403 -1801 0
1800 -403 1801 0
-1800 403 1801 0
-1801 0
196 197 -1802 0
-196 -197 -1802 0
196 -197 1802 0
-196 197 1802 0
1802 199 -1803 0
-1802 -199 -1803 0
1802 -199 1803 0
-1802 199 1803 0
1803 200 -1804 0
-1803 -200 -1804 0
1803 -200 1804 0
-1803 200 1804 0
1804 374 -1805 0
-1804 -374 -1805 0
1804 -374 1805 0
-1804 374 1805 0
1805 386 -1806 0
-1805 -386 -1806 0
1805 -386 1806 0
-1805 386 1806 0
1806 392 -1807 0
-1806 -392 -1807 0
1806 -392 1807 0
-1806 392 1807 0
1807 404 -1808 0
-1807 -404 -1808 0
1807 -404 1808 0
-1807 404 1808 0
-1808 0
197 198 -1809 0
-197 -198 -1809 0
197 -198 1809 0
-197 198 1809 0
1809 200 -1810 0
-1809 -200 -1810 0
1809 -200 1810 0
-1809 200 1810 0
1810 201 -1811 0
-1810 -201 -1811 0
1810 -201 1811 0
-1810 201 1811 0
1811 375 -1812 0
-1811 -375 -1812 0
1811 -375 1812 0
-1811 375 1812 0
1812 387 -1813 0
-1812 -387 -1813 0
1812 -387 1813 0
-1812 387 1813 0
1813 393 -1814 0
-1813 -393 -1814 0
1813 -393 1814 0
-1813 393 1814 0
1814 405 -1815 0
-1814 -405 -1815 0
1814 -405 1815 0
-1814 405 1815 0
-1815 0
198 199 -1816 0
-198 -199 -1816 0
198 -199 1816 0
-198 199 1816 0
1816 201 -1817 0
-1816 -201 -1817 0
1816 -201 1817 0
-1816 201 1817 0
1817 202 -1818 0
-1817 -202 -1818 0
1817 -202 1818 0
-1817 202 1818 0
1818 376 -1819 0
-1818 -376 -1819 0
1818 -376 1819 0
-1818 376 1819 0
1819 388 -1820 0
-1819 -388 -1820 0
1819 -388 1820 0
-1819 388 1820 0
1820 394 -1821 0
-1820 -394 -1821 0
1820 -394 1821 0
-1820 394 1821 0
1821 406 -1822 0
-1821 -406 -1822 0
1821 -406 1822 0
-1821 406 1822 0
-1822 0
199 200 -1823 0
-199 -200 -1823 0
199 -200 1823 0
-199 200 1823 0
1823 202 -1824 0
-1823 -202 -1824 0
1823 -202 1824 0
-1823 202 1824 0
1824 203 -1825 0
-1824 -203 -1825 0
1824 -203 1825 0
-1824 203 1825 0
1825 377 -1826 0
-1825 -377 -1826 0
1825 -377 1826 0
-1825 377 1826 0
1826 389 -1827 0
-1826 -389 -1827 0
1826 -389 1827 0
-1826 389 1827 0
1827 395 -1828 0
-1827 -395 -1828 0
1827 -395 1828 0
-1827 395 1828 0
1828 407 -1829 0
-1828 -407 -1829 0
1828 -407 1829 0
-1828 407 1829 0
-1829 0
200 201 -1830 0
-200 -201 -1830 0
200 -201 1830 0
-200 201 1830 0
1830 203 -1831 0
-1830 -203 -1831 0
1830 -203 1831 0
-1830 203 1831 0
1831 204 -1832 0
-1831 -204 -1832 0
1831 -204 1832 0
-1831 204 1832 0
1832 378 -1833 0
-1832 -378 -1833 0
1832 -378 1833 0
-1832 378 1833 0
1833 390 -1834 0
-1833 -390 -1834 0
1833 -390 1834 0
-1833 390 1834 0
1834 396 -1835 0
-1834 -396 -1835 0
1834 -396 1835 0
-1834 396 1835 0
1835 408 -1836 0
-1835 -408 -1836 0
1835 -408 1836 0
-1835 408 1836 0
-1836 0
1 209 -1837 0
-1 -209 -1837 0
1 -209 1837 0
-1 209 1837 0
1837 210 -1838 0
-1837 -210 -1838 0
1837 -210 1838 0
-1837 210 1838 0
1838 211 -1839 0
-1838 -211 -1839 0
1838 -211 1839 0
-1838 211 1839 0
1839 215 -1840 0
-1839 -215 -1840 0
1839 -215 1840 0
-1839 215 1840 0
1840 216 -1841 0
-1840 -216 -1841 0
1840 -216 1841 0
-1840 216 1841 0
1841 217 -1842 0
-1841 -217 -1842 0
1841 -217 1842 0
-1841 217 1842 0
1842 221 -1843 0
-1842 -221 -1843 0
1842 -221 1843 0
-1842 221 1843 0
1843 222 -1844 0
-1843 -222 -1844 0
1843 -222 1844 0
-1843 222 1844 0
1844 223 -1845 0
-1844 -223 -1845 0
1844 -223 1845 0
-1844 223 1845 0
1845 227 -1846 0
-1845 -227 -1846 0
1845 -227 1846 0
-1845 227 1846 0
1846 228 -1847 0
-1846 -228 -1847 0
1846 -228 1847 0
-1846 228 1847 0
1847 229 -1848 0
-1847 -229 -1848 0
1847 -229 1848 0
-1847 229 1848 0
1848 233 -1849 0
-1848 -233 -1849 0
1848 -233 1849 0
-1848 233 1849 0
1849 234 -1850 0
-1849 -234 -1850 0
1849 -234 1850 0
-1849 234 1850 0
1850 235 -1851 0
-1850 -235 -1851 0
1850 -235 1851 0
-1850 235 1851 0
1851 239 -1852 0
-1851 -239 -1852 0
1851 -239 1852 0
-1851 239 1852 0
1852 240 -1853 0
-1852 -240 -1853 0
1852 -240 1853 0
-1852 240 1853 0
1853 241 -1854 0
-1853 -241 -1854 0
1853 -241 1854 0
-1853 241 1854 0
1854 245 -1855 0
-1854 -245 -1855 0
1854 -245 1855 0
-1854 245 1855 0
1855 246 -1856 0
-1855 -246 -1856 0
1855 -246 1856 0
-1855 246 1856 0
1856 247 -1857 0
-1856 -247 -1857 0
1856 -247 1857 0
-1856 247 1857 0
1857 251 -1858 0
-1857 -251 -1858 0
1857 -251 1858 0
-1857 251 1858 0
1858 252 -1859 0
-1858 -252 -1859 0
1858 -252 1859 0
-1858 252 1859 0
1859 253 -1860 0
-1859 -253 -1860 0
1859 -253 1860 0
-1859 253 1860 0
1860 257 -1861 0
-1860 -257 -1861 0
1860 -257 1861 0
-1860 257 1861 0
1861 258 -1862 0
-1861 -258 -1862 0
1861 -258 1862 0
-1861 258 1862 0
1862 259 -1863 0
-1862 -259 -1863 0
1862 -259 1863 0
-1862 259 1863 0
1863 263 -1864 0
-1863 -263 -1864 0
1863 -263 1864 0
-1863 263 1864 0
1864 264 -1865 0
-1864 -264 -1865 0
1864 -264 1865 0
-1864 264 1865 0
1865 265 -1866 0
-1865 -265 -1866 0
1865 -265 1866 0
-1865 265 1866 0
1866 269 -1867 0
-1866 -269 -1867 0
1866 -269 1867 0
-1866 269 1867 0
1867 270 -1868 0
-1867 -270 -1868 0
1867 -270 1868 0
-1867 270 1868 0
1868 271 -1869 0
-1868 -271 -1869 0
1868 -271 1869 0
-1868 271 1869 0
1869 275 -1870 0
-1869 -275 -1870 0
1869 -275 1870 0
-1869 275 1870 0
1870 276 -1871 0
-1870 -276 -1871 0
1870 -276 1871 0
-1870 276 1871 0
1871 277 -1872 0
-1871 -277 -1872 0
1871 -277 1872 0
-1871 277 1872 0
1872 281 -1873 0
-1872 -281 -1873 0
1872 -281 1873 0
-1872 281 1873 0
1873 282 -1874 0
-1873 -282 -1874 0
1873 -282 1874 0
-1873 282 1874 0
1874 283 -1875 0
-1874 -283 -1875 0
1874 -283 1875 0
-1874 283 1875 0
1875 287 -1876 0
-1875 -287 -1876 0
1875 -287 1876 0
-1875 287 1876 0
1876 288 -1877 0
-1876 -288 -1877 0
1876 -288 1877 0
-1876 288 1877 0
1877 289 -1878 0
-1877 -289 -1878 0
1877 -289 1878 0
-1877 289 1878 0
1878 293 -1879 0
-1878 -293 -1879 0
1878 -293 1879 0
-1878 293 1879 0
1879 294 -1880 0
-1879 -294 -1880 0
1879 -294 1880 0
-1879 294 1880 0
1880 295 -1881 0
-1880 -295 -1881 0
1880 -295 1881 0
-1880 295 1881 0
1881 299 -1882 0
-1881 -299 -1882 0
1881 -299 1882 0
-1881 299 1882 0
1882 300 -1883 0
-1882 -300 -1883 0
1882 -300 1883 0
-1882 300 1883 0
1883 301 -1884 0
-1883 -301 -1884 0
1883 -301 1884 0
-1883 301 1884 0
1884 305 -1885 0
-1884 -305 -1885 0
1884 -305 1885 0
-1884 305 1885 0
1885 306 -1886 0
-1885 -306 -1886 0
1885 -306 1886 0
-1885 306 1886 0
1886 307 -1887 0
-1886 -307 -1887 0
1886 -307 1887 0
-1886 307 1887 0
1887 311 -1888 0
-1887 -311 -1888 0
1887 -311 1888 0
-1887 311 1888 0
1888 312 -1889 0
-1888 -312 -1889 0
1888 -312 1889 0
-1888 312 1889 0
1889 313 -1890 0
-1889 -313 -1890 0
1889 -313 1890 0
-1889 313 1890 0
1890 317 -1891 0
-1890 -317 -1891 0
1890 -317 1891 0
-1890 317 1891 0
1891 318 -1892 0
-1891 -318 -1892 0
1891 -318 1892 0
-1891 318 1892 0
1892 319 -1893 0
-1892 -319 -1893 0
1892 -319 1893 0
-1892 319 1893 0
1893 323 -1894 0
-1893 -323 -1894 0
1893 -323 1894 0
-1893 323 1894 0
1894 324 -1895 0
-1894 -324 -1895 0
1894 -324 1895 0
-1894 324 1895 0
1895 325 -1896 0
-1895 -325 -1896 0
1895 -325 1896 0
-1895 325 1896 0
1896 329 -1897 0
-1896 -329 -1897 0
1896 -329 1897 0
-1896 329 1897 0
1897 330 -1898 0
-1897 -330 -1898 0
1897 -330 1898 0
-1897 330 1898 0
1898 331 -1899 0
-1898 -331 -1899 0
1898 -331 1899 0
-1898 331 1899 0
1899 335 -1900 0
-1899 -335 -1900 0
1899 -335 1900 0
-1899 335 1900 0
1900 336 -1901 0
-1900 -336 -1901 0
1900 -336 1901 0
-1900 336 1901 0
1901 337 -1902 0
-1901 -337 -1902 0
1901 -337 1902 0
-1901 337 1902 0
1902 341 -1903 0
-1902 -341 -1903 0
1902 -341 1903 0
-1902 341 1903 0
1903 342 -1904 0
-1903 -342 -1904 0
1903 -342 1904 0
-1903 342 1904 0
1904 343 -1905 0
-1904 -343 -1905 0
1904 -343 1905 0
-1904 343 1905 0
1905 347 -1906 0
-1905 -347 -1906 0
1905 -347 1906 0
-1905 347 1906 0
1906 348 -1907 0
-1906 -348 -1907 0
1906 -348 1907 0
-1906 348 1907 0
1907 349 -1908 0
-1907 -349 -1908 0
1907 -349 1908 0
-1907 349 1908 0
1908 353 -1909 0
-1908 -353 -1909 0
1908 -353 1909 0
-1908 353 1909 0
1909 354 -1910 0
-1909 -354 -1910 0
1909 -354 1910 0
-1909 354 1910 0
1910 355 -1911 0
-1910 -355 -1911 0
1910 -355 1911 0
-1910 355 1911 0
1911 359 -1912 0
-1911 -359 -1912 0
1911 -359 1912 0
-1911 359 1912 0
1912 360 -1913 0
-1912 -360 -1913 0
1912 -360 1913 0
-1912 360 1913 0
1913 361 -1914 0
-1913 -361 -1914 0
1913 -361 1914 0
-1913 361 1914 0
1914 365 -1915 0
-1914 -365 -1915 0
1914 -365 1915 0
-1914 365 1915 0
1915 366 -1916 0
-1915 -366 -1916 0
1915 -366 1916 0
-1915 366 1916 0
1916 367 -1917 0
-1916 -367 -1917 0
1916 -367 1917 0
-1916 367 1917 0
1917 371 -1918 0
-1917 -371 -1918 0
1917 -371 1918 0
-1917 371 1918 0
1918 372 -1919 0
-1918 -372 -1919 0
1918 -372 1919 0
-1918 372 1919 0
1919 373 -1920 0
-1919 -373 -1920 0
1919 -373 1920 0
-1919 373 1920 0
1920 377 -1921 0
-1920 -377 -1921 0
1920 -377 1921 0
-1920 377 1921 0
1921 378 -1922 0
-1921 -378 -1922 0
1921 -378 1922 0
-1921 378 1922 0
1922 379 -1923 0
-1922 -379 -1923 0
1922 -379 1923 0
-1922 379 1923 0
1923 395 -1924 0
-1923 -395 -1924 0
1923 -395 1924 0
-1923 395 1924 0
1924 396 -1925 0
-1924 -396 -1925 0
1924 -396 1925 0
-1924 396 1925 0
1925 397 -1926 0
-1925 -397 -1926 0
1925 -397 1926 0
-1925 397 1926 0
2 210 -1927 0
-2 -210 -1927 0
2 -210 1927 0
-2 210 1927 0
1927 211 -1928 0
-1927 -211 -1928 0
1927 -211 1928 0
-1927 211 1928 0
1928 212 -1929 0
-1928 -212 -1929 0
1928 -212 1929 0
-1928 212 1929 0
1929 216 -1930 0
-1929 -216 -1930 0
1929 -216 1930 0
-1929 216 1930 0
1930 217 -1931 0
-1930 -217 -1931 0
1930 -217 1931 0
-1930 217 1931 0
1931 218 -1932 0
-1931 -218 -1932 0
1931 -218 1932 0
-1931 218 1932 0
1932 222 -1933 0
-1932 -222 -1933 0
1932 -222 1933 0
-1932 222 1933 0
1933 223 -1934 0
-1933 -223 -1934 0
1933 -223 1934 0
-1933 223 1934 0
1934 224 -1935 0
-1934 -224 -1935 0
1934 -224 1935 0
-1934 224 1935 0
1935 228 -1936 0
-1935 -228 -1936 0
1935 -228 1936 0
-1935 228 1936 0
1936 229 -1937 0
-1936 -229 -1937 0
1936 -229 1937 0
-1936 229 1937 0
1937 230 -1938 0
-1937 -230 -1938 0
1937 -230 1938 0
-1937 230 1938 0
1938 234 -1939 0
-1938 -234 -1939 0
1938 -234 1939 0
-1938 234 1939 0
1939 235 -1940 0
-1939 -235 -1940 0
1939 -235 1940 0
-1939 235 1940 0
1940 236 -1941 0
-1940 -236 -1941 0
1940 -236 1941 0
-1940 236 1941 0
1941 240 -1942 0
-1941 -240 -1942 0
1941 -240 1942 0
-1941 240 1942 0
1942 241 -1943 0
-1942 -241 -1943 0
1942 -241 1943 0
-1942 241 1943 0
1943 242 -1944 0
-1943 -242 -1944 0
1943 -242 1944 0
-1943 242 1944 0
1944 246 -1945 0
-1944 -246 -1945 0
1944 -246 1945 0
-1944 246 1945 0
1945 247 -1946 0
-1945 -247 -1946 0
1945 -247 1946 0
-1945 247 1946 0
1946 248 -1947 0
-1946 -248 -1947 0
1946 -248 1947 0
-1946 248 1947 0
1947 252 -1948 0
-1947 -252 -1948 0
1947 -252 1948 0
-1947 252 1948 0
1948 253 -1949 0
-1948 -253 -1949 0
1948 -253 1949 0
-1948 253 1949 0
1949 254 -1950 0
-1949 -254 -1950 0
1949 -254 1950 0
-1949 254 1950 0
1950 258 -1951 0
-1950 -258 -1951 0
1950 -258 1951 0
-1950 258 1951 0
1951 259 -1952 0
-1951 -259 -1952 0
1951 -259 1952 0
-1951 259 1952 0
1952 260 -1953 0
-1952 -260 -1953 0
1952 -260 1953 0
-1952 260 1953 0
1953 264 -1954 0
-1953 -264 -1954 0
1953 -264 1954 0
-1953 264 1954 0
1954 265 -1955 0
-1954 -265 -1955 0
1954 -265 1955 0
-1954 265 1955 0
1955 266 -1956 0
-1955 -266 -1956 0
1955 -266 1956 0
-1955 266 1956 0
1956 270 -1957 0
-1956 -270 -1957 0
1956 -270 1957 0
-1956 270 1957 0
1957 271 -1958 0
-1957 -271 -1958 0
1957 -271 1958 0
-1957 271 1958 0
1958 272 -1959 0
-1958 -272 -1959 0
1958 -272 1959 0
-1958 272 1959 0
1959 276 -1960 0
-1959 -276 -1960 0
1959 -276 1960 0
-1959 276 1960 0
1960 277 -1961 0
-1960 -277 -1961 0
1960 -277 1961 0
-1960 277 1961 0
1961 278 -1962 0
-1961 -278 -1962 0
1961 -278 1962 0
-1961 278 1962 0
1962 282 -1963 0
-1962 -282 -1963 0
1962 -282 1963 0
-1962 282 1963 0
1963 283 -1964 0
-1963 -283 -1964 0
1963 -283 1964 0
-1963 283 1964 0
1964 284 -1965 0
-1964 -284 -1965 0
1964 -284 1965 0
-1964 284 1965 0
1965 288 -1966 0
-1965 -288 -1966 0
1965 -288 1966 0
-1965 288 1966 0
1966 289 -1967 0
-1966 -289 -1967 0
1966 -289 1967 0
-1966 289 1967 0
1967 290 -1968 0
-1967 -290 -1968 0
1967 -290 1968 0
-1967 290 1968 0
1968 294 -1969 0
-1968 -294 -1969 0
1968 -294 1969 0
-1968 294 1969 0
1969 295 -1970 0
-1969 -295 -1970 0
1969 -295 1970 0
-1969 295 1970 0
1970 296 -1971 0
-1970 -296 -1971 0
1970 -296 1971 0
-1970 296 1971 0
1971 300 -1972 0
-1971 -300 -1972 0
1971 -300 1972 0
-1971 300 1972 0
1972 301 -1973 0
-1972 -301 -1973 0
1972 -301 1973 0
-1972 301 1973 0
1973 302 -1974 0
-1973 -302 -1974 0
1973 -302 1974 0
-1973 302 1974 0
1974 306 -1975 0
-1974 -306 -1975 0
1974 -306 1975 0
-1974 306 1975 0
1975 307 -1976 0
-1975 -307 -1976 0
1975 -307 1976 0
-1975 307 1976 0
1976 308 -1977 0
-1976 -308 -1977 0
1976 -308 1977 0
-1976 308 1977 0
1977 312 -1978 0
-1977 -312 -1978 0
1977 -312 1978 0
-1977 312 1978 0
1978 313 -1979 0
-1978 -313 -1979 0
1978 -313 1979 0
-1978 313 1979 0
1979 314 -1980 0
-1979 -314 -1980 0
1979 -314 1980 0
-1979 314 1980 0
1980 318 -1981 0
-1980 -318 -1981 0
1980 -318 1981 0
-1980 318 1981 0
1981 319 -1982 0
-1981 -319 -1982 0
1981 -319 1982 0
-1981 319 1982 0
1982 320 -1983 0
-1982 -320 -1983 0
1982 -320 1983 0
-1982 320 1983 0
1983 324 -1984 0
-1983 -324 -1984 0
1983 -324 1984 0
-1983 324 1984 0
1984 325 -1985 0
-1984 -325 -1985 0
1984 -325 1985 0
-1984 325 1985 0
1985 326 -1986 0
-1985 -326 -1986 0
1985 -326 1986 0
-1985 326 1986 0
1986 330 -1987 0
-1986 -330 -1987 0
1986 -330 1987 0
-1986 330 1987 0
1987 331 -1988 0
-1987 -331 -1988 0
1987 -331 1988 0
-1987 331 1988 0
1988 332 -1989 0
-1988 -332 -1989 0
1988 -332 1989 0
-1988 332 1989 0
1989 336 -1990 0
-1989 -336 -1990 0
1989 -336 1990 0
-1989 336 1990 0
1990 337 -1991 0
-1990 -337 -1991 0
1990 -337 1991 0
-1990 337 1991 0
1991 338 -1992 0
-1991 -338 -1992 0
1991 -338 1992 0
-1991 338 1992 0
1992 342 -1993 0
-1992 -342 -1993 0
1992 -342 1993 0
-1992 342 1993 0
1993 343 -1994 0
-1993 -343 -1994 0
1993 -343 1994 0
-1993 343 1994 0
1994 344 -1995 0
-1994 -344 -1995 0
1994 -344 1995 0
-1994 344 1995 0
1995 348 -1996 0
-1995 -348 -1996 0
1995 -348 1996 0
-1995 348 1996 0
1996 349 -1997 0
-1996 -349 -1997 0
1996 -349 1997 0
-1996 349 1997 0
1997 350 -1998 0
-1997 -350 -1998 0
1997 -350 1998 0
-1997 350 1998 0
1998 354 -1999 0
-1998 -354 -1999 0
1998 -354 1999 0
-1998 354 1999 0
1999 355 -2000 0
-1999 -355 -2000 0
1999 -355 2000 0
-1999 355 2000 0
2000 356 -2001 0
-2000 -356 -2001 0
2000 -356 2001 0
-2000 356 2001 0
2001 360 -2002 0
-2001 -360 -2002 0
2001 -360 2002 0
-2001 360 2002 0
2002 361 -2003 0
-2002 -361 -2003 0
2002 -361 2003 0
-2002 361 2003 0
2003 362 -2004 0
-2003 -362 -2004 0
2003 -362 2004 0
-2003 362 2004 0
2004 366 -2005 0
-2004 -366 -2005 0
2004 -366 2005 0
-2004 366 2005 0
2005 367 -2006 0
-2005 -367 -2006 0
2005 -367 2006 0
-2005 367 2006 0
2006 368 -2007 0
-2006 -368 -2007 0
2006 -368 2007 0
-2006 368 2007 0
2007 372 -2008 0
-2007 -372 -2008 0
2007 -372 2008 0
-2007 372 2008 0
2008 373 -2009 0
-2008 -373 -2009 0
2008 -373 2009 0
-2008 373 2009 0
2009 374 -2010 0
-2009 -374 -2010 0
2009 -374 2010 0
-2009 374 2010 0
2010 378 -2011 0
-2010 -378 -2011 0
2010 -378 2011 0
-2010 378 2011 0
2011 379 -2012 0
-2011 -379 -2012 0
2011 -379 2012 0
-2011 379 2012 0
2012 380 -2013 0
-2012 -380 -2013 0
2012 -380 2013 0
-2012 380 2013 0
2013 396 -2014 0
-2013 -396 -2014 0
2013 -396 2014 0
-2013 396 2014 0
2014 397 -2015 0
-2014 -397 -2015 0
2014 -397 2015 0
-2014 397 2015 0
2015 398 -2016 0
-2015 -398 -2016 0
2015 -398 2016 0
-2015 398 2016 0
3 211 -2017 0
-3 -211 -2017 0
3 -211 2017 0
-3 211 2017 0
2017 212 -2018 0
-2017 -212 -2018 0
2017 -212 2018 0
-2017 212 2018 0
2018 213 -2019 0
-2018 -213 -2019 0
2018 -213 2019 0
-2018 213 2019 0
2019 217 -2020 0
-2019 -217 -2020 0
2019 -217 2020 0
-2019 217 2020 0
2020 218 -2021 0
-2020 -218 -2021 0
2020 -218 2021 0
-2020 218 2021 0
2021 219 -2022 0
-2021 -219 -2022 0
2021 -219 2022 0
-2021 219 2022 0
2022 223 -2023 0
-2022 -223 -2023 0
2022 -223 2023 0
-2022 223 2023 0
2023 224 -2024 0
-2023 -224 -2024 0
2023 -224 2024 0
-2023 224 2024 0
2024 225 -2025 0
-2024 -225 -2025 0
2024 -225 2025 0
-2024 225 2025 0
2025 229 -2026 0
-2025 -229 -2026 0
2025 -229 2026 0
-2025 229 2026 0
2026 230 -2027 0
-2026 -230 -2027 0
2026 -230 2027 0
-2026 230 2027 0
2027 231 -2028 0
-2027 -231 -2028 0
2027 -231 2028 0
-2027 231 2028 0
2028 235 -2029 0
-2028 -235 -2029 0
2028 -235 2029 0
-2028 235 2029 0
2029 236 -2030 0
-2029 -236 -2030 0
2029 -236 2030 0
-2029 236 2030 0
2030 237 -2031 0
-2030 -237 -2031 0
2030 -237 2031 0
-2030 237 2031 0
2031 241 -2032 0
-2031 -241 -2032 0
2031 -241 2032 0
-2031 241 2032 0
2032 242 -2033 0
-2032 -242 -2033 0
2032 -242 2033 0
-2032 242 2033 0
2033 243 -2034 0
-2033 -243 -2034 0
2033 -243 2034 0
-2033 243 2034 0
2034 247 -2035 0
-2034 -247 -2035 0
2034 -247 2035 0
-2034 247 2035 0
2035 248 -2036 0
-2035 -248 -2036 0
2035 -248 2036 0
-2035 248 2036 0
2036 249 -2037 0
-2036 -249 -2037 0
2036 -249 2037 0
-2036 249 2037 0
2037 253 -2038 0
-2037 -253 -2038 0
2037 -253 2038 0
-2037 253 2038 0
2038 254 -2039 0
-2038 -254 -2039 0
2038 -254 2039 0
-2038 254 2039 0
2039 255 -2040 0
-2039 -255 -2040 0
2039 -255 2040 0
-2039 255 2040 0
2040 259 -2041 0
-2040 -259 -2041 0
2040 -259 2041 0
-2040 259 2041 0
2041 260 -2042 0
-2041 -260 -2042 0
2041 -260 2042 0
-2041 260 2042 0
2042 261 -2043 0
-2042 -261 -2043 0
2042 -261 2043 0
-2042 261 2043 0
2043 265 -2044 0
-2043 -265 -2044 0
2043 -265 2044 0
-2043 265 2044 0
2044 266 -2045 0
-2044 -266 -2045 0
2044 -266 2045 0
-2044 266 2045 0
2045 267 -2046 0
-2045 -267 -2046 0
2045 -267 2046 0
-2045 267 2046 0
2046 271 -2047 0
-2046 -271 -2047 0
2046 -271 2047 0
-2046 271 2047 0
2047 272 -2048 0
-2047 -272 -2048 0
2047 -272 2048 0
-2047 272 2048 0
2048 273 -2049 0
-2048 -273 -2049 0
2048 -273 2049 0
-2048 273 2049 0
2049 277 -2050 0
-2049 -277 -2050 0
2049 -277 2050 0
-2049 277 2050 0
2050 278 -2051 0
-2050 -278 -2051 0
2050 -278 2051 0
-2050 278 2051 0
2051 279 -2052 0
-2051 -279 -2052 0
2051 -279 2052 0
-2051 279 2052 0
2052 283 -2053 0
-2052 -283 -2053 0
2052 -283 2053 0
-2052 283 2053 0
2053 284 -2054 0
-2053 -284 -2054 0
2053 -284 2054 0
-2053 284 2054 0
2054 285 -2055 0
-2054 -285 -2055 0
2054 -285 2055 0
-2054 285 2055 0
2055 289 -2056 0
-2055 -289 -2056 0
2055 -289 2056 0
-2055 289 2056 0
2056 290 -2057 0
-2056 -290 -2057 0
2056 -290 2057 0
-2056 290 2057 0
2057 291 -2058 0
-2057 -291 -2058 0
2057 -291 2058 0
-2057 291 2058 0
2058 295 -2059 0
-2058 -295 -2059 0
2058 -295 2059 0
-2058 295 2059 0
2059 296 -2060 0
-2059 -296 -2060 0
2059 -296 2060 0
-2059 296 2060 0
2060 297 -2061 0
-2060 -297 -2061 0
2060 -297 2061 0
-2060 297 2061 0
2061 301 -2062 0
-2061 -301 -2062 0
2061 -301 2062 0
-2061 301 2062 0
2062 302 -2063 0
-2062 -302 -2063 0
2062 -302 2063 0
-2062 302 2063 0
2063 303 -2064 0
-2063 -303 -2064 0
2063 -303 2064 0
-2063 303 2064 0
2064 307 -2065 0
-2064 -307 -2065 0
2064 -307 2065 0
-2064 307 2065 0
2065 308 -2066 0
-2065 -308 -2066 0
2065 -308 2066 0
-2065 308 2066 0
2066 309 -2067 0
-2066 -309 -2067 0
2066 -309 2067 0
-2066 309 2067 0
2067 313 -2068 0
-2067 -313 -2068 0
2067 -313 2068 0
-2067 313 2068 0
2068 314 -2069 0
-2068 -314 -2069 0
2068 -314 2069 0
-2068 314 2069 0
2069 315 -2070 0
-2069 -315 -2070 0
2069 -315 2070 0
-2069 315 2070 0
2070 319 -2071 0
-2070 -319 -2071 0
2070 -319 2071 0
-2070 319 2071 0
2071 320 -2072 0
-2071 -320 -2072 0
2071 -320 2072 0
-2071 320 2072 0
2072 321 -2073 0
-2072 -321 -2073 0
2072 -321 2073 0
-2072 321 2073 0
2073 325 -2074 0
-2073 -325 -2074 0
2073 -325 2074 0
-2073 325 2074 0
2074 326 -2075 0
-2074 -326 -2075 0
2074 -326 2075 0
-2074 326 2075 0
2075 327 -2076 0
-2075 -327 -2076 0
2075 -327 2076 0
-2075 327 2076 0
2076 331 -2077 0
-2076 -331 -2077 0
2076 -331 2077 0
-2076 331 2077 0
2077 332 -2078 0
-2077 -332 -2078 0
2077 -332 2078 0
-2077 332 2078 0
2078 333 -2079 0
-2078 -333 -2079 0
2078 -333 2079 0
-2078 333 2079 0
2079 337 -2080 0
-2079 -337 -2080 0
2079 -337 2080 0
-2079 337 2080 0
2080 338 -2081 0
-2080 -338 -2081 0
2080 -338 2081 0
-2080 338 2081 0
2081 339 -2082 0
-2081 -339 -2082 0
2081 -339 2082 0
-2081 339 2082 0
2082 343 -2083 0
-2082 -343 -2083 0
2082 -343 2083 0
-2082 343 2083 0
2083 344 -2084 0
-2083 -344 -2084 0
2083 -344 2084 0
-2083 344 2084 0
2084 345 -2085 0
-2084 -345 -2085 0
2084 -345 2085 0
-2084 345 2085 0
2085 349 -2086 0
-2085 -349 -2086 0
2085 -349 2086 0
-2085 349 2086 0
2086 350 -2087 0
-2086 -350 -2087 0
2086 -350 2087 0
-2086 350 2087 0
2087 351 -2088 0
-2087 -351 -2088 0
2087 -351 2088 0
-2087 351 2088 0
2088 355 -2089 0
-2088 -355 -2089 0
2088 -355 2089 0
-2088 355 2089 0
2089 356 -2090 0
-2089 -356 -2090 0
2089 -356 2090 0
-2089 356 2090 0
2090 357 -2091 0
-2090 -357 -2091 0
2090 -357 2091 0
-2090 357 2091 0
2091 361 -2092 0
-2091 -361 -2092 0
2091 -361 2092 0
-2091 361 2092 0
2092 362 -2093 0
-2092 -362 -2093 0
2092 -362 2093 0
-2092 362 2093 0
2093 363 -2094 0
-2093 -363 -2094 0
2093 -363 2094 0
-2093 363 2094 0
2094 367 -2095 0
-2094 -367 -2095 0
2094 -367 2095 0
-2094 367 2095 0
2095 368 -2096 0
-2095 -368 -2096 0
2095 -368 2096 0
-2095 368 2096 0
2096 369 -2097 0
-2096 -369 -2097 0
2096 -369 2097 0
-2096 369 2097 0
2097 373 -2098 0
-2097 -373 -2098 0
2097 -373 2098 0
-2097 373 2098 0
2098 374 -2099 0
-2098 -374 -2099 0
2098 -374 2099 0
-2098 374 2099 0
2099 375 -2100 0
-2099 -375 -2100 0
2099 -375 2100 0
-2099 375 2100 0
2100 379 -2101 0
-2100 -379 -2101 0
2100 -379 2101 0
-2100 379 2101 0
2101 380 -2102 0
-2101 -380 -2102 0
2101 -380 2102 0
-2101 380 2102 0
2102 381 -2103 0
-2102 -381 -2103 0
2102 -381 2103 0
-2102 381 2103 0
2103 397 -2104 0
-2103 -397 -2104 0
2103 -397 2104 0
-2103 397 2104 0
2104 398 -2105 0
-2104 -398 -2105 0
2104 -398 2105 0
-2104 398 2105 0
2105 399 -2106 0
-2105 -399 -2106 0
2105 -399 2106 0
-2105 399 2106 0
4 212 -2107 0
-4 -212 -2107 0
4 -212 2107 0
-4 212 2107 0
2107 213 -2108 0
-2107 -213 -2108 0
2107 -213 2108 0
-2107 213 2108 0
2108 214 -2109 0
-2108 -214 -2109 0
2108 -214 2109 0
-2108 214 2109 0
2109 218 -2110 0
-2109 -218 -2110 0
2109 -218 2110 0
-2109 218 2110 0
2110 219 -2111 0
-2110 -219 -2111 0
2110 -219 2111 0
-2110 219 2111 0
2111 220 -2112 0
-2111 -220 -2112 0
2111 -220 2112 0
-2111 220 2112 0
2112 224 -2113 0
-2112 -224 -2113 0
2112 -224 2113 0
-2112 224 2113 0
2113 225 -2114 0
-2113 -225 -2114 0
2113 -225 2114 0
-2113 225 2114 0
2114 226 -2115 0
-2114 -226 -2115 0
2114 -226 2115 0
-2114 226 2115 0
2115 230 -2116 0
-2115 -230 -2116 0
2115 -230 2116 0
-2115 230 2116 0
2116 231 -2117 0
-2116 -231 -2117 0
2116 -231 2117 0
-2116 231 2117 0
2117 232 -2118 0
-2117 -232 -2118 0
2117 -232 2118 0
-2117 232 2118 0
2118 236 -2119 0
-2118 -236 -2119 0
2118 -236 2119 0
-2118 236 2119 0
2119 237 -2120 0
-2119 -237 -2120 0
2119 -237 2120 0
-2119 237 2120 0
2120 238 -2121 0
-2120 -238 -2121 0
2120 -238 2121 0
-2120 238 2121 0
2121 242 -2122 0
-2121 -242 -2122 0
2121 -242 2122 0
-2121 242 2122 0
2122 243 -2123 0
-2122 -243 -2123 0
2122 -243 2123 0
-2122 243 2123 0
2123 244 -2124 0
-2123 -244 -2124 0
2123 -244 2124 0
-2123 244 2124 0
2124 248 -2125 0
-2124 -248 -2125 0
2124 -248 2125 0
-2124 248 2125 0
2125 249 -2126 0
-2125 -249 -2126 0
2125 -249 2126 0
-2125 249 2126 0
2126 250 -2127 0
-2126 -250 -2127 0
2126 -250 2127 0
-2126 250 2127 0
2127 254 -2128 0
-2127 -254 -2128 0
2127 -254 2128 0
-2127 254 2128 0
2128 255 -2129 0
-2128 -255 -2129 0
2128 -255 2129 0
-2128 255 2129 0
2129 256 -2130 0
-2129 -256 -2130 0
2129 -256 2130 0
-2129 256 2130 0
2130 260 -2131 0
-2130 -260 -2131 0
2130 -260 2131 0
-2130 260 2131 0
2131 261 -2132 0
-2131 -261 -2132 0
2131 -261 2132 0
-2131 261 2132 0
2132 262 -2133 0
-2132 -262 -2133 0
2132 -262 2133 0
-2132 262 2133 0
2133 266 -2134 0
-2133 -266 -2134 0
2133 -266 2134 0
-2133 266 2134 0
2134 267 -2135 0
-2134 -267 -2135 0
2134 -267 2135 0
-2134 267 2135 0
2135 268 -2136 0
-2135 -268 -2136 0
2135 -268 2136 0
-2135 268 2136 0
2136 272 -2137 0
-2136 -272 -2137 0
2136 -272 2137 0
-2136 272 2137 0
2137 273 -2138 0
-2137 -273 -2138 0
2137 -273 2138 0
-2137 273 2138 0
2138 274 -2139 0
-2138 -274 -2139 0
2138 -274 2139 0
-2138 274 2139 0
2139 278 -2140 0
-2139 -278 -2140 0
2139 -278 2140 0
-2139 278 2140 0
2140 279 -2141 0
-2140 -279 -2141 0
2140 -279 2141 0
-2140 279 2141 0
2141 280 -2142 0
-2141 -280 -2142 0
2141 -280 2142 0
-2141 280 2142 0
2142 284 -2143 0
-2142 -284 -2143 0
2142 -284 2143 0
-2142 284 2143 0
2143 285 -2144 0
-2143 -285 -2144 0
2143 -285 2144 0
-2143 285 2144 0
2144 286 -2145 0
-2144 -286 -2145 0
2144 -286 2145 0
-2144 286 2145 0
2145 290 -2146 0
-2145 -290 -2146 0
2145 -290 2146 0
-2145 290 2146 0
2146 291 -2147 0
-2146 -291 -2147 0
2146 -291 2147 0
-2146 291 2147 0
2147 292 -2148 0
-2147 -292 -2148 0
2147 -292 2148 0
-2147 292 2148 0
2148 296 -2149 0
-2148 -296 -2149 0
2148 -296 2149 0
-2148 296 2149 0
2149 297 -2150 0
-2149 -297 -2150 0
2149 -297 2150 0
-2149 297 2150 0
2150 298 -2151 0
-2150 -298 -2151 0
2150 -298 2151 0
-2150 298 2151 0
2151 302 -2152 0
-2151 -302 -2152 0
2151 -302 2152 0
-2151 302 2152 0
2152 303 -2153 0
-2152 -303 -2153 0
2152 -303 2153 0
-2152 303 2153 0
2153 304 -2154 0
-2153 -304 -2154 0
2153 -304 2154 0
-2153 304 2154 0
2154 308 -2155 0
-2154 -308 -2155 0
2154 -308 2155 0
-2154 308 2155 0
2155 309 -2156 0
-2155 -309 -2156 0
2155 -309 2156 0
-2155 309 2156 0
2156 310 -2157 0
-2156 -310 -2157 0
2156 -310 2157 0
-2156 310 2157 0
2157 314 -2158 0
-2157 -314 -2158 0
2157 -314 2158 0
-2157 314 2158 0
2158 315 -2159 0
-2158 -315 -2159 0
2158 -315 2159 0
-2158 315 2159 0
2159 316 -2160 0
-2159 -316 -2160 0
2159 -316 2160 0
-2159 316 2160 0
2160 320 -2161 0
-2160 -320 -2161 0
2160 -320 2161 0
-2160 320 2161 0
2161 321 -2162 0
-2161 -321 -2162 0
2161 -321 2162 0
-2161 321 2162 0
2162 322 -2163 0
-2162 -322 -2163 0
2162 -322 2163 0
-2162 322 2163 0
2163 326 -2164 0
-2163 -326 -2164 0
2163 -326 2164 0
-2163 326 2164 0
2164 327 -2165 0
-2164 -327 -2165 0
2164 -327 2165 0
-2164 327 2165 0
2165 328 -2166 0
-2165 -328 -2166 0
2165 -328 2166 0
-2165 328 2166 0
2166 332 -2167 0
-2166 -332 -2167 0
2166 -332 2167 0
-2166 332 2167 0
2167 333 -2168 0
-2167 -333 -2168 0
2167 -333 2168 0
-2167 333 2168 0
2168 334 -2169 0
-2168 -334 -2169 0
2168 -334 2169 0
-2168 334 2169 0
2169 338 -2170 0
-2169 -338 -2170 0
2169 -338 2170 0
-2169 338 2170 0
2170 339 -2171 0
-2170 -339 -2171 0
2170 -339 2171 0
-2170 339 2171 0
2171 340 -2172 0
-2171 -340 -2172 0
2171 -340 2172 0
-2171 340 2172 0
2172 344 -2173 0
-2172 -344 -2173 0
2172 -344 2173 0
-2172 344 2173 0
2173 345 -2174 0
-2173 -345 -2174 0
2173 -345 2174 0
-2173 345 2174 0
2174 346 -2175 0
-2174 -346 -2175 0
2174 -346 2175 0
-2174 346 2175 0
2175 350 -2176 0
-2175 -350 -2176 0
2175 -350 2176 0
-2175 350 2176 0
2176 351 -2177 0
-2176 -351 -2177 0
2176 -351 2177 0
-2176 351 2177 0
2177 352 -2178 0
-2177 -352 -2178 0
2177 -352 2178 0
-2177 352 2178 0
2178 356 -2179 0
-2178 -356 -2179 0
2178 -356 2179 0
-2178 356 2179 0
2179 357 -2180 0
-2179 -357 -2180 0
2179 -357 2180 0
-2179 357 2180 0
2180 358 -2181 0
-2180 -358 -2181 0
2180 -358 2181 0
-2180 358 2181 0
2181 362 -2182 0
-2181 -362 -2182 0
2181 -362 2182 0
-2181 362 2182 0
2182 363 -2183 0
-2182 -363 -2183 0
2182 -363 2183 0
-2182 363 2183 0
2183 364 -2184 0
-2183 -364 -2184 0
2183 -364 2184 0
-2183 364 2184 0
2184 368 -2185 0
-2184 -368 -2185 0
2184 -368 2185 0
-2184 368 2185 0
2185 369 -2186 0
-2185 -369 -2186 0
2185 -369 2186 0
-2185 369 2186 0
2186 370 -2187 0
-2186 -370 -2187 0
2186 -370 2187 0
-2186 370 2187 0
2187 374 -2188 0
-2187 -374 -2188 0
2187 -374 2188 0
-2187 374 2188 0
2188 375 -2189 0
-2188 -375 -2189 0
2188 -375 2189 0
-2188 375 2189 0
2189 376 -2190 0
-2189 -376 -2190 0
2189 -376 2190 0
-2189 376 2190 0
2190 380 -2191 0
-2190 -380 -2191 0
2190 -380 2191 0
-2190 380 2191 0
2191 381 -2192 0
-2191 -381 -2192 0
2191 -381 2192 0
-2191 381 2192 0
2192 382 -2193 0
-2192 -382 -2193 0
2192 -382 2193 0
-2192 382 2193 0
2193 398 -2194 0
-2193 -398 -2194 0
2193 -398 2194 0
-2193 398 2194 0
2194 399 -2195 0
-2194 -399 -2195 0
2194 -399 2195 0
-2194 399 2195 0
2195 400 -2196 0
-2195 -400 -2196 0
2195 -400 2196 0
-2195 400 2196 0
13 209 -2197 0
-13 -209 -2197 0
13 -209 2197 0
-13 209 2197 0
2197 210 -2198 0
-2197 -210 -2198 0
2197 -210 2198 0
-2197 210 2198 0
2198 211 -2199 0
-2198 -211 -2199 0
2198 -211 2199 0
-2198 211 2199 0
2199 215 -2200 0
-2199 -215 -2200 0
2199 -215 2200 0
-2199 215 2200 0
2200 216 -2201 0
-2200 -216 -2201 0
2200 -216 2201 0
-2200 216 2201 0
2201 217 -2202 0
-2201 -217 -2202 0
2201 -217 2202 0
-2201 217 2202 0
2202 395 -2203 0
-2202 -395 -2203 0
2202 -395 2203 0
-2202 395 2203 0
2203 396 -2204 0
-2203 -396 -2204 0
2203 -396 2204 0
-2203 396 2204 0
2204 397 -2205 0
-2204 -397 -2205 0
2204 -397 2205 0
-2204 397 2205 0
2205 401 -2206 0
-2205 -401 -2206 0
2205 -401 2206 0
-2205 401 2206 0
2206 402 -2207 0
-2206 -402 -2207 0
2206 -402 2207 0
-2206 402 2207 0
2207 403 -2208 0
-2207 -403 -2208 0
2207 -403 2208 0
-2207 403 2208 0
14 210 -2209 0
-14 -210 -2209 0
14 -210 2209 0
-14 210 2209 0
2209 211 -2210 0
-2209 -211 -2210 0
2209 -211 2210 0
-2209 211 2210 0
2210 212 -2211 0
-2210 -212 -2211 0
2210 -212 2211 0
-2210 212 2211 0
2211 216 -2212 0
-2211 -216 -2212 0
2211 -216 2212 0
-2211 216 2212 0
2212 217 -2213 0
-2212 -217 -2213 0
2212 -217 2213 0
-2212 217 2213 0
2213 218 -2214 0
-2213 -218 -2214 0
2213 -218 2214 0
-2213 218 2214 0
2214 396 -2215 0
-2214 -396 -2215 0
2214 -396 2215 0
-2214 396 2215 0
2215 397 -2216 0
-2215 -397 -2216 0
2215 -397 2216 0
-2215 397 2216 0
2216 398 -2217 0
-2216 -398 -2217 0
2216 -398 2217 0
-2216 398 2217 0
2217 402 -2218 0
-2217 -402 -2218 0
2217 -402 2218 0
-2217 402 2218 0
2218 403 -2219 0
-2218 -403 -2219 0
2218 -403 2219 0
-2218 403 2219 0
2219 404 -2220 0
-2219 -404 -2220 0
2219 -404 2220 0
-2219 404 2220 0
15 211 -2221 0
-15 -211 -2221 0
15 -211 2221 0
-15 211 2221 0
2221 212 -2222 0
-2221 -212 -2222 0
2221 -212 2222 0
-2221 212 2222 0
2222 213 -2223 0
-2222 -213 -2223 0
2222 -213 2223 0
-2222 213 2223 0
2223 217 -2224 0
-2223 -217 -2224 0
2223 -217 2224 0
-2223 217 2224 0
2224 218 -2225 0
-2224 -218 -2225 0
2224 -218 2225 0
-2224 218 2225 0
2225 219 -2226 0
-2225 -219 -2226 0
2225 -219 2226 0
-2225 219 2226 0
2226 397 -2227 0
-2226 -397 -2227 0
2226 -397 2227 0
-2226 397 2227 0
2227 398 -2228 0
-2227 -398 -2228 0
2227 -398 2228 0
-2227 398 2228 0
2228 399 -2229 0
-2228 -399 -2229 0
2228 -399 2229 0
-2228 399 2229 0
2229 403 -2230 0
-2229 -403 -2230 0
2229 -403 2230 0
-2229 403 2230 0
2230 404 -2231 0
-2230 -404 -2231 0
2230 -404 2231 0
-2230 404 2231 0
2231 405 -2232 0
-2231 -405 -2232 0
2231 -405 2232 0
-2231 405 2232 0
16 212 -2233 0
-16 -212 -2233 0
16 -212 2233 0
-16 212 2233 0
2233 213 -2234 0
-2233 -213 -2234 0
2233 -213 2234 0
-2233 213 2234 0
2234 214 -2235 0
-2234 -214 -2235 0
2234 -214 2235 0
-2234 214 2235 0
2235 218 -2236 0
-2235 -218 -2236 0
2235 -218 2236 0
-2235 218 2236 0
2236 219 -2237 0
-2236 -219 -2237 0
2236 -219 2237 0
-2236 219 2237 0
2237 220 -2238 0
-2237 -220 -2238 0
2237 -220 2238 0
-2237 220 2238 0
2238 398 -2239 0
-2238 -398 -2239 0
2238 -398 2239 0
-2238 398 2239 0
2239 399 -2240 0
-2239 -399 -2240 0
2239 -399 2240 0
-2239 399 2240 0
2240 400 -2241 0
-2240 -400 -2241 0
2240 -400 2241 0
-2240 400 2241 0
2241 404 -2242 0
-2241 -404 -2242 0
2241 -404 2242 0
-2241 404 2242 0
2242 405 -2243 0
-2242 -405 -2243 0
2242 -405 2243 0
-2242 405 2243 0
2243 406 -2244 0
-2243 -406 -2244 0
2243 -406 2244 0
-2243 406 2244 0
1926 2016 2106 2196 2208 2220 2232 2244 0
-1 0
-2 0
-3 0
-4 0
-5 0
-6 0
-7 0
-8 0
-9 0
-10 0
-11 0
-12 0
-13 0
-14 0
-15 0
-16 0
-17 0
-18 0
-19 0
-20 0
-21 0
-22 0
-23 0
-24 0
-25 0
-26 0
-27 0
-28 0
-29 0
-30 0
-31 0
-32 0
-33 0
-34 0
-35 0
-36 0
-37 0
-38 0
-39 0
-40 0
-41 0
-42 0
-43 0
-44 0
-45 0
-46 0
-47 0
-48 0
-49 0
-50 0
-51 0
-52 0
-53 0
-54 0
-55 0
-56 0
-57 0
-58 0
-59 0
-60 0
-61 0
-62 0
-63 0
-64 0
-65 0
-66 0
-67 0
-68 0
-69 0
-70 0
-71 0
-72 0
-73 0
-74 0
-75 0
-76 0
-77 0
-78 0
-79 0
-80 0
-81 0
-82 0
-83 0
-84 0
-85 0
-86 0
-87 0
-88 0
-89 0
-90 0
-91 0
-92 0
-93 0
-94 0
-95 0
-96 0
-97 0
-98 0
-99 0
-100 0
-101 0
-102 0
-103 0
-104 0
-105 0
-106 0
-107 0
-108 0
-109 0
-110 0
-111 0
-112 0
-113 0
-114 0
-115 0
-116 0
-117 0
-118 0
-119 0
-120 0
-121 0
-122 0
-123 0
-124 0
-125 0
-126 0
-127 0
-128 0
-129 0
-130 0
-131 0
-132 0
-133 0
-134 0
-135 0
-136 0
-137 0
-138 0
-139 0
-140 0
-141 0
-142 0
-143 0
-144 0
-145 0
-146 0
-147 0
-148 0
-149 0
-150 0
-151 0
-152 0
-153 0
-154 0
-155 0
-156 0
-157 0
-158 0
-159 0
-160 0
-161 0
-162 0
-163 0
-164 0
-165 0
-166 0
-167 0
-168 0
-169 0
-170 0
-171 0
-172 0
-173 0
-174 0
-175 0
-176 0
-177 0
-178 0
-179 0
-180 0
-181 0
-182 0
-183 0
-184 0
-185 0
-186 0
-187 0
-188 0
-189 0
-190 0
-191 0
-192 0
-193 0
-194 0
-195 0
-196 0
-197 0
-198 0
-199 0
-200 0
-201 0
-202 0
-203 0
-204 0
205 0
-2259 2249 2260 0
-2254 2249 2260 0
-2254 -2259 2260 0
-2260 2245 0
-2255 2245 0
-2260 -2255 2246 0
-2256 2246 0
-2260 -2256 2247 0
-2257 2247 0
-2260 -2257 2248 0
-2258 2248 0
-2260 -2258 0
-2250 2245 0
-2260 -2250 2246 0
-2251 2246 0
-2260 -2251 2247 0
-2252 2247 0
-2260 -2252 2248 0
-2253 2248 0
-2260 -2253 0
-2250 -2255 2246 0
-2260 -2250 -2255 2247 0
-2250 -2256 2247 0
-2260 -2250 -2256 2248 0
-2250 -2257 2248 0
-2260 -2250 -2257 0
-2250 -2258 0
-2260 -2250 -2258 0
-2251 -2255 2247 0
-2260 -2251 -2255 2248 0
-2251 -2256 2248 0
-2260 -2251 -2256 0
-2251 -2257 0
-2260 -2251 -2257 0
-2251 -2258 0
-2260 -2251 -2258 0
-2252 -2255 2248 0
-2260 -2252 -2255 0
-2252 -2256 0
-2260 -2252 -2256 0
-2252 -2257 0
-2260 -2252 -2257 0
-2252 -2258 0
-2260 -2252 -2258 0
-2253 -2255 0
-2260 -2253 -2255 0
-2253 -2256 0
-2260 -2253 -2256 0
-2253 -2257 0
-2260 -2253 -2257 0
-2253 -2258 0
-2260 -2253 -2258 0
-2270 2259 2271 0
-2265 2259 2271 0
-2265 -2270 2271 0
-2271 2255 0
-2266 2255 0
-2271 -2266 2256 0
-2267 2256 0
-2271 -2267 2257 0
-2268 2257 0
-2271 -2268 2258 0
-2269 2258 0
-2271 -2269 0
-2261 2255 0
-2271 -2261 2256 0
-2262 2256 0
-2271 -2262 2257 0
-2263 2257 0
-2271 -2263 2258 0
-2264 2258 0
-2271 -2264 0
-2261 -2266 2256 0
-2271 -2261 -2266 2257 0
-2261 -2267 2257 0
-2271 -2261 -2267 2258 0
-2261 -2268 2258 0
-2271 -2261 -2268 0
-2261 -2269 0
-2271 -2261 -2269 0
-2262 -2266 2257 0
-2271 -2262 -2266 2258 0
-2262 -2267 2258 0
-2271 -2262 -2267 0
-2262 -2268 0
-2271 -2262 -2268 0
-2262 -2269 0
-2271 -2262 -2269 0
-2263 -2266 2258 0
-2271 -2263 -2266 0
-2263 -2267 0
-2271 -2263 -2267 0
-2263 -2268 0
-2271 -2263 -2268 0
-2263 -2269 0
-2271 -2263 -2269 0
-2264 -2266 0
-2271 -2264 -2266 0
-2264 -2267 0
-2271 -2264 -2267 0
-2264 -2268 0
-2271 -2264 -2268 0
-2264 -2269 0
-2271 -2264 -2269 0
-2281 2270 2282 0
-2276 2270 2282 0
-2276 -2281 2282 0
-2282 2266 0
-2277 2266 0
-2282 -2277 2267 0
-2278 2267 0
-2282 -2278 2268 0
-2279 2268 0
-2282 -2279 2269 0
-2280 2269 0
-2282 -2280 0
-2272 2266 0
-2282 -2272 2267 0
-2273 2267 0
-2282 -2273 2268 0
-2274 2268 0
-2282 -2274 2269 0
-2275 2269 0
-2282 -2275 0
-2272 -2277 2267 0
-2282 -2272 -2277 2268 0
-2272 -2278 2268 0
-2282 -2272 -2278 2269 0
-2272 -2279 2269 0
-2282 -2272 -2279 0
-2272 -2280 0
-2282 -2272 -2280 0
-2273 -2277 2268 0
-2282 -2273 -2277 2269 0
-2273 -2278 2269 0
-2282 -2273 -2278 0
-2273 -2279 0
-2282 -2273 -2279 0
-2273 -2280 0
-2282 -2273 -2280 0
-2274 -2277 2269 0
-2282 -2274 -2277 0
-2274 -2278 0
-2282 -2274 -2278 0
-2274 -2279 0
-2282 -2274 -2279 0
-2274 -2280 0
-2282 -2274 -2280 0
-2275 -2277 0
-2282 -2275 -2277 0
-2275 -2278 0
-2282 -2275 -2278 0
-2275 -2279 0
-2282 -2275 -2279 0
-2275 -2280 0
-2282 -2275 -2280 0
-2292 2281 2293 0
-2287 2281 2293 0
-2287 -2292 2293 0
-2293 2277 0
-2288 2277 0
-2293 -2288 2278 0
-2289 2278 0
-2293 -2289 2279 0
-2290 2279 0
-2293 -2290 2280 0
-2291 2280 0
-2293 -2291 0
-2283 2277 0
-2293 -2283 2278 0
-2284 2278 0
-2293 -2284 2279 0
-2285 2279 0
-2293 -2285 2280 0
-2286 2280 0
-2293 -2286 0
-2283 -2288 2278 0
-2293 -2283 -2288 2279 0
-2283 -2289 2279 0
-2293 -2283 -2289 2280 0
-2283 -2290 2280 0
-2293 -2283 -2290 0
-2283 -2291 0
-2293 -2283 -2291 0
-2284 -2288 2279 0
-2293 -2284 -2288 2280 0
-2284 -2289 2280 0
-2293 -2284 -2289 0
-2284 -2290 0
-2293 -2284 -2290 0
-2284 -2291 0
-2293 -2284 -2291 0
-2285 -2288 2280 0
-2293 -2285 -2288 0
-2285 -2289 0
-2293 -2285 -2289 0
-2285 -2290 0
-2293 -2285 -2290 0
-2285 -2291 0
-2293 -2285 -2291 0
-2286 -2288 0
-2293 -2286 -2288 0
-2286 -2289 0
-2293 -2286 -2289 0
-2286 -2290 0
-2293 -2286 -2290 0
-2286 -2291 0
-2293 -2286 -2291 0
-2303 2292 2304 0
-2298 2292 2304 0
-2298 -2303 2304 0
-2304 2288 0
-2299 2288 0
-2304 -2299 2289 0
-2300 2289 0
-2304 -2300 2290 0
-2301 2290 0
-2304 -2301 2291 0
-2302 2291 0
-2304 -2302 0
-2294 2288 0
-2304 -2294 2289 0
-2295 2289 0
-2304 -2295 2290 0
-2296 2290 0
-2304 -2296 2291 0
-2297 2291 0
-2304 -2297 0
-2294 -2299 2289 0
-2304 -2294 -2299 2290 0
-2294 -2300 2290 0
-2304 -2294 -2300 2291 0
-2294 -2301 2291 0
-2304 -2294 -2301 0
-2294 -2302 0
-2304 -2294 -2302 0
-2295 -2299 2290 0
-2304 -2295 -2299 2291 0
-2295 -2300 2291 0
-2304 -2295 -2300 0
-2295 -2301 0
-2304 -2295 -2301 0
-2295 -2302 0
-2304 -2295 -2302 0
-2296 -2299 2291 0
-2304 -2296 -2299 0
-2296 -2300 0
-2304 -2296 -2300 0
-2296 -2301 0
-2304 -2296 -2301 0
-2296 -2302 0
-2304 -2296 -2302 0
-2297 -2299 0
-2304 -2297 -2299 0
-2297 -2300 0
-2304 -2297 -2300 0
-2297 -2301 0
-2304 -2297 -2301 0
-2297 -2302 0
-2304 -2297 -2302 0
-2312 2303 2313 0
-2308 2303 2313 0
-2308 -2312 2313 0
-2313 2299 0
-2309 2299 0
-2313 -2309 2300 0
-2310 2300 0
-2313 -2310 2301 0
-2311 2301 0
-2313 -2311 2302 0
-2305 2299 0
-2313 -2305 2300 0
-2306 2300 0
-2313 -2306 2301 0
-2307 2301 0
-2313 -2307 2302 0
-2305 -2309 2300 0
-2313 -2305 -2309 2301 0
-2305 -2310 2301 0
-2313 -2305 -2310 2302 0
-2305 -2311 2302 0
-2313 -2305 -2311 0
-2306 -2309 2301 0
-2313 -2306 -2309 2302 0
-2306 -2310 2302 0
-2313 -2306 -2310 0
-2306 -2311 0
-2313 -2306 -2311 0
-2307 -2309 2302 0
-2313 -2307 -2309 0
-2307 -2310 0
-2313 -2307 -2310 0
-2307 -2311 0
-2313 -2307 -2311 0
-2317 2312 2318 0
-2315 2312 2318 0
-2315 -2317 2318 0
-2318 2309 0
-2316 2309 0
-2318 -2316 2310 0
-2314 2309 0
-2318 -2314 2310 0
-2314 -2316 2310 0
-2318 -2314 -2316 2311 0
-408 2317 2321 0
-2320 2317 2321 0
-2320 -408 2321 0
-2321 2316 0
-2319 2316 0
-2321 -2319 0
-407 2320 2322 0
-406 2320 2322 0
-406 -407 2322 0
-2322 2319 0
-405 2315 2325 0
-2324 2315 2325 0
-2324 -405 2325 0
-2325 2314 0
-2323 2314 0
-2325 -2323 0
-404 2324 2326 0
-403 2324 2326 0
-403 -404 2326 0
-2326 2323 0
-2330 2308 2331 0
-2328 2308 2331 0
-2328 -2330 2331 0
-2331 2305 0
-2329 2305 0
-2331 -2329 2306 0
-2327 2305 0
-2331 -2327 2306 0
-2327 -2329 2306 0
-2331 -2327 -2329 2307 0
-402 2330 2334 0
-2333 2330 2334 0
-2333 -402 2334 0
-2334 2329 0
-2332 2329 0
-2334 -2332 0
-401 2333 2335 0
-400 2333 2335 0
-400 -401 2335 0
-2335 2332 0
-399 2328 2338 0
-2337 2328 2338 0
-2337 -399 2338 0
-2338 2327 0
-2336 2327 0
-2338 -2336 0
-398 2337 2339 0
-397 2337 2339 0
-397 -398 2339 0
-2339 2336 0
-2347 2298 2348 0
-2343 2298 2348 0
-2343 -2347 2348 0
-2348 2294 0
-2344 2294 0
-2348 -2344 2295 0
-2345 2295 0
-2348 -2345 2296 0
-2346 2296 0
-2348 -2346 2297 0
-2340 2294 0
-2348 -2340 2295 0
-2341 2295 0
-2348 -2341 2296 0
-2342 2296 0
-2348 -2342 2297 0
-2340 -2344 2295 0
-2348 -2340 -2344 2296 0
-2340 -2345 2296 0
-2348 -2340 -2345 2297 0
-2340 -2346 2297 0
-2348 -2340 -2346 0
-2341 -2344 2296 0
-2348 -2341 -2344 2297 0
-2341 -2345 2297 0
-2348 -2341 -2345 0
-2341 -2346 0
-2348 -2341 -2346 0
-2342 -2344 2297 0
-2348 -2342 -2344 0
-2342 -2345 0
-2348 -2342 -2345 0
-2342 -2346 0
-2348 -2342 -2346 0
-2352 2347 2353 0
-2350 2347 2353 0
-2350 -2352 2353 0
-2353 2344 0
-2351 2344 0
-2353 -2351 2345 0
-2349 2344 0
-2353 -2349 2345 0
-2349 -2351 2345 0
-2353 -2349 -2351 2346 0
-396 2352 2356 0
-2355 2352 2356 0
-2355 -396 2356 0
-2356 2351 0
-2354 2351 0
-2356 -2354 0
-395 2355 2357 0
-394 2355 2357 0
-394 -395 2357 0
-2357 2354 0
-393 2350 2360 0
-2359 2350 2360 0
-2359 -393 2360 0
-2360 2349 0
-2358 2349 0
-2360 -2358 0
-392 2359 2361 0
-391 2359 2361 0
-391 -392 2361 0
-2361 2358 0
-2366 2343 2367 0
-2364 2343 2367 0
-2364 -2366 2367 0
-2367 2340 0
-2365 2340 0
-2367 -2365 2341 0
-2362 2340 0
-2367 -2362 2341 0
-2363 2341 0
-2367 -2363 2342 0
-2362 -2365 2341 0
-2367 -2362 -2365 2342 0
-2363 -2365 2342 0
-2367 -2363 -2365 0
-390 2366 2370 0
-2369 2366 2370 0
-2369 -390 2370 0
-2370 2365 0
-2368 2365 0
-2370 -2368 0
-389 2369 2371 0
-388 2369 2371 0
-388 -389 2371 0
-2371 2368 0
-2375 2364 2376 0
-2373 2364 2376 0
-2373 -2375 2376 0
-2376 2362 0
-2374 2362 0
-2376 -2374 2363 0
-2372 2362 0
-2376 -2372 2363 0
-2372 -2374 2363 0
-2376 -2372 -2374 0
-387 2375 2377 0
-386 2375 2377 0
-386 -387 2377 0
-2377 2374 0
-385 2373 2378 0
-384 2373 2378 0
-384 -385 2378 0
-2378 2372 0
-2388 2287 2389 0
-2383 2287 2389 0
-2383 -2388 2389 0
-2389 2283 0
-2384 2283 0
-2389 -2384 2284 0
-2385 2284 0
-2389 -2385 2285 0
-2386 2285 0
-2389 -2386 2286 0
-2387 2286 0
-2389 -2387 0
-2379 2283 0
-2389 -2379 2284 0
-2380 2284 0
-2389 -2380 2285 0
-2381 2285 0
-2389 -2381 2286 0
-2382 2286 0
-2389 -2382 0
-2379 -2384 2284 0
-2389 -2379 -2384 2285 0
-2379 -2385 2285 0
-2389 -2379 -2385 2286 0
-2379 -2386 2286 0
-2389 -2379 -2386 0
-2379 -2387 0
-2389 -2379 -2387 0
-2380 -2384 2285 0
-2389 -2380 -2384 2286 0
-2380 -2385 2286 0
-2389 -2380 -2385 0
-2380 -2386 0
-2389 -2380 -2386 0
-2380 -2387 0
-2389 -2380 -2387 0
-2381 -2384 2286 0
-2389 -2381 -2384 0
-2381 -2385 0
-2389 -2381 -2385 0
-2381 -2386 0
-2389 -2381 -2386 0
-2381 -2387 0
-2389 -2381 -2387 0
-2382 -2384 0
-2389 -2382 -2384 0
-2382 -2385 0
-2389 -2382 -2385 0
-2382 -2386 0
-2389 -2382 -2386 0
-2382 -2387 0
-2389 -2382 -2387 0
-2397 2388 2398 0
-2393 2388 2398 0
-2393 -2397 2398 0
-2398 2384 0
-2394 2384 0
-2398 -2394 2385 0
-2395 2385 0
-2398 -2395 2386 0
-2396 2386 0
-2398 -2396 2387 0
-2390 2384 0
-2398 -2390 2385 0
-2391 2385 0
-2398 -2391 2386 0
-2392 2386 0
-2398 -2392 2387 0
-2390 -2394 2385 0
-2398 -2390 -2394 2386 0
-2390 -2395 2386 0
-2398 -2390 -2395 2387 0
-2390 -2396 2387 0
-2398 -2390 -2396 0
-2391 -2394 2386 0
-2398 -2391 -2394 2387 0
-2391 -2395 2387 0
-2398 -2391 -2395 0
-2391 -2396 0
-2398 -2391 -2396 0
-2392 -2394 2387 0
-2398 -2392 -2394 0
-2392 -2395 0
-2398 -2392 -2395 0
-2392 -2396 0
-2398 -2392 -2396 0
-2402 2397 2403 0
-2400 2397 2403 0
-2400 -2402 2403 0
-2403 2394 0
-2401 2394 0
-2403 -2401 2395 0
-2399 2394 0
-2403 -2399 2395 0
-2399 -2401 2395 0
-2403 -2399 -2401 2396 0
-383 2402 2406 0
-2405 2402 2406 0
-2405 -383 2406 0
-2406 2401 0
-2404 2401 0
-2406 -2404 0
-382 2405 2407 0
-381 2405 2407 0
-381 -382 2407 0
-2407 2404 0
-380 2400 2410 0
-2409 2400 2410 0
-2409 -380 2410 0
-2410 2399 0
-2408 2399 0
-2410 -2408 0
-379 2409 2411 0
-378 2409 2411 0
-378 -379 2411 0
-2411 2408 0
-2416 2393 2417 0
-2414 2393 2417 0
-2414 -2416 2417 0
-2417 2390 0
-2415 2390 0
-2417 -2415 2391 0
-2412 2390 0
-2417 -2412 2391 0
-2413 2391 0
-2417 -2413 2392 0
-2412 -2415 2391 0
-2417 -2412 -2415 2392 0
-2413 -2415 2392 0
-2417 -2413 -2415 0
-377 2416 2420 0
-2419 2416 2420 0
-2419 -377 2420 0
-2420 2415 0
-2418 2415 0
-2420 -2418 0
-376 2419 2421 0
-375 2419 2421 0
-375 -376 2421 0
-2421 2418 0
-2425 2414 2426 0
-2423 2414 2426 0
-2423 -2425 2426 0
-2426 2412 0
-2424 2412 0
-2426 -2424 2413 0
-2422 2412 0
-2426 -2422 2413 0
-2422 -2424 2413 0
-2426 -2422 -2424 0
-374 2425 2427 0
-373 2425 2427 0
-373 -374 2427 0
-2427 2424 0
-372 2423 2428 0
-371 2423 2428 0
-371 -372 2428 0
-2428 2422 0
-2436 2383 2437 0
-2432 2383 2437 0
-2432 -2436 2437 0
-2437 2379 0
-2433 2379 0
-2437 -2433 2380 0
-2434 2380 0
-2437 -2434 2381 0
-2435 2381 0
-2437 -2435 2382 0
-2429 2379 0
-2437 -2429 2380 0
-2430 2380 0
-2437 -2430 2381 0
-2431 2381 0
-2437 -2431 2382 0
-2429 -2433 2380 0
-2437 -2429 -2433 2381 0
-2429 -2434 2381 0
-2437 -2429 -2434 2382 0
-2429 -2435 2382 0
-2437 -2429 -2435 0
-2430 -2433 2381 0
-2437 -2430 -2433 2382 0
-2430 -2434 2382 0
-2437 -2430 -2434 0
-2430 -2435 0
-2437 -2430 -2435 0
-2431 -2433 2382 0
-2437 -2431 -2433 0
-2431 -2434 0
-2437 -2431 -2434 0
-2431 -2435 0
-2437 -2431 -2435 0
-2441 2436 2442 0
-2439 2436 2442 0
-2439 -2441 2442 0
-2442 2433 0
-2440 2433 0
-2442 -2440 2434 0
-2438 2433 0
-2442 -2438 2434 0
-2438 -2440 2434 0
-2442 -2438 -2440 2435 0
-370 2441 2445 0
-2444 2441 2445 0
-2444 -370 2445 0
-2445 2440 0
-2443 2440 0
-2445 -2443 0
-369 2444 2446 0
-368 2444 2446 0
-368 -369 2446 0
-2446 2443 0
-367 2439 2449 0
-2448 2439 2449 0
-2448 -367 2449 0
-2449 2438 0
-2447 2438 0
-2449 -2447 0
-366 2448 2450 0
-365 2448 2450 0
-365 -366 2450 0
-2450 2447 0
-2455 2432 2456 0
-2453 2432 2456 0
-2453 -2455 2456 0
-2456 2429 0
-2454 2429 0
-2456 -2454 2430 0
-2451 2429 0
-2456 -2451 2430 0
-2452 2430 0
-2456 -2452 2431 0
-2451 -2454 2430 0
-2456 -2451 -2454 2431 0
-2452 -2454 2431 0
-2456 -2452 -2454 0
-364 2455 2459 0
-2458 2455 2459 0
-2458 -364 2459 0
-2459 2454 0
-2457 2454 0
-2459 -2457 0
-363 2458 2460 0
-362 2458 2460 0
-362 -363 2460 0
-2460 2457 0
-2464 2453 2465 0
-2462 2453 2465 0
-2462 -2464 2465 0
-2465 2451 0
-2463 2451 0
-2465 -2463 2452 0
-2461 2451 0
-2465 -2461 2452 0
-2461 -2463 2452 0
-2465 -2461 -2463 0
-361 2464 2466 0
-360 2464 2466 0
-360 -361 2466 0
-2466 2463 0
-359 2462 2467 0
-358 2462 2467 0
-358 -359 2467 0
-2467 2461 0
-2477 2276 2478 0
-2472 2276 2478 0
-2472 -2477 2478 0
-2478 2272 0
-2473 2272 0
-2478 -2473 2273 0
-2474 2273 0
-2478 -2474 2274 0
-2475 2274 0
-2478 -2475 2275 0
-2476 2275 0
-2478 -2476 0
-2468 2272 0
-2478 -2468 2273 0
-2469 2273 0
-2478 -2469 2274 0
-2470 2274 0
-2478 -2470 2275 0
-2471 2275 0
-2478 -2471 0
-2468 -2473 2273 0
-2478 -2468 -2473 2274 0
-2468 -2474 2274 0
-2478 -2468 -2474 2275 0
-2468 -2475 2275 0
-2478 -2468 -2475 0
-2468 -2476 0
-2478 -2468 -2476 0
-2469 -2473 2274 0
-2478 -2469 -2473 2275 0
-2469 -2474 2275 0
-2478 -2469 -2474 0
-2469 -2475 0
-2478 -2469 -2475 0
-2469 -2476 0
-2478 -2469 -2476 0
-2470 -2473 2275 0
-2478 -2470 -2473 0
-2470 -2474 0
-2478 -2470 -2474 0
-2470 -2475 0
-2478 -2470 -2475 0
-2470 -2476 0
-2478 -2470 -2476 0
-2471 -2473 0
-2478 -2471 -2473 0
-2471 -2474 0
-2478 -2471 -2474 0
-2471 -2475 0
-2478 -2471 -2475 0
-2471 -2476 0
-2478 -2471 -2476 0
-2488 2477 2489 0
-2483 2477 2489 0
-2483 -2488 2489 0
-2489 2473 0
-2484 2473 0
-2489 -2484 2474 0
-2485 2474 0
-2489 -2485 2475 0
-2486 2475 0
-2489 -2486 2476 0
-2487 2476 0
-2489 -2487 0
-2479 2473 0
-2489 -2479 2474 0
-2480 2474 0
-2489 -2480 2475 0
-2481 2475 0
-2489 -2481 2476 0
-2482 2476 0
-2489 -2482 0
-2479 -2484 2474 0
-2489 -2479 -2484 2475 0
-2479 -2485 2475 0
-2489 -2479 -2485 2476 0
-2479 -2486 2476 0
-2489 -2479 -2486 0
-2479 -2487 0
-2489 -2479 -2487 0
-2480 -2484 2475 0
-2489 -2480 -2484 2476 0
-2480 -2485 2476 0
-2489 -2480 -2485 0
-2480 -2486 0
-2489 -2480 -2486 0
-2480 -2487 0
-2489 -2480 -2487 0
-2481 -2484 2476 0
-2489 -2481 -2484 0
-2481 -2485 0
-2489 -2481 -2485 0
-2481 -2486 0
-2489 -2481 -2486 0
-2481 -2487 0
-2489 -2481 -2487 0
-2482 -2484 0
-2489 -2482 -2484 0
-2482 -2485 0
-2489 -2482 -2485 0
-2482 -2486 0
-2489 -2482 -2486 0
-2482 -2487 0
-2489 -2482 -2487 0
-2497 2488 2498 0
-2493 2488 2498 0
-2493 -2497 2498 0
-2498 2484 0
-2494 2484 0
-2498 -2494 2485 0
-2495 2485 0
-2498 -2495 2486 0
-2496 2486 0
-2498 -2496 2487 0
-2490 2484 0
-2498 -2490 2485 0
-2491 2485 0
-2498 -2491 2486 0
-2492 2486 0
-2498 -2492 2487 0
-2490 -2494 2485 0
-2498 -2490 -2494 2486 0
-2490 -2495 2486 0
-2498 -2490 -2495 2487 0
-2490 -2496 2487 0
-2498 -2490 -2496 0
-2491 -2494 2486 0
-2498 -2491 -2494 2487 0
-2491 -2495 2487 0
-2498 -2491 -2495 0
-2491 -2496 0
-2498 -2491 -2496 0
-2492 -2494 2487 0
-2498 -2492 -2494 0
-2492 -2495 0
-2498 -2492 -2495 0
-2492 -2496 0
-2498 -2492 -2496 0
-2502 2497 2503 0
-2500 2497 2503 0
-2500 -2502 2503 0
-2503 2494 0
-2501 2494 0
-2503 -2501 2495 0
-2499 2494 0
-2503 -2499 2495 0
-2499 -2501 2495 0
-2503 -2499 -2501 2496 0
-357 2502 2506 0
-2505 2502 2506 0
-2505 -357 2506 0
-2506 2501 0
-2504 2501 0
-2506 -2504 0
-356 2505 2507 0
-355 2505 2507 0
-355 -356 2507 0
-2507 2504 0
-354 2500 2510 0
-2509 2500 2510 0
-2509 -354 2510 0
-2510 2499 0
-2508 2499 0
-2510 -2508 0
-353 2509 2511 0
-352 2509 2511 0
-352 -353 2511 0
-2511 2508 0
-2515 2493 2516 0
-2513 2493 2516 0
-2513 -2515 2516 0
-2516 2490 0
-2514 2490 0
-2516 -2514 2491 0
-2512 2490 0
-2516 -2512 2491 0
-2512 -2514 2491 0
-2516 -2512 -2514 2492 0
-351 2515 2519 0
-2518 2515 2519 0
-2518 -351 2519 0
-2519 2514 0
-2517 2514 0
-2519 -2517 0
-350 2518 2520 0
-349 2518 2520 0
-349 -350 2520 0
-2520 2517 0
-348 2513 2523 0
-2522 2513 2523 0
-2522 -348 2523 0
-2523 2512 0
-2521 2512 0
-2523 -2521 0
-347 2522 2524 0
-346 2522 2524 0
-346 -347 2524 0
-2524 2521 0
-2532 2483 2533 0
-2528 2483 2533 0
-2528 -2532 2533 0
-2533 2479 0
-2529 2479 0
-2533 -2529 2480 0
-2530 2480 0
-2533 -2530 2481 0
-2531 2481 0
-2533 -2531 2482 0
-2525 2479 0
-2533 -2525 2480 0
-2526 2480 0
-2533 -2526 2481 0
-2527 2481 0
-2533 -2527 2482 0
-2525 -2529 2480 0
-2533 -2525 -2529 2481 0
-2525 -2530 2481 0
-2533 -2525 -2530 2482 0
-2525 -2531 2482 0
-2533 -2525 -2531 0
-2526 -2529 2481 0
-2533 -2526 -2529 2482 0
-2526 -2530 2482 0
-2533 -2526 -2530 0
-2526 -2531 0
-2533 -2526 -2531 0
-2527 -2529 2482 0
-2533 -2527 -2529 0
-2527 -2530 0
-2533 -2527 -2530 0
-2527 -2531 0
-2533 -2527 -2531 0
-2537 2532 2538 0
-2535 2532 2538 0
-2535 -2537 2538 0
-2538 2529 0
-2536 2529 0
-2538 -2536 2530 0
-2534 2529 0
-2538 -2534 2530 0
-2534 -2536 2530 0
-2538 -2534 -2536 2531 0
-345 2537 2541 0
-2540 2537 2541 0
-2540 -345 2541 0
-2541 2536 0
-2539 2536 0
-2541 -2539 0
-344 2540 2542 0
-343 2540 2542 0
-343 -344 2542 0
-2542 2539 0
-342 2535 2545 0
-2544 2535 2545 0
-2544 -342 2545 0
-2545 2534 0
-2543 2534 0
-2545 -2543 0
-341 2544 2546 0
-340 2544 2546 0
-340 -341 2546 0
-2546 2543 0
-2551 2528 2552 0
-2549 2528 2552 0
-2549 -2551 2552 0
-2552 2525 0
-2550 2525 0
-2552 -2550 2526 0
-2547 2525 0
-2552 -2547 2526 0
-2548 2526 0
-2552 -2548 2527 0
-2547 -2550 2526 0
-2552 -2547 -2550 2527 0
-2548 -2550 2527 0
-2552 -2548 -2550 0
-339 2551 2555 0
-2554 2551 2555 0
-2554 -339 2555 0
-2555 2550 0
-2553 2550 0
-2555 -2553 0
-338 2554 2556 0
-337 2554 2556 0
-337 -338 2556 0
-2556 2553 0
-2560 2549 2561 0
-2558 2549 2561 0
-2558 -2560 2561 0
-2561 2547 0
-2559 2547 0
-2561 -2559 2548 0
-2557 2547 0
-2561 -2557 2548 0
-2557 -2559 2548 0
-2561 -2557 -2559 0
-336 2560 2562 0
-335 2560 2562 0
-335 -336 2562 0
-2562 2559 0
-334 2558 2563 0
-333 2558 2563 0
-333 -334 2563 0
-2563 2557 0
-2573 2472 2574 0
-2568 2472 2574 0
-2568 -2573 2574 0
-2574 2468 0
-2569 2468 0
-2574 -2569 2469 0
-2570 2469 0
-2574 -2570 2470 0
-2571 2470 0
-2574 -2571 2471 0
-2572 2471 0
-2574 -2572 0
-2564 2468 0
-2574 -2564 2469 0
-2565 2469 0
-2574 -2565 2470 0
-2566 2470 0
-2574 -2566 2471 0
-2567 2471 0
-2574 -2567 0
-2564 -2569 2469 0
-2574 -2564 -2569 2470 0
-2564 -2570 2470 0
-2574 -2564 -2570 2471 0
-2564 -2571 2471 0
-2574 -2564 -2571 0
-2564 -2572 0
-2574 -2564 -2572 0
-2565 -2569 2470 0
-2574 -2565 -2569 2471 0
-2565 -2570 2471 0
-2574 -2565 -2570 0
-2565 -2571 0
-2574 -2565 -2571 0
-2565 -2572 0
-2574 -2565 -2572 0
-2566 -2569 2471 0
-2574 -2566 -2569 0
-2566 -2570 0
-2574 -2566 -2570 0
-2566 -2571 0
-2574 -2566 -2571 0
-2566 -2572 0
-2574 -2566 -2572 0
-2567 -2569 0
-2574 -2567 -2569 0
-2567 -2570 0
-2574 -2567 -2570 0
-2567 -2571 0
-2574 -2567 -2571 0
-2567 -2572 0
-2574 -2567 -2572 0
-2582 2573 2583 0
-2578 2573 2583 0
-2578 -2582 2583 0
-2583 2569 0
-2579 2569 0
-2583 -2579 2570 0
-2580 2570 0
-2583 -2580 2571 0
-2581 2571 0
-2583 -2581 2572 0
-2575 2569 0
-2583 -2575 2570 0
-2576 2570 0
-2583 -2576 2571 0
-2577 2571 0
-2583 -2577 2572 0
-2575 -2579 2570 0
-2583 -2575 -2579 2571 0
-2575 -2580 2571 0
-2583 -2575 -2580 2572 0
-2575 -2581 2572 0
-2583 -2575 -2581 0
-2576 -2579 2571 0
-2583 -2576 -2579 2572 0
-2576 -2580 2572 0
-2583 -2576 -2580 0
-2576 -2581 0
-2583 -2576 -2581 0
-2577 -2579 2572 0
-2583 -2577 -2579 0
-2577 -2580 0
-2583 -2577 -2580 0
-2577 -2581 0
-2583 -2577 -2581 0
-2587 2582 2588 0
-2585 2582 2588 0
-2585 -2587 2588 0
-2588 2579 0
-2586 2579 0
-2588 -2586 2580 0
-2584 2579 0
-2588 -2584 2580 0
-2584 -2586 2580 0
-2588 -2584 -2586 2581 0
-332 2587 2591 0
-2590 2587 2591 0
-2590 -332 2591 0
-2591 2586 0
-2589 2586 0
-2591 -2589 0
-331 2590 2592 0
-330 2590 2592 0
-330 -331 2592 0
-2592 2589 0
-329 2585 2595 0
-2594 2585 2595 0
-2594 -329 2595 0
-2595 2584 0
-2593 2584 0
-2595 -2593 0
-328 2594 2596 0
-327 2594 2596 0
-327 -328 2596 0
-2596 2593 0
-2601 2578 2602 0
-2599 2578 2602 0
-2599 -2601 2602 0
-2602 2575 0
-2600 2575 0
-2602 -2600 2576 0
-2597 2575 0
-2602 -2597 2576 0
-2598 2576 0
-2602 -2598 2577 0
-2597 -2600 2576 0
-2602 -2597 -2600 2577 0
-2598 -2600 2577 0
-2602 -2598 -2600 0
-326 2601 2605 0
-2604 2601 2605 0
-2604 -326 2605 0
-2605 2600 0
-2603 2600 0
-2605 -2603 0
-325 2604 2606 0
-324 2604 2606 0
-324 -325 2606 0
-2606 2603 0
-2610 2599 2611 0
-2608 2599 2611 0
-2608 -2610 2611 0
-2611 2597 0
-2609 2597 0
-2611 -2609 2598 0
-2607 2597 0
-2611 -2607 2598 0
-2607 -2609 2598 0
-2611 -2607 -2609 0
-323 2610 2612 0
-322 2610 2612 0
-322 -323 2612 0
-2612 2609 0
-321 2608 2613 0
-320 2608 2613 0
-320 -321 2613 0
-2613 2607 0
-2621 2568 2622 0
-2617 2568 2622 0
-2617 -2621 2622 0
-2622 2564 0
-2618 2564 0
-2622 -2618 2565 0
-2619 2565 0
-2622 -2619 2566 0
-2620 2566 0
-2622 -2620 2567 0
-2614 2564 0
-2622 -2614 2565 0
-2615 2565 0
-2622 -2615 2566 0
-2616 2566 0
-2622 -2616 2567 0
-2614 -2618 2565 0
-2622 -2614 -2618 2566 0
-2614 -2619 2566 0
-2622 -2614 -2619 2567 0
-2614 -2620 2567 0
-2622 -2614 -2620 0
-2615 -2618 2566 0
-2622 -2615 -2618 2567 0
-2615 -2619 2567 0
-2622 -2615 -2619 0
-2615 -2620 0
-2622 -2615 -2620 0
-2616 -2618 2567 0
-2622 -2616 -2618 0
-2616 -2619 0
-2622 -2616 -2619 0
-2616 -2620 0
-2622 -2616 -2620 0
-2626 2621 2627 0
-2624 2621 2627 0
-2624 -2626 2627 0
-2627 2618 0
-2625 2618 0
-2627 -2625 2619 0
-2623 2618 0
-2627 -2623 2619 0
-2623 -2625 2619 0
-2627 -2623 -2625 2620 0
-319 2626 2630 0
-2629 2626 2630 0
-2629 -319 2630 0
-2630 2625 0
-2628 2625 0
-2630 -2628 0
-318 2629 2631 0
-317 2629 2631 0
-317 -318 2631 0
-2631 2628 0
-316 2624 2634 0
-2633 2624 2634 0
-2633 -316 2634 0
-2634 2623 0
-2632 2623 0
-2634 -2632 0
-315 2633 2635 0
-314 2633 2635 0
-314 -315 2635 0
-2635 2632 0
-2640 2617 2641 0
-2638 2617 2641 0
-2638 -2640 2641 0
-2641 2614 0
-2639 2614 0
-2641 -2639 2615 0
-2636 2614 0
-2641 -2636 2615 0
-2637 2615 0
-2641 -2637 2616 0
-2636 -2639 2615 0
-2641 -2636 -2639 2616 0
-2637 -2639 2616 0
-2641 -2637 -2639 0
-313 2640 2644 0
-2643 2640 2644 0
-2643 -313 2644 0
-2644 2639 0
-2642 2639 0
-2644 -2642 0
-312 2643 2645 0
-311 2643 2645 0
-311 -312 2645 0
-2645 2642 0
-2649 2638 2650 0
-2647 2638 2650 0
-2647 -2649 2650 0
-2650 2636 0
-2648 2636 0
-2650 -2648 2637 0
-2646 2636 0
-2650 -2646 2637 0
-2646 -2648 2637 0
-2650 -2646 -2648 0
-310 2649 2651 0
-309 2649 2651 0
-309 -310 2651 0
-2651 2648 0
-308 2647 2652 0
-307 2647 2652 0
-307 -308 2652 0
-2652 2646 0
-2662 2265 2663 0
-2657 2265 2663 0
-2657 -2662 2663 0
-2663 2261 0
-2658 2261 0
-2663 -2658 2262 0
-2659 2262 0
-2663 -2659 2263 0
-2660 2263 0
-2663 -2660 2264 0
-2661 2264 0
-2663 -2661 0
-2653 2261 0
-2663 -2653 2262 0
-2654 2262 0
-2663 -2654 2263 0
-2655 2263 0
-2663 -2655 2264 0
-2656 2264 0
-2663 -2656 0
-2653 -2658 2262 0
-2663 -2653 -2658 2263 0
-2653 -2659 2263 0
-2663 -2653 -2659 2264 0
-2653 -2660 2264 0
-2663 -2653 -2660 0
-2653 -2661 0
-2663 -2653 -2661 0
-2654 -2658 2263 0
-2663 -2654 -2658 2264 0
-2654 -2659 2264 0
-2663 -2654 -2659 0
-2654 -2660 0
-2663 -2654 -2660 0
-2654 -2661 0
-2663 -2654 -2661 0
-2655 -2658 2264 0
-2663 -2655 -2658 0
-2655 -2659 0
-2663 -2655 -2659 0
-2655 -2660 0
-2663 -2655 -2660 0
-2655 -2661 0
-2663 -2655 -2661 0
-2656 -2658 0
-2663 -2656 -2658 0
-2656 -2659 0
-2663 -2656 -2659 0
-2656 -2660 0
-2663 -2656 -2660 0
-2656 -2661 0
-2663 -2656 -2661 0
-2673 2662 2674 0
-2668 2662 2674 0
-2668 -2673 2674 0
-2674 2658 0
-2669 2658 0
-2674 -2669 2659 0
-2670 2659 0
-2674 -2670 2660 0
-2671 2660 0
-2674 -2671 2661 0
-2672 2661 0
-2674 -2672 0
-2664 2658 0
-2674 -2664 2659 0
-2665 2659 0
-2674 -2665 2660 0
-2666 2660 0
-2674 -2666 2661 0
-2667 2661 0
-2674 -2667 0
-2664 -2669 2659 0
-2674 -2664 -2669 2660 0
-2664 -2670 2660 0
-2674 -2664 -2670 2661 0
-2664 -2671 2661 0
-2674 -2664 -2671 0
-2664 -2672 0
-2674 -2664 -2672 0
-2665 -2669 2660 0
-2674 -2665 -2669 2661 0
-2665 -2670 2661 0
-2674 -2665 -2670 0
-2665 -2671 0
-2674 -2665 -2671 0
-2665 -2672 0
-2674 -2665 -2672 0
-2666 -2669 2661 0
-2674 -2666 -2669 0
-2666 -2670 0
-2674 -2666 -2670 0
-2666 -2671 0
-2674 -2666 -2671 0
-2666 -2672 0
-2674 -2666 -2672 0
-2667 -2669 0
-2674 -2667 -2669 0
-2667 -2670 0
-2674 -2667 -2670 0
-2667 -2671 0
-2674 -2667 -2671 0
-2667 -2672 0
-2674 -2667 -2672 0
-2684 2673 2685 0
-2679 2673 2685 0
-2679 -2684 2685 0
-2685 2669 0
-2680 2669 0
-2685 -2680 2670 0
-2681 2670 0
-2685 -2681 2671 0
-2682 2671 0
-2685 -2682 2672 0
-2683 2672 0
-2685 -2683 0
-2675 2669 0
-2685 -2675 2670 0
-2676 2670 0
-2685 -2676 2671 0
-2677 2671 0
-2685 -2677 2672 0
-2678 2672 0
-2685 -2678 0
-2675 -2680 2670 0
-2685 -2675 -2680 2671 0
-2675 -2681 2671 0
-2685 -2675 -2681 2672 0
-2675 -2682 2672 0
-2685 -2675 -2682 0
-2675 -2683 0
-2685 -2675 -2683 0
-2676 -2680 2671 0
-2685 -2676 -2680 2672 0
-2676 -2681 2672 0
-2685 -2676 -2681 0
-2676 -2682 0
-2685 -2676 -2682 0
-2676 -2683 0
-2685 -2676 -2683 0
-2677 -2680 2672 0
-2685 -2677 -2680 0
-2677 -2681 0
-2685 -2677 -2681 0
-2677 -2682 0
-2685 -2677 -2682 0
-2677 -2683 0
-2685 -2677 -2683 0
-2678 -2680 0
-2685 -2678 -2680 0
-2678 -2681 0
-2685 -2678 -2681 0
-2678 -2682 0
-2685 -2678 -2682 0
-2678 -2683 0
-2685 -2678 -2683 0
-2693 2684 2694 0
-2689 2684 2694 0
-2689 -2693 2694 0
-2694 2680 0
-2690 2680 0
-2694 -2690 2681 0
-2691 2681 0
-2694 -2691 2682 0
-2692 2682 0
-2694 -2692 2683 0
-2686 2680 0
-2694 -2686 2681 0
-2687 2681 0
-2694 -2687 2682 0
-2688 2682 0
-2694 -2688 2683 0
-2686 -2690 2681 0
-2694 -2686 -2690 2682 0
-2686 -2691 2682 0
-2694 -2686 -2691 2683 0
-2686 -2692 2683 0
-2694 -2686 -2692 0
-2687 -2690 2682 0
-2694 -2687 -2690 2683 0
-2687 -2691 2683 0
-2694 -2687 -2691 0
-2687 -2692 0
-2694 -2687 -2692 0
-2688 -2690 2683 0
-2694 -2688 -2690 0
-2688 -2691 0
-2694 -2688 -2691 0
-2688 -2692 0
-2694 -2688 -2692 0
-2698 2693 2699 0
-2696 2693 2699 0
-2696 -2698 2699 0
-2699 2690 0
-2697 2690 0
-2699 -2697 2691 0
-2695 2690 0
-2699 -2695 2691 0
-2695 -2697 2691 0
-2699 -2695 -2697 2692 0
-306 2698 2702 0
-2701 2698 2702 0
-2701 -306 2702 0
-2702 2697 0
-2700 2697 0
-2702 -2700 0
-305 2701 2703 0
-304 2701 2703 0
-304 -305 2703 0
-2703 2700 0
-303 2696 2706 0
-2705 2696 2706 0
-2705 -303 2706 0
-2706 2695 0
-2704 2695 0
-2706 -2704 0
-302 2705 2707 0
-301 2705 2707 0
-301 -302 2707 0
-2707 2704 0
-2711 2689 2712 0
-2709 2689 2712 0
-2709 -2711 2712 0
-2712 2686 0
-2710 2686 0
-2712 -2710 2687 0
-2708 2686 0
-2712 -2708 2687 0
-2708 -2710 2687 0
-2712 -2708 -2710 2688 0
-300 2711 2715 0
-2714 2711 2715 0
-2714 -300 2715 0
-2715 2710 0
-2713 2710 0
-2715 -2713 0
-299 2714 2716 0
-298 2714 2716 0
-298 -299 2716 0
-2716 2713 0
-297 2709 2719 0
-2718 2709 2719 0
-2718 -297 2719 0
-2719 2708 0
-2717 2708 0
-2719 -2717 0
-296 2718 2720 0
-295 2718 2720 0
-295 -296 2720 0
-2720 2717 0
-2728 2679 2729 0
-2724 2679 2729 0
-2724 -2728 2729 0
-2729 2675 0
-2725 2675 0
-2729 -2725 2676 0
-2726 2676 0
-2729 -2726 2677 0
-2727 2677 0
-2729 -2727 2678 0
-2721 2675 0
-2729 -2721 2676 0
-2722 2676 0
-2729 -2722 2677 0
-2723 2677 0
-2729 -2723 2678 0
-2721 -2725 2676 0
-2729 -2721 -2725 2677 0
-2721 -2726 2677 0
-2729 -2721 -2726 2678 0
-2721 -2727 2678 0
-2729 -2721 -2727 0
-2722 -2725 2677 0
-2729 -2722 -2725 2678 0
-2722 -2726 2678 0
-2729 -2722 -2726 0
-2722 -2727 0
-2729 -2722 -2727 0
-2723 -2725 2678 0
-2729 -2723 -2725 0
-2723 -2726 0
-2729 -2723 -2726 0
-2723 -2727 0
-2729 -2723 -2727 0
-2733 2728 2734 0
-2731 2728 2734 0
-2731 -2733 2734 0
-2734 2725 0
-2732 2725 0
-2734 -2732 2726 0
-2730 2725 0
-2734 -2730 2726 0
-2730 -2732 2726 0
-2734 -2730 -2732 2727 0
-294 2733 2737 0
-2736 2733 2737 0
-2736 -294 2737 0
-2737 2732 0
-2735 2732 0
-2737 -2735 0
-293 2736 2738 0
-292 2736 2738 0
-292 -293 2738 0
-2738 2735 0
-291 2731 2741 0
-2740 2731 2741 0
-2740 -291 2741 0
-2741 2730 0
-2739 2730 0
-2741 -2739 0
-290 2740 2742 0
-289 2740 2742 0
-289 -290 2742 0
-2742 2739 0
-2747 2724 2748 0
-2745 2724 2748 0
-2745 -2747 2748 0
-2748 2721 0
-2746 2721 0
-2748 -2746 2722 0
-2743 2721 0
-2748 -2743 2722 0
-2744 2722 0
-2748 -2744 2723 0
-2743 -2746 2722 0
-2748 -2743 -2746 2723 0
-2744 -2746 2723 0
-2748 -2744 -2746 0
-288 2747 2751 0
-2750 2747 2751 0
-2750 -288 2751 0
-2751 2746 0
-2749 2746 0
-2751 -2749 0
-287 2750 2752 0
-286 2750 2752 0
-286 -287 2752 0
-2752 2749 0
-2756 2745 2757 0
-2754 2745 2757 0
-2754 -2756 2757 0
-2757 2743 0
-2755 2743 0
-2757 -2755 2744 0
-2753 2743 0
-2757 -2753 2744 0
-2753 -2755 2744 0
-2757 -2753 -2755 0
-285 2756 2758 0
-284 2756 2758 0
-284 -285 2758 0
-2758 2755 0
-283 2754 2759 0
-282 2754 2759 0
-282 -283 2759 0
-2759 2753 0
-2769 2668 2770 0
-2764 2668 2770 0
-2764 -2769 2770 0
-2770 2664 0
-2765 2664 0
-2770 -2765 2665 0
-2766 2665 0
-2770 -2766 2666 0
-2767 2666 0
-2770 -2767 2667 0
-2768 2667 0
-2770 -2768 0
-2760 2664 0
-2770 -2760 2665 0
-2761 2665 0
-2770 -2761 2666 0
-2762 2666 0
-2770 -2762 2667 0
-2763 2667 0
-2770 -2763 0
-2760 -2765 2665 0
-2770 -2760 -2765 2666 0
-2760 -2766 2666 0
-2770 -2760 -2766 2667 0
-2760 -2767 2667 0
-2770 -2760 -2767 0
-2760 -2768 0
-2770 -2760 -2768 0
-2761 -2765 2666 0
-2770 -2761 -2765 2667 0
-2761 -2766 2667 0
-2770 -2761 -2766 0
-2761 -2767 0
-2770 -2761 -2767 0
-2761 -2768 0
-2770 -2761 -2768 0
-2762 -2765 2667 0
-2770 -2762 -2765 0
-2762 -2766 0
-2770 -2762 -2766 0
-2762 -2767 0
-2770 -2762 -2767 0
-2762 -2768 0
-2770 -2762 -2768 0
-2763 -2765 0
-2770 -2763 -2765 0
-2763 -2766 0
-2770 -2763 -2766 0
-2763 -2767 0
-2770 -2763 -2767 0
-2763 -2768 0
-2770 -2763 -2768 0
-2778 2769 2779 0
-2774 2769 2779 0
-2774 -2778 2779 0
-2779 2765 0
-2775 2765 0
-2779 -2775 2766 0
-2776 2766 0
-2779 -2776 2767 0
-2777 2767 0
-2779 -2777 2768 0
-2771 2765 0
-2779 -2771 2766 0
-2772 2766 0
-2779 -2772 2767 0
-2773 2767 0
-2779 -2773 2768 0
-2771 -2775 2766 0
-2779 -2771 -2775 2767 0
-2771 -2776 2767 0
-2779 -2771 -2776 2768 0
-2771 -2777 2768 0
-2779 -2771 -2777 0
-2772 -2775 2767 0
-2779 -2772 -2775 2768 0
-2772 -2776 2768 0
-2779 -2772 -2776 0
-2772 -2777 0
-2779 -2772 -2777 0
-2773 -2775 2768 0
-2779 -2773 -2775 0
-2773 -2776 0
-2779 -2773 -2776 0
-2773 -2777 0
-2779 -2773 -2777 0
-2783 2778 2784 0
-2781 2778 2784 0
-2781 -2783 2784 0
-2784 2775 0
-2782 2775 0
-2784 -2782 2776 0
-2780 2775 0
-2784 -2780 2776 0
-2780 -2782 2776 0
-2784 -2780 -2782 2777 0
-281 2783 2787 0
-2786 2783 2787 0
-2786 -281 2787 0
-2787 2782 0
-2785 2782 0
-2787 -2785 0
-280 2786 2788 0
-279 2786 2788 0
-279 -280 2788 0
-2788 2785 0
-278 2781 2791 0
-2790 2781 2791 0
-2790 -278 2791 0
-2791 2780 0
-2789 2780 0
-2791 -2789 0
-277 2790 2792 0
-276 2790 2792 0
-276 -277 2792 0
-2792 2789 0
-2797 2774 2798 0
-2795 2774 2798 0
-2795 -2797 2798 0
-2798 2771 0
-2796 2771 0
-2798 -2796 2772 0
-2793 2771 0
-2798 -2793 2772 0
-2794 2772 0
-2798 -2794 2773 0
-2793 -2796 2772 0
-2798 -2793 -2796 2773 0
-2794 -2796 2773 0
-2798 -2794 -2796 0
-275 2797 2801 0
-2800 2797 2801 0
-2800 -275 2801 0
-2801 2796 0
-2799 2796 0
-2801 -2799 0
-274 2800 2802 0
-273 2800 2802 0
-273 -274 2802 0
-2802 2799 0
-2806 2795 2807 0
-2804 2795 2807 0
-2804 -2806 2807 0
-2807 2793 0
-2805 2793 0
-2807 -2805 2794 0
-2803 2793 0
-2807 -2803 2794 0
-2803 -2805 2794 0
-2807 -2803 -2805 0
-272 2806 2808 0
-271 2806 2808 0
-271 -272 2808 0
-2808 2805 0
-270 2804 2809 0
-269 2804 2809 0
-269 -270 2809 0
-2809 2803 0
-2817 2764 2818 0
-2813 2764 2818 0
-2813 -2817 2818 0
-2818 2760 0
-2814 2760 0
-2818 -2814 2761 0
-2815 2761 0
-2818 -2815 2762 0
-2816 2762 0
-2818 -2816 2763 0
-2810 2760 0
-2818 -2810 2761 0
-2811 2761 0
-2818 -2811 2762 0
-2812 2762 0
-2818 -2812 2763 0
-2810 -2814 2761 0
-2818 -2810 -2814 2762 0
-2810 -2815 2762 0
-2818 -2810 -2815 2763 0
-2810 -2816 2763 0
-2818 -2810 -2816 0
-2811 -2814 2762 0
-2818 -2811 -2814 2763 0
-2811 -2815 2763 0
-2818 -2811 -2815 0
-2811 -2816 0
-2818 -2811 -2816 0
-2812 -2814 2763 0
-2818 -2812 -2814 0
-2812 -2815 0
-2818 -2812 -2815 0
-2812 -2816 0
-2818 -2812 -2816 0
-2822 2817 2823 0
-2820 2817 2823 0
-2820 -2822 2823 0
-2823 2814 0
-2821 2814 0
-2823 -2821 2815 0
-2819 2814 0
-2823 -2819 2815 0
-2819 -2821 2815 0
-2823 -2819 -2821 2816 0
-268 2822 2826 0
-2825 2822 2826 0
-2825 -268 2826 0
-2826 2821 0
-2824 2821 0
-2826 -2824 0
-267 2825 2827 0
-266 2825 2827 0
-266 -267 2827 0
-2827 2824 0
-265 2820 2830 0
-2829 2820 2830 0
-2829 -265 2830 0
-2830 2819 0
-2828 2819 0
-2830 -2828 0
-264 2829 2831 0
-263 2829 2831 0
-263 -264 2831 0
-2831 2828 0
-2836 2813 2837 0
-2834 2813 2837 0
-2834 -2836 2837 0
-2837 2810 0
-2835 2810 0
-2837 -2835 2811 0
-2832 2810 0
-2837 -2832 2811 0
-2833 2811 0
-2837 -2833 2812 0
-2832 -2835 2811 0
-2837 -2832 -2835 2812 0
-2833 -2835 2812 0
-2837 -2833 -2835 0
-262 2836 2840 0
-2839 2836 2840 0
-2839 -262 2840 0
-2840 2835 0
-2838 2835 0
-2840 -2838 0
-261 2839 2841 0
-260 2839 2841 0
-260 -261 2841 0
-2841 2838 0
-2845 2834 2846 0
-2843 2834 2846 0
-2843 -2845 2846 0
-2846 2832 0
-2844 2832 0
-2846 -2844 2833 0
-2842 2832 0
-2846 -2842 2833 0
-2842 -2844 2833 0
-2846 -2842 -2844 0
-259 2845 2847 0
-258 2845 2847 0
-258 -259 2847 0
-2847 2844 0
-257 2843 2848 0
-256 2843 2848 0
-256 -257 2848 0
-2848 2842 0
-2858 2657 2859 0
-2853 2657 2859 0
-2853 -2858 2859 0
-2859 2653 0
-2854 2653 0
-2859 -2854 2654 0
-2855 2654 0
-2859 -2855 2655 0
-2856 2655 0
-2859 -2856 2656 0
-2857 2656 0
-2859 -2857 0
-2849 2653 0
-2859 -2849 2654 0
-2850 2654 0
-2859 -2850 2655 0
-2851 2655 0
-2859 -2851 2656 0
-2852 2656 0
-2859 -2852 0
-2849 -2854 2654 0
-2859 -2849 -2854 2655 0
-2849 -2855 2655 0
-2859 -2849 -2855 2656 0
-2849 -2856 2656 0
-2859 -2849 -2856 0
-2849 -2857 0
-2859 -2849 -2857 0
-2850 -2854 2655 0
-2859 -2850 -2854 2656 0
-2850 -2855 2656 0
-2859 -2850 -2855 0
-2850 -2856 0
-2859 -2850 -2856 0
-2850 -2857 0
-2859 -2850 -2857 0
-2851 -2854 2656 0
-2859 -2851 -2854 0
-2851 -2855 0
-2859 -2851 -2855 0
-2851 -2856 0
-2859 -2851 -2856 0
-2851 -2857 0
-2859 -2851 -2857 0
-2852 -2854 0
-2859 -2852 -2854 0
-2852 -2855 0
-2859 -2852 -2855 0
-2852 -2856 0
-2859 -2852 -2856 0
-2852 -2857 0
-2859 -2852 -2857 0
-2869 2858 2870 0
-2864 2858 2870 0
-2864 -2869 2870 0
-2870 2854 0
-2865 2854 0
-2870 -2865 2855 0
-2866 2855 0
-2870 -2866 2856 0
-2867 2856 0
-2870 -2867 2857 0
-2868 2857 0
-2870 -2868 0
-2860 2854 0
-2870 -2860 2855 0
-2861 2855 0
-2870 -2861 2856 0
-2862 2856 0
-2870 -2862 2857 0
-2863 2857 0
-2870 -2863 0
-2860 -2865 2855 0
-2870 -2860 -2865 2856 0
-2860 -2866 2856 0
-2870 -2860 -2866 2857 0
-2860 -2867 2857 0
-2870 -2860 -2867 0
-2860 -2868 0
-2870 -2860 -2868 0
-2861 -2865 2856 0
-2870 -2861 -2865 2857 0
-2861 -2866 2857 0
-2870 -2861 -2866 0
-2861 -2867 0
-2870 -2861 -2867 0
-2861 -2868 0
-2870 -2861 -2868 0
-2862 -2865 2857 0
-2870 -2862 -2865 0
-2862 -2866 0
-2870 -2862 -2866 0
-2862 -2867 0
-2870 -2862 -2867 0
-2862 -2868 0
-2870 -2862 -2868 0
-2863 -2865 0
-2870 -2863 -2865 0
-2863 -2866 0
-2870 -2863 -2866 0
-2863 -2867 0
-2870 -2863 -2867 0
-2863 -2868 0
-2870 -2863 -2868 0
-2878 2869 2879 0
-2874 2869 2879 0
-2874 -2878 2879 0
-2879 2865 0
-2875 2865 0
-2879 -2875 2866 0
-2876 2866 0
-2879 -2876 2867 0
-2877 2867 0
-2879 -2877 2868 0
-2871 2865 0
-2879 -2871 2866 0
-2872 2866 0
-2879 -2872 2867 0
-2873 2867 0
-2879 -2873 2868 0
-2871 -2875 2866 0
-2879 -2871 -2875 2867 0
-2871 -2876 2867 0
-2879 -2871 -2876 2868 0
-2871 -2877 2868 0
-2879 -2871 -2877 0
-2872 -2875 2867 0
-2879 -2872 -2875 2868 0
-2872 -2876 2868 0
-2879 -2872 -2876 0
-2872 -2877 0
-2879 -2872 -2877 0
-2873 -2875 2868 0
-2879 -2873 -2875 0
-2873 -2876 0
-2879 -2873 -2876 0
-2873 -2877 0
-2879 -2873 -2877 0
-2883 2878 2884 0
-2881 2878 2884 0
-2881 -2883 2884 0
-2884 2875 0
-2882 2875 0
-2884 -2882 2876 0
-2880 2875 0
-2884 -2880 2876 0
-2880 -2882 2876 0
-2884 -2880 -2882 2877 0
-255 2883 2887 0
-2886 2883 2887 0
-2886 -255 2887 0
-2887 2882 0
-2885 2882 0
-2887 -2885 0
-254 2886 2888 0
-253 2886 2888 0
-253 -254 2888 0
-2888 2885 0
-252 2881 2891 0
-2890 2881 2891 0
-2890 -252 2891 0
-2891 2880 0
-2889 2880 0
-2891 -2889 0
-251 2890 2892 0
-250 2890 2892 0
-250 -251 2892 0
-2892 2889 0
-2896 2874 2897 0
-2894 2874 2897 0
-2894 -2896 2897 0
-2897 2871 0
-2895 2871 0
-2897 -2895 2872 0
-2893 2871 0
-2897 -2893 2872 0
-2893 -2895 2872 0
-2897 -2893 -2895 2873 0
-249 2896 2900 0
-2899 2896 2900 0
-2899 -249 2900 0
-2900 2895 0
-2898 2895 0
-2900 -2898 0
-248 2899 2901 0
-247 2899 2901 0
-247 -248 2901 0
-2901 2898 0
-246 2894 2904 0
-2903 2894 2904 0
-2903 -246 2904 0
-2904 2893 0
-2902 2893 0
-2904 -2902 0
-245 2903 2905 0
-244 2903 2905 0
-244 -245 2905 0
-2905 2902 0
-2913 2864 2914 0
-2909 2864 2914 0
-2909 -2913 2914 0
-2914 2860 0
-2910 2860 0
-2914 -2910 2861 0
-2911 2861 0
-2914 -2911 2862 0
-2912 2862 0
-2914 -2912 2863 0
-2906 2860 0
-2914 -2906 2861 0
-2907 2861 0
-2914 -2907 2862 0
-2908 2862 0
-2914 -2908 2863 0
-2906 -2910 2861 0
-2914 -2906 -2910 2862 0
-2906 -2911 2862 0
-2914 -2906 -2911 2863 0
-2906 -2912 2863 0
-2914 -2906 -2912 0
-2907 -2910 2862 0
-2914 -2907 -2910 2863 0
-2907 -2911 2863 0
-2914 -2907 -2911 0
-2907 -2912 0
-2914 -2907 -2912 0
-2908 -2910 2863 0
-2914 -2908 -2910 0
-2908 -2911 0
-2914 -2908 -2911 0
-2908 -2912 0
-2914 -2908 -2912 0
-2918 2913 2919 0
-2916 2913 2919 0
-2916 -2918 2919 0
-2919 2910 0
-2917 2910 0
-2919 -2917 2911 0
-2915 2910 0
-2919 -2915 2911 0
-2915 -2917 2911 0
-2919 -2915 -2917 2912 0
-243 2918 2922 0
-2921 2918 2922 0
-2921 -243 2922 0
-2922 2917 0
-2920 2917 0
-2922 -2920 0
-242 2921 2923 0
-241 2921 2923 0
-241 -242 2923 0
-2923 2920 0
-240 2916 2926 0
-2925 2916 2926 0
-2925 -240 2926 0
-2926 2915 0
-2924 2915 0
-2926 -2924 0
-239 2925 2927 0
-238 2925 2927 0
-238 -239 2927 0
-2927 2924 0
-2932 2909 2933 0
-2930 2909 2933 0
-2930 -2932 2933 0
-2933 2906 0
-2931 2906 0
-2933 -2931 2907 0
-2928 2906 0
-2933 -2928 2907 0
-2929 2907 0
-2933 -2929 2908 0
-2928 -2931 2907 0
-2933 -2928 -2931 2908 0
-2929 -2931 2908 0
-2933 -2929 -2931 0
-237 2932 2936 0
-2935 2932 2936 0
-2935 -237 2936 0
-2936 2931 0
-2934 2931 0
-2936 -2934 0
-236 2935 2937 0
-235 2935 2937 0
-235 -236 2937 0
-2937 2934 0
-2941 2930 2942 0
-2939 2930 2942 0
-2939 -2941 2942 0
-2942 2928 0
-2940 2928 0
-2942 -2940 2929 0
-2938 2928 0
-2942 -2938 2929 0
-2938 -2940 2929 0
-2942 -2938 -2940 0
-234 2941 2943 0
-233 2941 2943 0
-233 -234 2943 0
-2943 2940 0
-232 2939 2944 0
-231 2939 2944 0
-231 -232 2944 0
-2944 2938 0
-2954 2853 2955 0
-2949 2853 2955 0
-2949 -2954 2955 0
-2955 2849 0
-2950 2849 0
-2955 -2950 2850 0
-2951 2850 0
-2955 -2951 2851 0
-2952 2851 0
-2955 -2952 2852 0
-2953 2852 0
-2955 -2953 0
-2945 2849 0
-2955 -2945 2850 0
-2946 2850 0
-2955 -2946 2851 0
-2947 2851 0
-2955 -2947 2852 0
-2948 2852 0
-2955 -2948 0
-2945 -2950 2850 0
-2955 -2945 -2950 2851 0
-2945 -2951 2851 0
-2955 -2945 -2951 2852 0
-2945 -2952 2852 0
-2955 -2945 -2952 0
-2945 -2953 0
-2955 -2945 -2953 0
-2946 -2950 2851 0
-2955 -2946 -2950 2852 0
-2946 -2951 2852 0
-2955 -2946 -2951 0
-2946 -2952 0
-2955 -2946 -2952 0
-2946 -2953 0
-2955 -2946 -2953 0
-2947 -2950 2852 0
-2955 -2947 -2950 0
-2947 -2951 0
-2955 -2947 -2951 0
-2947 -2952 0
-2955 -2947 -2952 0
-2947 -2953 0
-2955 -2947 -2953 0
-2948 -2950 0
-2955 -2948 -2950 0
-2948 -2951 0
-2955 -2948 -2951 0
-2948 -2952 0
-2955 -2948 -2952 0
-2948 -2953 0
-2955 -2948 -2953 0
-2963 2954 2964 0
-2959 2954 2964 0
-2959 -2963 2964 0
-2964 2950 0
-2960 2950 0
-2964 -2960 2951 0
-2961 2951 0
-2964 -2961 2952 0
-2962 2952 0
-2964 -2962 2953 0
-2956 2950 0
-2964 -2956 2951 0
-2957 2951 0
-2964 -2957 2952 0
-2958 2952 0
-2964 -2958 2953 0
-2956 -2960 2951 0
-2964 -2956 -2960 2952 0
-2956 -2961 2952 0
-2964 -2956 -2961 2953 0
-2956 -2962 2953 0
-2964 -2956 -2962 0
-2957 -2960 2952 0
-2964 -2957 -2960 2953 0
-2957 -2961 2953 0
-2964 -2957 -2961 0
-2957 -2962 0
-2964 -2957 -2962 0
-2958 -2960 2953 0
-2964 -2958 -2960 0
-2958 -2961 0
-2964 -2958 -2961 0
-2958 -2962 0
-2964 -2958 -2962 0
-2968 2963 2969 0
-2966 2963 2969 0
-2966 -2968 2969 0
-2969 2960 0
-2967 2960 0
-2969 -2967 2961 0
-2965 2960 0
-2969 -2965 2961 0
-2965 -2967 2961 0
-2969 -2965 -2967 2962 0
-230 2968 2972 0
-2971 2968 2972 0
-2971 -230 2972 0
-2972 2967 0
-2970 2967 0
-2972 -2970 0
-229 2971 2973 0
-228 2971 2973 0
-228 -229 2973 0
-2973 2970 0
-227 2966 2976 0
-2975 2966 2976 0
-2975 -227 2976 0
-2976 2965 0
-2974 2965 0
-2976 -2974 0
-226 2975 2977 0
-225 2975 2977 0
-225 -226 2977 0
-2977 2974 0
-2982 2959 2983 0
-2980 2959 2983 0
-2980 -2982 2983 0
-2983 2956 0
-2981 2956 0
-2983 -2981 2957 0
-2978 2956 0
-2983 -2978 2957 0
-2979 2957 0
-2983 -2979 2958 0
-2978 -2981 2957 0
-2983 -2978 -2981 2958 0
-2979 -2981 2958 0
-2983 -2979 -2981 0
-224 2982 2986 0
-2985 2982 2986 0
-2985 -224 2986 0
-2986 2981 0
-2984 2981 0
-2986 -2984 0
-223 2985 2987 0
-222 2985 2987 0
-222 -223 2987 0
-2987 2984 0
-2991 2980 2992 0
-2989 2980 2992 0
-2989 -2991 2992 0
-2992 2978 0
-2990 2978 0
-2992 -2990 2979 0
-2988 2978 0
-2992 -2988 2979 0
-2988 -2990 2979 0
-2992 -2988 -2990 0
-221 2991 2993 0
-220 2991 2993 0
-220 -221 2993 0
-2993 2990 0
-219 2989 2994 0
-218 2989 2994 0
-218 -219 2994 0
-2994 2988 0
-3002 2949 3003 0
-2998 2949 3003 0
-2998 -3002 3003 0
-3003 2945 0
-2999 2945 0
-3003 -2999 2946 0
-3000 2946 0
-3003 -3000 2947 0
-3001 2947 0
-3003 -3001 2948 0
-2995 2945 0
-3003 -2995 2946 0
-2996 2946 0
-3003 -2996 2947 0
-2997 2947 0
-3003 -2997 2948 0
-2995 -2999 2946 0
-3003 -2995 -2999 2947 0
-2995 -3000 2947 0
-3003 -2995 -3000 2948 0
-2995 -3001 2948 0
-3003 -2995 -3001 0
-2996 -2999 2947 0
-3003 -2996 -2999 2948 0
-2996 -3000 2948 0
-3003 -2996 -3000 0
-2996 -3001 0
-3003 -2996 -3001 0
-2997 -2999 2948 0
-3003 -2997 -2999 0
-2997 -3000 0
-3003 -2997 -3000 0
-2997 -3001 0
-3003 -2997 -3001 0
-3007 3002 3008 0
-3005 3002 3008 0
-3005 -3007 3008 0
-3008 2999 0
-3006 2999 0
-3008 -3006 3000 0
-3004 2999 0
-3008 -3004 3000 0
-3004 -3006 3000 0
-3008 -3004 -3006 3001 0
-217 3007 3011 0
-3010 3007 3011 0
-3010 -217 3011 0
-3011 3006 0
-3009 3006 0
-3011 -3009 0
-216 3010 3012 0
-215 3010 3012 0
-215 -216 3012 0
-3012 3009 0
-214 3005 3015 0
-3014 3005 3015 0
-3014 -214 3015 0
-3015 3004 0
-3013 3004 0
-3015 -3013 0
-213 3014 3016 0
-212 3014 3016 0
-212 -213 3016 0
-3016 3013 0
-3021 2998 3022 0
-3019 2998 3022 0
-3019 -3021 3022 0
-3022 2995 0
-3020 2995 0
-3022 -3020 2996 0
-3017 2995 0
-3022 -3017 2996 0
-3018 2996 0
-3022 -3018 2997 0
-3017 -3020 2996 0
-3022 -3017 -3020 2997 0
-3018 -3020 2997 0
-3022 -3018 -3020 0
-211 3021 3025 0
-3024 3021 3025 0
-3024 -211 3025 0
-3025 3020 0
-3023 3020 0
-3025 -3023 0
-210 3024 3026 0
-209 3024 3026 0
-209 -210 3026 0
-3026 3023 0
-3030 3019 3031 0
-3028 3019 3031 0
-3028 -3030 3031 0
-3031 3017 0
-3029 3017 0
-3031 -3029 3018 0
-3027 3017 0
-3031 -3027 3018 0
-3027 -3029 3018 0
-3031 -3027 -3029 0
-208 3030 3032 0
-207 3030 3032 0
-207 -208 3032 0
-3032 3029 0
-206 3028 3033 0
-205 3028 3033 0
-205 -206 3033 0
-3033 3027 0
-3043 2254 3044 0
-3038 2254 3044 0
-3038 -3043 3044 0
-3044 2250 0
-3039 2250 0
-3044 -3039 2251 0
-3040 2251 0
-3044 -3040 2252 0
-3041 2252 0
-3044 -3041 2253 0
-3042 2253 0
-3044 -3042 0
-3034 2250 0
-3044 -3034 2251 0
-3035 2251 0
-3044 -3035 2252 0
-3036 2252 0
-3044 -3036 2253 0
-3037 2253 0
-3044 -3037 0
-3034 -3039 2251 0
-3044 -3034 -3039 2252 0
-3034 -3040 2252 0
-3044 -3034 -3040 2253 0
-3034 -3041 2253 0
-3044 -3034 -3041 0
-3034 -3042 0
-3044 -3034 -3042 0
-3035 -3039 2252 0
-3044 -3035 -3039 2253 0
-3035 -3040 2253 0
-3044 -3035 -3040 0
-3035 -3041 0
-3044 -3035 -3041 0
-3035 -3042 0
-3044 -3035 -3042 0
-3036 -3039 2253 0
-3044 -3036 -3039 0
-3036 -3040 0
-3044 -3036 -3040 0
-3036 -3041 0
-3044 -3036 -3041 0
-3036 -3042 0
-3044 -3036 -3042 0
-3037 -3039 0
-3044 -3037 -3039 0
-3037 -3040 0
-3044 -3037 -3040 0
-3037 -3041 0
-3044 -3037 -3041 0
-3037 -3042 0
-3044 -3037 -3042 0
-3054 3043 3055 0
-3049 3043 3055 0
-3049 -3054 3055 0
-3055 3039 0
-3050 3039 0
-3055 -3050 3040 0
-3051 3040 0
-3055 -3051 3041 0
-3052 3041 0
-3055 -3052 3042 0
-3053 3042 0
-3055 -3053 0
-3045 3039 0
-3055 -3045 3040 0
-3046 3040 0
-3055 -3046 3041 0
-3047 3041 0
-3055 -3047 3042 0
-3048 3042 0
-3055 -3048 0
-3045 -3050 3040 0
-3055 -3045 -3050 3041 0
-3045 -3051 3041 0
-3055 -3045 -3051 3042 0
-3045 -3052 3042 0
-3055 -3045 -3052 0
-3045 -3053 0
-3055 -3045 -3053 0
-3046 -3050 3041 0
-3055 -3046 -3050 3042 0
-3046 -3051 3042 0
-3055 -3046 -3051 0
-3046 -3052 0
-3055 -3046 -3052 0
-3046 -3053 0
-3055 -3046 -3053 0
-3047 -3050 3042 0
-3055 -3047 -3050 0
-3047 -3051 0
-3055 -3047 -3051 0
-3047 -3052 0
-3055 -3047 -3052 0
-3047 -3053 0
-3055 -3047 -3053 0
-3048 -3050 0
-3055 -3048 -3050 0
-3048 -3051 0
-3055 -3048 -3051 0
-3048 -3052 0
-3055 -3048 -3052 0
-3048 -3053 0
-3055 -3048 -3053 0
-3065 3054 3066 0
-3060 3054 3066 0
-3060 -3065 3066 0
-3066 3050 0
-3061 3050 0
-3066 -3061 3051 0
-3062 3051 0
-3066 -3062 3052 0
-3063 3052 0
-3066 -3063 3053 0
-3064 3053 0
-3066 -3064 0
-3056 3050 0
-3066 -3056 3051 0
-3057 3051 0
-3066 -3057 3052 0
-3058 3052 0
-3066 -3058 3053 0
-3059 3053 0
-3066 -3059 0
-3056 -3061 3051 0
-3066 -3056 -3061 3052 0
-3056 -3062 3052 0
-3066 -3056 -3062 3053 0
-3056 -3063 3053 0
-3066 -3056 -3063 0
-3056 -3064 0
-3066 -3056 -3064 0
-3057 -3061 3052 0
-3066 -3057 -3061 3053 0
-3057 -3062 3053 0
-3066 -3057 -3062 0
-3057 -3063 0
-3066 -3057 -3063 0
-3057 -3064 0
-3066 -3057 -3064 0
-3058 -3061 3053 0
-3066 -3058 -3061 0
-3058 -3062 0
-3066 -3058 -3062 0
-3058 -3063 0
-3066 -3058 -3063 0
-3058 -3064 0
-3066 -3058 -3064 0
-3059 -3061 0
-3066 -3059 -3061 0
-3059 -3062 0
-3066 -3059 -3062 0
-3059 -3063 0
-3066 -3059 -3063 0
-3059 -3064 0
-3066 -3059 -3064 0
-3076 3065 3077 0
-3071 3065 3077 0
-3071 -3076 3077 0
-3077 3061 0
-3072 3061 0
-3077 -3072 3062 0
-3073 3062 0
-3077 -3073 3063 0
-3074 3063 0
-3077 -3074 3064 0
-3075 3064 0
-3077 -3075 0
-3067 3061 0
-3077 -3067 3062 0
-3068 3062 0
-3077 -3068 3063 0
-3069 3063 0
-3077 -3069 3064 0
-3070 3064 0
-3077 -3070 0
-3067 -3072 3062 0
-3077 -3067 -3072 3063 0
-3067 -3073 3063 0
-3077 -3067 -3073 3064 0
-3067 -3074 3064 0
-3077 -3067 -3074 0
-3067 -3075 0
-3077 -3067 -3075 0
-3068 -3072 3063 0
-3077 -3068 -3072 3064 0
-3068 -3073 3064 0
-3077 -3068 -3073 0
-3068 -3074 0
-3077 -3068 -3074 0
-3068 -3075 0
-3077 -3068 -3075 0
-3069 -3072 3064 0
-3077 -3069 -3072 0
-3069 -3073 0
-3077 -3069 -3073 0
-3069 -3074 0
-3077 -3069 -3074 0
-3069 -3075 0
-3077 -3069 -3075 0
-3070 -3072 0
-3077 -3070 -3072 0
-3070 -3073 0
-3077 -3070 -3073 0
-3070 -3074 0
-3077 -3070 -3074 0
-3070 -3075 0
-3077 -3070 -3075 0
-3085 3076 3086 0
-3081 3076 3086 0
-3081 -3085 3086 0
-3086 3072 0
-3082 3072 0
-3086 -3082 3073 0
-3083 3073 0
-3086 -3083 3074 0
-3084 3074 0
-3086 -3084 3075 0
-3078 3072 0
-3086 -3078 3073 0
-3079 3073 0
-3086 -3079 3074 0
-3080 3074 0
-3086 -3080 3075 0
-3078 -3082 3073 0
-3086 -3078 -3082 3074 0
-3078 -3083 3074 0
-3086 -3078 -3083 3075 0
-3078 -3084 3075 0
-3086 -3078 -3084 0
-3079 -3082 3074 0
-3086 -3079 -3082 3075 0
-3079 -3083 3075 0
-3086 -3079 -3083 0
-3079 -3084 0
-3086 -3079 -3084 0
-3080 -3082 3075 0
-3086 -3080 -3082 0
-3080 -3083 0
-3086 -3080 -3083 0
-3080 -3084 0
-3086 -3080 -3084 0
-3090 3085 3091 0
-3088 3085 3091 0
-3088 -3090 3091 0
-3091 3082 0
-3089 3082 0
-3091 -3089 3083 0
-3087 3082 0
-3091 -3087 3083 0
-3087 -3089 3083 0
-3091 -3087 -3089 3084 0
-204 3090 3094 0
-3093 3090 3094 0
-3093 -204 3094 0
-3094 3089 0
-3092 3089 0
-3094 -3092 0
-203 3093 3095 0
-202 3093 3095 0
-202 -203 3095 0
-3095 3092 0
-201 3088 3098 0
-3097 3088 3098 0
-3097 -201 3098 0
-3098 3087 0
-3096 3087 0
-3098 -3096 0
-200 3097 3099 0
-199 3097 3099 0
-199 -200 3099 0
-3099 3096 0
-3103 3081 3104 0
-3101 3081 3104 0
-3101 -3103 3104 0
-3104 3078 0
-3102 3078 0
-3104 -3102 3079 0
-3100 3078 0
-3104 -3100 3079 0
-3100 -3102 3079 0
-3104 -3100 -3102 3080 0
-198 3103 3107 0
-3106 3103 3107 0
-3106 -198 3107 0
-3107 3102 0
-3105 3102 0
-3107 -3105 0
-197 3106 3108 0
-196 3106 3108 0
-196 -197 3108 0
-3108 3105 0
-195 3101 3111 0
-3110 3101 3111 0
-3110 -195 3111 0
-3111 3100 0
-3109 3100 0
-3111 -3109 0
-194 3110 3112 0
-193 3110 3112 0
-193 -194 3112 0
-3112 3109 0
-3120 3071 3121 0
-3116 3071 3121 0
-3116 -3120 3121 0
-3121 3067 0
-3117 3067 0
-3121 -3117 3068 0
-3118 3068 0
-3121 -3118 3069 0
-3119 3069 0
-3121 -3119 3070 0
-3113 3067 0
-3121 -3113 3068 0
-3114 3068 0
-3121 -3114 3069 0
-3115 3069 0
-3121 -3115 3070 0
-3113 -3117 3068 0
-3121 -3113 -3117 3069 0
-3113 -3118 3069 0
-3121 -3113 -3118 3070 0
-3113 -3119 3070 0
-3121 -3113 -3119 0
-3114 -3117 3069 0
-3121 -3114 -3117 3070 0
-3114 -3118 3070 0
-3121 -3114 -3118 0
-3114 -3119 0
-3121 -3114 -3119 0
-3115 -3117 3070 0
-3121 -3115 -3117 0
-3115 -3118 0
-3121 -3115 -3118 0
-3115 -3119 0
-3121 -3115 -3119 0
-3125 3120 3126 0
-3123 3120 3126 0
-3123 -3125 3126 0
-3126 3117 0
-3124 3117 0
-3126 -3124 3118 0
-3122 3117 0
-3126 -3122 3118 0
-3122 -3124 3118 0
-3126 -3122 -3124 3119 0
-192 3125 3129 0
-3128 3125 3129 0
-3128 -192 3129 0
-3129 3124 0
-3127 3124 0
-3129 -3127 0
-191 3128 3130 0
-190 3128 3130 0
-190 -191 3130 0
-3130 3127 0
-189 3123 3133 0
-3132 3123 3133 0
-3132 -189 3133 0
-3133 3122 0
-3131 3122 0
-3133 -3131 0
-188 3132 3134 0
-187 3132 3134 0
-187 -188 3134 0
-3134 3131 0
-3139 3116 3140 0
-3137 3116 3140 0
-3137 -3139 3140 0
-3140 3113 0
-3138 3113 0
-3140 -3138 3114 0
-3135 3113 0
-3140 -3135 3114 0
-3136 3114 0
-3140 -3136 3115 0
-3135 -3138 3114 0
-3140 -3135 -3138 3115 0
-3136 -3138 3115 0
-3140 -3136 -3138 0
-186 3139 3143 0
-3142 3139 3143 0
-3142 -186 3143 0
-3143 3138 0
-3141 3138 0
-3143 -3141 0
-185 3142 3144 0
-184 3142 3144 0
-184 -185 3144 0
-3144 3141 0
-3148 3137 3149 0
-3146 3137 3149 0
-3146 -3148 3149 0
-3149 3135 0
-3147 3135 0
-3149 -3147 3136 0
-3145 3135 0
-3149 -3145 3136 0
-3145 -3147 3136 0
-3149 -3145 -3147 0
-183 3148 3150 0
-182 3148 3150 0
-182 -183 3150 0
-3150 3147 0
-181 3146 3151 0
-180 3146 3151 0
-180 -181 3151 0
-3151 3145 0
-3161 3060 3162 0
-3156 3060 3162 0
-3156 -3161 3162 0
-3162 3056 0
-3157 3056 0
-3162 -3157 3057 0
-3158 3057 0
-3162 -3158 3058 0
-3159 3058 0
-3162 -3159 3059 0
-3160 3059 0
-3162 -3160 0
-3152 3056 0
-3162 -3152 3057 0
-3153 3057 0
-3162 -3153 3058 0
-3154 3058 0
-3162 -3154 3059 0
-3155 3059 0
-3162 -3155 0
-3152 -3157 3057 0
-3162 -3152 -3157 3058 0
-3152 -3158 3058 0
-3162 -3152 -3158 3059 0
-3152 -3159 3059 0
-3162 -3152 -3159 0
-3152 -3160 0
-3162 -3152 -3160 0
-3153 -3157 3058 0
-3162 -3153 -3157 3059 0
-3153 -3158 3059 0
-3162 -3153 -3158 0
-3153 -3159 0
-3162 -3153 -3159 0
-3153 -3160 0
-3162 -3153 -3160 0
-3154 -3157 3059 0
-3162 -3154 -3157 0
-3154 -3158 0
-3162 -3154 -3158 0
-3154 -3159 0
-3162 -3154 -3159 0
-3154 -3160 0
-3162 -3154 -3160 0
-3155 -3157 0
-3162 -3155 -3157 0
-3155 -3158 0
-3162 -3155 -3158 0
-3155 -3159 0
-3162 -3155 -3159 0
-3155 -3160 0
-3162 -3155 -3160 0
-3170 3161 3171 0
-3166 3161 3171 0
-3166 -3170 3171 0
-3171 3157 0
-3167 3157 0
-3171 -3167 3158 0
-3168 3158 0
-3171 -3168 3159 0
-3169 3159 0
-3171 -3169 3160 0
-3163 3157 0
-3171 -3163 3158 0
-3164 3158 0
-3171 -3164 3159 0
-3165 3159 0
-3171 -3165 3160 0
-3163 -3167 3158 0
-3171 -3163 -3167 3159 0
-3163 -3168 3159 0
-3171 -3163 -3168 3160 0
-3163 -3169 3160 0
-3171 -3163 -3169 0
-3164 -3167 3159 0
-3171 -3164 -3167 3160 0
-3164 -3168 3160 0
-3171 -3164 -3168 0
-3164 -3169 0
-3171 -3164 -3169 0
-3165 -3167 3160 0
-3171 -3165 -3167 0
-3165 -3168 0
-3171 -3165 -3168 0
-3165 -3169 0
-3171 -3165 -3169 0
-3175 3170 3176 0
-3173 3170 3176 0
-3173 -3175 3176 0
-3176 3167 0
-3174 3167 0
-3176 -3174 3168 0
-3172 3167 0
-3176 -3172 3168 0
-3172 -3174 3168 0
-3176 -3172 -3174 3169 0
-179 3175 3179 0
-3178 3175 3179 0
-3178 -179 3179 0
-3179 3174 0
-3177 3174 0
-3179 -3177 0
-178 3178 3180 0
-177 3178 3180 0
-177 -178 3180 0
-3180 3177 0
-176 3173 3183 0
-3182 3173 3183 0
-3182 -176 3183 0
-3183 3172 0
-3181 3172 0
-3183 -3181 0
-175 3182 3184 0
-174 3182 3184 0
-174 -175 3184 0
-3184 3181 0
-3189 3166 3190 0
-3187 3166 3190 0
-3187 -3189 3190 0
-3190 3163 0
-3188 3163 0
-3190 -3188 3164 0
-3185 3163 0
-3190 -3185 3164 0
-3186 3164 0
-3190 -3186 3165 0
-3185 -3188 3164 0
-3190 -3185 -3188 3165 0
-3186 -3188 3165 0
-3190 -3186 -3188 0
-173 3189 3193 0
-3192 3189 3193 0
-3192 -173 3193 0
-3193 3188 0
-3191 3188 0
-3193 -3191 0
-172 3192 3194 0
-171 3192 3194 0
-171 -172 3194 0
-3194 3191 0
-3198 3187 3199 0
-3196 3187 3199 0
-3196 -3198 3199 0
-3199 3185 0
-3197 3185 0
-3199 -3197 3186 0
-3195 3185 0
-3199 -3195 3186 0
-3195 -3197 3186 0
-3199 -3195 -3197 0
-170 3198 3200 0
-169 3198 3200 0
-169 -170 3200 0
-3200 3197 0
-168 3196 3201 0
-167 3196 3201 0
-167 -168 3201 0
-3201 3195 0
-3209 3156 3210 0
-3205 3156 3210 0
-3205 -3209 3210 0
-3210 3152 0
-3206 3152 0
-3210 -3206 3153 0
-3207 3153 0
-3210 -3207 3154 0
-3208 3154 0
-3210 -3208 3155 0
-3202 3152 0
-3210 -3202 3153 0
-3203 3153 0
-3210 -3203 3154 0
-3204 3154 0
-3210 -3204 3155 0
-3202 -3206 3153 0
-3210 -3202 -3206 3154 0
-3202 -3207 3154 0
-3210 -3202 -3207 3155 0
-3202 -3208 3155 0
-3210 -3202 -3208 0
-3203 -3206 3154 0
-3210 -3203 -3206 3155 0
-3203 -3207 3155 0
-3210 -3203 -3207 0
-3203 -3208 0
-3210 -3203 -3208 0
-3204 -3206 3155 0
-3210 -3204 -3206 0
-3204 -3207 0
-3210 -3204 -3207 0
-3204 -3208 0
-3210 -3204 -3208 0
-3214 3209 3215 0
-3212 3209 3215 0
-3212 -3214 3215 0
-3215 3206 0
-3213 3206 0
-3215 -3213 3207 0
-3211 3206 0
-3215 -3211 3207 0
-3211 -3213 3207 0
-3215 -3211 -3213 3208 0
-166 3214 3218 0
-3217 3214 3218 0
-3217 -166 3218 0
-3218 3213 0
-3216 3213 0
-3218 -3216 0
-165 3217 3219 0
-164 3217 3219 0
-164 -165 3219 0
-3219 3216 0
-163 3212 3222 0
-3221 3212 3222 0
-3221 -163 3222 0
-3222 3211 0
-3220 3211 0
-3222 -3220 0
-162 3221 3223 0
-161 3221 3223 0
-161 -162 3223 0
-3223 3220 0
-3228 3205 3229 0
-3226 3205 3229 0
-3226 -3228 3229 0
-3229 3202 0
-3227 3202 0
-3229 -3227 3203 0
-3224 3202 0
-3229 -3224 3203 0
-3225 3203 0
-3229 -3225 3204 0
-3224 -3227 3203 0
-3229 -3224 -3227 3204 0
-3225 -3227 3204 0
-3229 -3225 -3227 0
-160 3228 3232 0
-3231 3228 3232 0
-3231 -160 3232 0
-3232 3227 0
-3230 3227 0
-3232 -3230 0
-159 3231 3233 0
-158 3231 3233 0
-158 -159 3233 0
-3233 3230 0
-3237 3226 3238 0
-3235 3226 3238 0
-3235 -3237 3238 0
-3238 3224 0
-3236 3224 0
-3238 -3236 3225 0
-3234 3224 0
-3238 -3234 3225 0
-3234 -3236 3225 0
-3238 -3234 -3236 0
-157 3237 3239 0
-156 3237 3239 0
-156 -157 3239 0
-3239 3236 0
-155 3235 3240 0
-154 3235 3240 0
-154 -155 3240 0
-3240 3234 0
-3250 3049 3251 0
-3245 3049 3251 0
-3245 -3250 3251 0
-3251 3045 0
-3246 3045 0
-3251 -3246 3046 0
-3247 3046 0
-3251 -3247 3047 0
-3248 3047 0
-3251 -3248 3048 0
-3249 3048 0
-3251 -3249 0
-3241 3045 0
-3251 -3241 3046 0
-3242 3046 0
-3251 -3242 3047 0
-3243 3047 0
-3251 -3243 3048 0
-3244 3048 0
-3251 -3244 0
-3241 -3246 3046 0
-3251 -3241 -3246 3047 0
-3241 -3247 3047 0
-3251 -3241 -3247 3048 0
-3241 -3248 3048 0
-3251 -3241 -3248 0
-3241 -3249 0
-3251 -3241 -3249 0
-3242 -3246 3047 0
-3251 -3242 -3246 3048 0
-3242 -3247 3048 0
-3251 -3242 -3247 0
-3242 -3248 0
-3251 -3242 -3248 0
-3242 -3249 0
-3251 -3242 -3249 0
-3243 -3246 3048 0
-3251 -3243 -3246 0
-3243 -3247 0
-3251 -3243 -3247 0
-3243 -3248 0
-3251 -3243 -3248 0
-3243 -3249 0
-3251 -3243 -3249 0
-3244 -3246 0
-3251 -3244 -3246 0
-3244 -3247 0
-3251 -3244 -3247 0
-3244 -3248 0
-3251 -3244 -3248 0
-3244 -3249 0
-3251 -3244 -3249 0
-3261 3250 3262 0
-3256 3250 3262 0
-3256 -3261 3262 0
-3262 3246 0
-3257 3246 0
-3262 -3257 3247 0
-3258 3247 0
-3262 -3258 3248 0
-3259 3248 0
-3262 -3259 3249 0
-3260 3249 0
-3262 -3260 0
-3252 3246 0
-3262 -3252 3247 0
-3253 3247 0
-3262 -3253 3248 0
-3254 3248 0
-3262 -3254 3249 0
-3255 3249 0
-3262 -3255 0
-3252 -3257 3247 0
-3262 -3252 -3257 3248 0
-3252 -3258 3248 0
-3262 -3252 -3258 3249 0
-3252 -3259 3249 0
-3262 -3252 -3259 0
-3252 -3260 0
-3262 -3252 -3260 0
-3253 -3257 3248 0
-3262 -3253 -3257 3249 0
-3253 -3258 3249 0
-3262 -3253 -3258 0
-3253 -3259 0
-3262 -3253 -3259 0
-3253 -3260 0
-3262 -3253 -3260 0
-3254 -3257 3249 0
-3262 -3254 -3257 0
-3254 -3258 0
-3262 -3254 -3258 0
-3254 -3259 0
-3262 -3254 -3259 0
-3254 -3260 0
-3262 -3254 -3260 0
-3255 -3257 0
-3262 -3255 -3257 0
-3255 -3258 0
-3262 -3255 -3258 0
-3255 -3259 0
-3262 -3255 -3259 0
-3255 -3260 0
-3262 -3255 -3260 0
-3270 3261 3271 0
-3266 3261 3271 0
-3266 -3270 3271 0
-3271 3257 0
-3267 3257 0
-3271 -3267 3258 0
-3268 3258 0
-3271 -3268 3259 0
-3269 3259 0
-3271 -3269 3260 0
-3263 3257 0
-3271 -3263 3258 0
-3264 3258 0
-3271 -3264 3259 0
-3265 3259 0
-3271 -3265 3260 0
-3263 -3267 3258 0
-3271 -3263 -3267 3259 0
-3263 -3268 3259 0
-3271 -3263 -3268 3260 0
-3263 -3269 3260 0
-3271 -3263 -3269 0
-3264 -3267 3259 0
-3271 -3264 -3267 3260 0
-3264 -3268 3260 0
-3271 -3264 -3268 0
-3264 -3269 0
-3271 -3264 -3269 0
-3265 -3267 3260 0
-3271 -3265 -3267 0
-3265 -3268 0
-3271 -3265 -3268 0
-3265 -3269 0
-3271 -3265 -3269 0
-3275 3270 3276 0
-3273 3270 3276 0
-3273 -3275 3276 0
-3276 3267 0
-3274 3267 0
-3276 -3274 3268 0
-3272 3267 0
-3276 -3272 3268 0
-3272 -3274 3268 0
-3276 -3272 -3274 3269 0
-153 3275 3279 0
-3278 3275 3279 0
-3278 -153 3279 0
-3279 3274 0
-3277 3274 0
-3279 -3277 0
-152 3278 3280 0
-151 3278 3280 0
-151 -152 3280 0
-3280 3277 0
-150 3273 3283 0
-3282 3273 3283 0
-3282 -150 3283 0
-3283 3272 0
-3281 3272 0
-3283 -3281 0
-149 3282 3284 0
-148 3282 3284 0
-148 -149 3284 0
-3284 3281 0
-3288 3266 3289 0
-3286 3266 3289 0
-3286 -3288 3289 0
-3289 3263 0
-3287 3263 0
-3289 -3287 3264 0
-3285 3263 0
-3289 -3285 3264 0
-3285 -3287 3264 0
-3289 -3285 -3287 3265 0
-147 3288 3292 0
-3291 3288 3292 0
-3291 -147 3292 0
-3292 3287 0
-3290 3287 0
-3292 -3290 0
-146 3291 3293 0
-145 3291 3293 0
-145 -146 3293 0
-3293 3290 0
-144 3286 3296 0
-3295 3286 3296 0
-3295 -144 3296 0
-3296 3285 0
-3294 3285 0
-3296 -3294 0
-143 3295 3297 0
-142 3295 3297 0
-142 -143 3297 0
-3297 3294 0
-3305 3256 3306 0
-3301 3256 3306 0
-3301 -3305 3306 0
-3306 3252 0
-3302 3252 0
-3306 -3302 3253 0
-3303 3253 0
-3306 -3303 3254 0
-3304 3254 0
-3306 -3304 3255 0
-3298 3252 0
-3306 -3298 3253 0
-3299 3253 0
-3306 -3299 3254 0
-3300 3254 0
-3306 -3300 3255 0
-3298 -3302 3253 0
-3306 -3298 -3302 3254 0
-3298 -3303 3254 0
-3306 -3298 -3303 3255 0
-3298 -3304 3255 0
-3306 -3298 -3304 0
-3299 -3302 3254 0
-3306 -3299 -3302 3255 0
-3299 -3303 3255 0
-3306 -3299 -3303 0
-3299 -3304 0
-3306 -3299 -3304 0
-3300 -3302 3255 0
-3306 -3300 -3302 0
-3300 -3303 0
-3306 -3300 -3303 0
-3300 -3304 0
-3306 -3300 -3304 0
-3310 3305 3311 0
-3308 3305 3311 0
-3308 -3310 3311 0
-3311 3302 0
-3309 3302 0
-3311 -3309 3303 0
-3307 3302 0
-3311 -3307 3303 0
-3307 -3309 3303 0
-3311 -3307 -3309 3304 0
-141 3310 3314 0
-3313 3310 3314 0
-3313 -141 3314 0
-3314 3309 0
-3312 3309 0
-3314 -3312 0
-140 3313 3315 0
-139 3313 3315 0
-139 -140 3315 0
-3315 3312 0
-138 3308 3318 0
-3317 3308 3318 0
-3317 -138 3318 0
-3318 3307 0
-3316 3307 0
-3318 -3316 0
-137 3317 3319 0
-136 3317 3319 0
-136 -137 3319 0
-3319 3316 0
-3324 3301 3325 0
-3322 3301 3325 0
-3322 -3324 3325 0
-3325 3298 0
-3323 3298 0
-3325 -3323 3299 0
-3320 3298 0
-3325 -3320 3299 0
-3321 3299 0
-3325 -3321 3300 0
-3320 -3323 3299 0
-3325 -3320 -3323 3300 0
-3321 -3323 3300 0
-3325 -3321 -3323 0
-135 3324 3328 0
-3327 3324 3328 0
-3327 -135 3328 0
-3328 3323 0
-3326 3323 0
-3328 -3326 0
-134 3327 3329 0
-133 3327 3329 0
-133 -134 3329 0
-3329 3326 0
-3333 3322 3334 0
-3331 3322 3334 0
-3331 -3333 3334 0
-3334 3320 0
-3332 3320 0
-3334 -3332 3321 0
-3330 3320 0
-3334 -3330 3321 0
-3330 -3332 3321 0
-3334 -3330 -3332 0
-132 3333 3335 0
-131 3333 3335 0
-131 -132 3335 0
-3335 3332 0
-130 3331 3336 0
-129 3331 3336 0
-129 -130 3336 0
-3336 3330 0
-3346 3245 3347 0
-3341 3245 3347 0
-3341 -3346 3347 0
-3347 3241 0
-3342 3241 0
-3347 -3342 3242 0
-3343 3242 0
-3347 -3343 3243 0
-3344 3243 0
-3347 -3344 3244 0
-3345 3244 0
-3347 -3345 0
-3337 3241 0
-3347 -3337 3242 0
-3338 3242 0
-3347 -3338 3243 0
-3339 3243 0
-3347 -3339 3244 0
-3340 3244 0
-3347 -3340 0
-3337 -3342 3242 0
-3347 -3337 -3342 3243 0
-3337 -3343 3243 0
-3347 -3337 -3343 3244 0
-3337 -3344 3244 0
-3347 -3337 -3344 0
-3337 -3345 0
-3347 -3337 -3345 0
-3338 -3342 3243 0
-3347 -3338 -3342 3244 0
-3338 -3343 3244 0
-3347 -3338 -3343 0
-3338 -3344 0
-3347 -3338 -3344 0
-3338 -3345 0
-3347 -3338 -3345 0
-3339 -3342 3244 0
-3347 -3339 -3342 0
-3339 -3343 0
-3347 -3339 -3343 0
-3339 -3344 0
-3347 -3339 -3344 0
-3339 -3345 0
-3347 -3339 -3345 0
-3340 -3342 0
-3347 -3340 -3342 0
-3340 -3343 0
-3347 -3340 -3343 0
-3340 -3344 0
-3347 -3340 -3344 0
-3340 -3345 0
-3347 -3340 -3345 0
-3355 3346 3356 0
-3351 3346 3356 0
-3351 -3355 3356 0
-3356 3342 0
-3352 3342 0
-3356 -3352 3343 0
-3353 3343 0
-3356 -3353 3344 0
-3354 3344 0
-3356 -3354 3345 0
-3348 3342 0
-3356 -3348 3343 0
-3349 3343 0
-3356 -3349 3344 0
-3350 3344 0
-3356 -3350 3345 0
-3348 -3352 3343 0
-3356 -3348 -3352 3344 0
-3348 -3353 3344 0
-3356 -3348 -3353 3345 0
-3348 -3354 3345 0
-3356 -3348 -3354 0
-3349 -3352 3344 0
-3356 -3349 -3352 3345 0
-3349 -3353 3345 0
-3356 -3349 -3353 0
-3349 -3354 0
-3356 -3349 -3354 0
-3350 -3352 3345 0
-3356 -3350 -3352 0
-3350 -3353 0
-3356 -3350 -3353 0
-3350 -3354 0
-3356 -3350 -3354 0
-3360 3355 3361 0
-3358 3355 3361 0
-3358 -3360 3361 0
-3361 3352 0
-3359 3352 0
-3361 -3359 3353 0
-3357 3352 0
-3361 -3357 3353 0
-3357 -3359 3353 0
-3361 -3357 -3359 3354 0
-128 3360 3364 0
-3363 3360 3364 0
-3363 -128 3364 0
-3364 3359 0
-3362 3359 0
-3364 -3362 0
-127 3363 3365 0
-126 3363 3365 0
-126 -127 3365 0
-3365 3362 0
-125 3358 3368 0
-3367 3358 3368 0
-3367 -125 3368 0
-3368 3357 0
-3366 3357 0
-3368 -3366 0
-124 3367 3369 0
-123 3367 3369 0
-123 -124 3369 0
-3369 3366 0
-3374 3351 3375 0
-3372 3351 3375 0
-3372 -3374 3375 0
-3375 3348 0
-3373 3348 0
-3375 -3373 3349 0
-3370 3348 0
-3375 -3370 3349 0
-3371 3349 0
-3375 -3371 3350 0
-3370 -3373 3349 0
-3375 -3370 -3373 3350 0
-3371 -3373 3350 0
-3375 -3371 -3373 0
-122 3374 3378 0
-3377 3374 3378 0
-3377 -122 3378 0
-3378 3373 0
-3376 3373 0
-3378 -3376 0
-121 3377 3379 0
-120 3377 3379 0
-120 -121 3379 0
-3379 3376 0
-3383 3372 3384 0
-3381 3372 3384 0
-3381 -3383 3384 0
-3384 3370 0
-3382 3370 0
-3384 -3382 3371 0
-3380 3370 0
-3384 -3380 3371 0
-3380 -3382 3371 0
-3384 -3380 -3382 0
-119 3383 3385 0
-118 3383 3385 0
-118 -119 3385 0
-3385 3382 0
-117 3381 3386 0
-116 3381 3386 0
-116 -117 3386 0
-3386 3380 0
-3394 3341 3395 0
-3390 3341 3395 0
-3390 -3394 3395 0
-3395 3337 0
-3391 3337 0
-3395 -3391 3338 0
-3392 3338 0
-3395 -3392 3339 0
-3393 3339 0
-3395 -3393 3340 0
-3387 3337 0
-3395 -3387 3338 0
-3388 3338 0
-3395 -3388 3339 0
-3389 3339 0
-3395 -3389 3340 0
-3387 -3391 3338 0
-3395 -3387 -3391 3339 0
-3387 -3392 3339 0
-3395 -3387 -3392 3340 0
-3387 -3393 3340 0
-3395 -3387 -3393 0
-3388 -3391 3339 0
-3395 -3388 -3391 3340 0
-3388 -3392 3340 0
-3395 -3388 -3392 0
-3388 -3393 0
-3395 -3388 -3393 0
-3389 -3391 3340 0
-3395 -3389 -3391 0
-3389 -3392 0
-3395 -3389 -3392 0
-3389 -3393 0
-3395 -3389 -3393 0
-3399 3394 3400 0
-3397 3394 3400 0
-3397 -3399 3400 0
-3400 3391 0
-3398 3391 0
-3400 -3398 3392 0
-3396 3391 0
-3400 -3396 3392 0
-3396 -3398 3392 0
-3400 -3396 -3398 3393 0
-115 3399 3403 0
-3402 3399 3403 0
-3402 -115 3403 0
-3403 3398 0
-3401 3398 0
-3403 -3401 0
-114 3402 3404 0
-113 3402 3404 0
-113 -114 3404 0
-3404 3401 0
-112 3397 3407 0
-3406 3397 3407 0
-3406 -112 3407 0
-3407 3396 0
-3405 3396 0
-3407 -3405 0
-111 3406 3408 0
-110 3406 3408 0
-110 -111 3408 0
-3408 3405 0
-3413 3390 3414 0
-3411 3390 3414 0
-3411 -3413 3414 0
-3414 3387 0
-3412 3387 0
-3414 -3412 3388 0
-3409 3387 0
-3414 -3409 3388 0
-3410 3388 0
-3414 -3410 3389 0
-3409 -3412 3388 0
-3414 -3409 -3412 3389 0
-3410 -3412 3389 0
-3414 -3410 -3412 0
-109 3413 3417 0
-3416 3413 3417 0
-3416 -109 3417 0
-3417 3412 0
-3415 3412 0
-3417 -3415 0
-108 3416 3418 0
-107 3416 3418 0
-107 -108 3418 0
-3418 3415 0
-3422 3411 3423 0
-3420 3411 3423 0
-3420 -3422 3423 0
-3423 3409 0
-3421 3409 0
-3423 -3421 3410 0
-3419 3409 0
-3423 -3419 3410 0
-3419 -3421 3410 0
-3423 -3419 -3421 0
-106 3422 3424 0
-105 3422 3424 0
-105 -106 3424 0
-3424 3421 0
-104 3420 3425 0
-103 3420 3425 0
-103 -104 3425 0
-3425 3419 0
-3435 3038 3436 0
-3430 3038 3436 0
-3430 -3435 3436 0
-3436 3034 0
-3431 3034 0
-3436 -3431 3035 0
-3432 3035 0
-3436 -3432 3036 0
-3433 3036 0
-3436 -3433 3037 0
-3434 3037 0
-3436 -3434 0
-3426 3034 0
-3436 -3426 3035 0
-3427 3035 0
-3436 -3427 3036 0
-3428 3036 0
-3436 -3428 3037 0
-3429 3037 0
-3436 -3429 0
-3426 -3431 3035 0
-3436 -3426 -3431 3036 0
-3426 -3432 3036 0
-3436 -3426 -3432 3037 0
-3426 -3433 3037 0
-3436 -3426 -3433 0
-3426 -3434 0
-3436 -3426 -3434 0
-3427 -3431 3036 0
-3436 -3427 -3431 3037 0
-3427 -3432 3037 0
-3436 -3427 -3432 0
-3427 -3433 0
-3436 -3427 -3433 0
-3427 -3434 0
-3436 -3427 -3434 0
-3428 -3431 3037 0
-3436 -3428 -3431 0
-3428 -3432 0
-3436 -3428 -3432 0
-3428 -3433 0
-3436 -3428 -3433 0
-3428 -3434 0
-3436 -3428 -3434 0
-3429 -3431 0
-3436 -3429 -3431 0
-3429 -3432 0
-3436 -3429 -3432 0
-3429 -3433 0
-3436 -3429 -3433 0
-3429 -3434 0
-3436 -3429 -3434 0
-3446 3435 3447 0
-3441 3435 3447 0
-3441 -3446 3447 0
-3447 3431 0
-3442 3431 0
-3447 -3442 3432 0
-3443 3432 0
-3447 -3443 3433 0
-3444 3433 0
-3447 -3444 3434 0
-3445 3434 0
-3447 -3445 0
-3437 3431 0
-3447 -3437 3432 0
-3438 3432 0
-3447 -3438 3433 0
-3439 3433 0
-3447 -3439 3434 0
-3440 3434 0
-3447 -3440 0
-3437 -3442 3432 0
-3447 -3437 -3442 3433 0
-3437 -3443 3433 0
-3447 -3437 -3443 3434 0
-3437 -3444 3434 0
-3447 -3437 -3444 0
-3437 -3445 0
-3447 -3437 -3445 0
-3438 -3442 3433 0
-3447 -3438 -3442 3434 0
-3438 -3443 3434 0
-3447 -3438 -3443 0
-3438 -3444 0
-3447 -3438 -3444 0
-3438 -3445 0
-3447 -3438 -3445 0
-3439 -3442 3434 0
-3447 -3439 -3442 0
-3439 -3443 0
-3447 -3439 -3443 0
-3439 -3444 0
-3447 -3439 -3444 0
-3439 -3445 0
-3447 -3439 -3445 0
-3440 -3442 0
-3447 -3440 -3442 0
-3440 -3443 0
-3447 -3440 -3443 0
-3440 -3444 0
-3447 -3440 -3444 0
-3440 -3445 0
-3447 -3440 -3445 0
-3457 3446 3458 0
-3452 3446 3458 0
-3452 -3457 3458 0
-3458 3442 0
-3453 3442 0
-3458 -3453 3443 0
-3454 3443 0
-3458 -3454 3444 0
-3455 3444 0
-3458 -3455 3445 0
-3456 3445 0
-3458 -3456 0
-3448 3442 0
-3458 -3448 3443 0
-3449 3443 0
-3458 -3449 3444 0
-3450 3444 0
-3458 -3450 3445 0
-3451 3445 0
-3458 -3451 0
-3448 -3453 3443 0
-3458 -3448 -3453 3444 0
-3448 -3454 3444 0
-3458 -3448 -3454 3445 0
-3448 -3455 3445 0
-3458 -3448 -3455 0
-3448 -3456 0
-3458 -3448 -3456 0
-3449 -3453 3444 0
-3458 -3449 -3453 3445 0
-3449 -3454 3445 0
-3458 -3449 -3454 0
-3449 -3455 0
-3458 -3449 -3455 0
-3449 -3456 0
-3458 -3449 -3456 0
-3450 -3453 3445 0
-3458 -3450 -3453 0
-3450 -3454 0
-3458 -3450 -3454 0
-3450 -3455 0
-3458 -3450 -3455 0
-3450 -3456 0
-3458 -3450 -3456 0
-3451 -3453 0
-3458 -3451 -3453 0
-3451 -3454 0
-3458 -3451 -3454 0
-3451 -3455 0
-3458 -3451 -3455 0
-3451 -3456 0
-3458 -3451 -3456 0
-3466 3457 3467 0
-3462 3457 3467 0
-3462 -3466 3467 0
-3467 3453 0
-3463 3453 0
-3467 -3463 3454 0
-3464 3454 0
-3467 -3464 3455 0
-3465 3455 0
-3467 -3465 3456 0
-3459 3453 0
-3467 -3459 3454 0
-3460 3454 0
-3467 -3460 3455 0
-3461 3455 0
-3467 -3461 3456 0
-3459 -3463 3454 0
-3467 -3459 -3463 3455 0
-3459 -3464 3455 0
-3467 -3459 -3464 3456 0
-3459 -3465 3456 0
-3467 -3459 -3465 0
-3460 -3463 3455 0
-3467 -3460 -3463 3456 0
-3460 -3464 3456 0
-3467 -3460 -3464 0
-3460 -3465 0
-3467 -3460 -3465 0
-3461 -3463 3456 0
-3467 -3461 -3463 0
-3461 -3464 0
-3467 -3461 -3464 0
-3461 -3465 0
-3467 -3461 -3465 0
-3471 3466 3472 0
-3469 3466 3472 0
-3469 -3471 3472 0
-3472 3463 0
-3470 3463 0
-3472 -3470 3464 0
-3468 3463 0
-3472 -3468 3464 0
-3468 -3470 3464 0
-3472 -3468 -3470 3465 0
-102 3471 3475 0
-3474 3471 3475 0
-3474 -102 3475 0
-3475 3470 0
-3473 3470 0
-3475 -3473 0
-101 3474 3476 0
-100 3474 3476 0
-100 -101 3476 0
-3476 3473 0
-99 3469 3479 0
-3478 3469 3479 0
-3478 -99 3479 0
-3479 3468 0
-3477 3468 0
-3479 -3477 0
-98 3478 3480 0
-97 3478 3480 0
-97 -98 3480 0
-3480 3477 0
-3484 3462 3485 0
-3482 3462 3485 0
-3482 -3484 3485 0
-3485 3459 0
-3483 3459 0
-3485 -3483 3460 0
-3481 3459 0
-3485 -3481 3460 0
-3481 -3483 3460 0
-3485 -3481 -3483 3461 0
-96 3484 3488 0
-3487 3484 3488 0
-3487 -96 3488 0
-3488 3483 0
-3486 3483 0
-3488 -3486 0
-95 3487 3489 0
-94 3487 3489 0
-94 -95 3489 0
-3489 3486 0
-93 3482 3492 0
-3491 3482 3492 0
-3491 -93 3492 0
-3492 3481 0
-3490 3481 0
-3492 -3490 0
-92 3491 3493 0
-91 3491 3493 0
-91 -92 3493 0
-3493 3490 0
-3501 3452 3502 0
-3497 3452 3502 0
-3497 -3501 3502 0
-3502 3448 0
-3498 3448 0
-3502 -3498 3449 0
-3499 3449 0
-3502 -3499 3450 0
-3500 3450 0
-3502 -3500 3451 0
-3494 3448 0
-3502 -3494 3449 0
-3495 3449 0
-3502 -3495 3450 0
-3496 3450 0
-3502 -3496 3451 0
-3494 -3498 3449 0
-3502 -3494 -3498 3450 0
-3494 -3499 3450 0
-3502 -3494 -3499 3451 0
-3494 -3500 3451 0
-3502 -3494 -3500 0
-3495 -3498 3450 0
-3502 -3495 -3498 3451 0
-3495 -3499 3451 0
-3502 -3495 -3499 0
-3495 -3500 0
-3502 -3495 -3500 0
-3496 -3498 3451 0
-3502 -3496 -3498 0
-3496 -3499 0
-3502 -3496 -3499 0
-3496 -3500 0
-3502 -3496 -3500 0
-3506 3501 3507 0
-3504 3501 3507 0
-3504 -3506 3507 0
-3507 3498 0
-3505 3498 0
-3507 -3505 3499 0
-3503 3498 0
-3507 -3503 3499 0
-3503 -3505 3499 0
-3507 -3503 -3505 3500 0
-90 3506 3510 0
-3509 3506 3510 0
-3509 -90 3510 0
-3510 3505 0
-3508 3505 0
-3510 -3508 0
-89 3509 3511 0
-88 3509 3511 0
-88 -89 3511 0
-3511 3508 0
-87 3504 3514 0
-3513 3504 3514 0
-3513 -87 3514 0
-3514 3503 0
-3512 3503 0
-3514 -3512 0
-86 3513 3515 0
-85 3513 3515 0
-85 -86 3515 0
-3515 3512 0
-3520 3497 3521 0
-3518 3497 3521 0
-3518 -3520 3521 0
-3521 3494 0
-3519 3494 0
-3521 -3519 3495 0
-3516 3494 0
-3521 -3516 3495 0
-3517 3495 0
-3521 -3517 3496 0
-3516 -3519 3495 0
-3521 -3516 -3519 3496 0
-3517 -3519 3496 0
-3521 -3517 -3519 0
-84 3520 3524 0
-3523 3520 3524 0
-3523 -84 3524 0
-3524 3519 0
-3522 3519 0
-3524 -3522 0
-83 3523 3525 0
-82 3523 3525 0
-82 -83 3525 0
-3525 3522 0
-3529 3518 3530 0
-3527 3518 3530 0
-3527 -3529 3530 0
-3530 3516 0
-3528 3516 0
-3530 -3528 3517 0
-3526 3516 0
-3530 -3526 3517 0
-3526 -3528 3517 0
-3530 -3526 -3528 0
-81 3529 3531 0
-80 3529 3531 0
-80 -81 3531 0
-3531 3528 0
-79 3527 3532 0
-78 3527 3532 0
-78 -79 3532 0
-3532 3526 0
-3542 3441 3543 0
-3537 3441 3543 0
-3537 -3542 3543 0
-3543 3437 0
-3538 3437 0
-3543 -3538 3438 0
-3539 3438 0
-3543 -3539 3439 0
-3540 3439 0
-3543 -3540 3440 0
-3541 3440 0
-3543 -3541 0
-3533 3437 0
-3543 -3533 3438 0
-3534 3438 0
-3543 -3534 3439 0
-3535 3439 0
-3543 -3535 3440 0
-3536 3440 0
-3543 -3536 0
-3533 -3538 3438 0
-3543 -3533 -3538 3439 0
-3533 -3539 3439 0
-3543 -3533 -3539 3440 0
-3533 -3540 3440 0
-3543 -3533 -3540 0
-3533 -3541 0
-3543 -3533 -3541 0
-3534 -3538 3439 0
-3543 -3534 -3538 3440 0
-3534 -3539 3440 0
-3543 -3534 -3539 0
-3534 -3540 0
-3543 -3534 -3540 0
-3534 -3541 0
-3543 -3534 -3541 0
-3535 -3538 3440 0
-3543 -3535 -3538 0
-3535 -3539 0
-3543 -3535 -3539 0
-3535 -3540 0
-3543 -3535 -3540 0
-3535 -3541 0
-3543 -3535 -3541 0
-3536 -3538 0
-3543 -3536 -3538 0
-3536 -3539 0
-3543 -3536 -3539 0
-3536 -3540 0
-3543 -3536 -3540 0
-3536 -3541 0
-3543 -3536 -3541 0
-3551 3542 3552 0
-3547 3542 3552 0
-3547 -3551 3552 0
-3552 3538 0
-3548 3538 0
-3552 -3548 3539 0
-3549 3539 0
-3552 -3549 3540 0
-3550 3540 0
-3552 -3550 3541 0
-3544 3538 0
-3552 -3544 3539 0
-3545 3539 0
-3552 -3545 3540 0
-3546 3540 0
-3552 -3546 3541 0
-3544 -3548 3539 0
-3552 -3544 -3548 3540 0
-3544 -3549 3540 0
-3552 -3544 -3549 3541 0
-3544 -3550 3541 0
-3552 -3544 -3550 0
-3545 -3548 3540 0
-3552 -3545 -3548 3541 0
-3545 -3549 3541 0
-3552 -3545 -3549 0
-3545 -3550 0
-3552 -3545 -3550 0
-3546 -3548 3541 0
-3552 -3546 -3548 0
-3546 -3549 0
-3552 -3546 -3549 0
-3546 -3550 0
-3552 -3546 -3550 0
-3556 3551 3557 0
-3554 3551 3557 0
-3554 -3556 3557 0
-3557 3548 0
-3555 3548 0
-3557 -3555 3549 0
-3553 3548 0
-3557 -3553 3549 0
-3553 -3555 3549 0
-3557 -3553 -3555 3550 0
-77 3556 3560 0
-3559 3556 3560 0
-3559 -77 3560 0
-3560 3555 0
-3558 3555 0
-3560 -3558 0
-76 3559 3561 0
-75 3559 3561 0
-75 -76 3561 0
-3561 3558 0
-74 3554 3564 0
-3563 3554 3564 0
-3563 -74 3564 0
-3564 3553 0
-3562 3553 0
-3564 -3562 0
-73 3563 3565 0
-72 3563 3565 0
-72 -73 3565 0
-3565 3562 0
-3570 3547 3571 0
-3568 3547 3571 0
-3568 -3570 3571 0
-3571 3544 0
-3569 3544 0
-3571 -3569 3545 0
-3566 3544 0
-3571 -3566 3545 0
-3567 3545 0
-3571 -3567 3546 0
-3566 -3569 3545 0
-3571 -3566 -3569 3546 0
-3567 -3569 3546 0
-3571 -3567 -3569 0
-71 3570 3574 0
-3573 3570 3574 0
-3573 -71 3574 0
-3574 3569 0
-3572 3569 0
-3574 -3572 0
-70 3573 3575 0
-69 3573 3575 0
-69 -70 3575 0
-3575 3572 0
-3579 3568 3580 0
-3577 3568 3580 0
-3577 -3579 3580 0
-3580 3566 0
-3578 3566 0
-3580 -3578 3567 0
-3576 3566 0
-3580 -3576 3567 0
-3576 -3578 3567 0
-3580 -3576 -3578 0
-68 3579 3581 0
-67 3579 3581 0
-67 -68 3581 0
-3581 3578 0
-66 3577 3582 0
-65 3577 3582 0
-65 -66 3582 0
-3582 3576 0
-3590 3537 3591 0
-3586 3537 3591 0
-3586 -3590 3591 0
-3591 3533 0
-3587 3533 0
-3591 -3587 3534 0
-3588 3534 0
-3591 -3588 3535 0
-3589 3535 0
-3591 -3589 3536 0
-3583 3533 0
-3591 -3583 3534 0
-3584 3534 0
-3591 -3584 3535 0
-3585 3535 0
-3591 -3585 3536 0
-3583 -3587 3534 0
-3591 -3583 -3587 3535 0
-3583 -3588 3535 0
-3591 -3583 -3588 3536 0
-3583 -3589 3536 0
-3591 -3583 -3589 0
-3584 -3587 3535 0
-3591 -3584 -3587 3536 0
-3584 -3588 3536 0
-3591 -3584 -3588 0
-3584 -3589 0
-3591 -3584 -3589 0
-3585 -3587 3536 0
-3591 -3585 -3587 0
-3585 -3588 0
-3591 -3585 -3588 0
-3585 -3589 0
-3591 -3585 -3589 0
-3595 3590 3596 0
-3593 3590 3596 0
-3593 -3595 3596 0
-3596 3587 0
-3594 3587 0
-3596 -3594 3588 0
-3592 3587 0
-3596 -3592 3588 0
-3592 -3594 3588 0
-3596 -3592 -3594 3589 0
-64 3595 3599 0
-3598 3595 3599 0
-3598 -64 3599 0
-3599 3594 0
-3597 3594 0
-3599 -3597 0
-63 3598 3600 0
-62 3598 3600 0
-62 -63 3600 0
-3600 3597 0
-61 3593 3603 0
-3602 3593 3603 0
-3602 -61 3603 0
-3603 3592 0
-3601 3592 0
-3603 -3601 0
-60 3602 3604 0
-59 3602 3604 0
-59 -60 3604 0
-3604 3601 0
-3609 3586 3610 0
-3607 3586 3610 0
-3607 -3609 3610 0
-3610 3583 0
-3608 3583 0
-3610 -3608 3584 0
-3605 3583 0
-3610 -3605 3584 0
-3606 3584 0
-3610 -3606 3585 0
-3605 -3608 3584 0
-3610 -3605 -3608 3585 0
-3606 -3608 3585 0
-3610 -3606 -3608 0
-58 3609 3613 0
-3612 3609 3613 0
-3612 -58 3613 0
-3613 3608 0
-3611 3608 0
-3613 -3611 0
-57 3612 3614 0
-56 3612 3614 0
-56 -57 3614 0
-3614 3611 0
-3618 3607 3619 0
-3616 3607 3619 0
-3616 -3618 3619 0
-3619 3605 0
-3617 3605 0
-3619 -3617 3606 0
-3615 3605 0
-3619 -3615 3606 0
-3615 -3617 3606 0
-3619 -3615 -3617 0
-55 3618 3620 0
-54 3618 3620 0
-54 -55 3620 0
-3620 3617 0
-53 3616 3621 0
-52 3616 3621 0
-52 -53 3621 0
-3621 3615 0
-3631 3430 3632 0
-3626 3430 3632 0
-3626 -3631 3632 0
-3632 3426 0
-3627 3426 0
-3632 -3627 3427 0
-3628 3427 0
-3632 -3628 3428 0
-3629 3428 0
-3632 -3629 3429 0
-3630 3429 0
-3632 -3630 0
-3622 3426 0
-3632 -3622 3427 0
-3623 3427 0
-3632 -3623 3428 0
-3624 3428 0
-3632 -3624 3429 0
-3625 3429 0
-3632 -3625 0
-3622 -3627 3427 0
-3632 -3622 -3627 3428 0
-3622 -3628 3428 0
-3632 -3622 -3628 3429 0
-3622 -3629 3429 0
-3632 -3622 -3629 0
-3622 -3630 0
-3632 -3622 -3630 0
-3623 -3627 3428 0
-3632 -3623 -3627 3429 0
-3623 -3628 3429 0
-3632 -3623 -3628 0
-3623 -3629 0
-3632 -3623 -3629 0
-3623 -3630 0
-3632 -3623 -3630 0
-3624 -3627 3429 0
-3632 -3624 -3627 0
-3624 -3628 0
-3632 -3624 -3628 0
-3624 -3629 0
-3632 -3624 -3629 0
-3624 -3630 0
-3632 -3624 -3630 0
-3625 -3627 0
-3632 -3625 -3627 0
-3625 -3628 0
-3632 -3625 -3628 0
-3625 -3629 0
-3632 -3625 -3629 0
-3625 -3630 0
-3632 -3625 -3630 0
-3642 3631 3643 0
-3637 3631 3643 0
-3637 -3642 3643 0
-3643 3627 0
-3638 3627 0
-3643 -3638 3628 0
-3639 3628 0
-3643 -3639 3629 0
-3640 3629 0
-3643 -3640 3630 0
-3641 3630 0
-3643 -3641 0
-3633 3627 0
-3643 -3633 3628 0
-3634 3628 0
-3643 -3634 3629 0
-3635 3629 0
-3643 -3635 3630 0
-3636 3630 0
-3643 -3636 0
-3633 -3638 3628 0
-3643 -3633 -3638 3629 0
-3633 -3639 3629 0
-3643 -3633 -3639 3630 0
-3633 -3640 3630 0
-3643 -3633 -3640 0
-3633 -3641 0
-3643 -3633 -3641 0
-3634 -3638 3629 0
-3643 -3634 -3638 3630 0
-3634 -3639 3630 0
-3643 -3634 -3639 0
-3634 -3640 0
-3643 -3634 -3640 0
-3634 -3641 0
-3643 -3634 -3641 0
-3635 -3638 3630 0
-3643 -3635 -3638 0
-3635 -3639 0
-3643 -3635 -3639 0
-3635 -3640 0
-3643 -3635 -3640 0
-3635 -3641 0
-3643 -3635 -3641 0
-3636 -3638 0
-3643 -3636 -3638 0
-3636 -3639 0
-3643 -3636 -3639 0
-3636 -3640 0
-3643 -3636 -3640 0
-3636 -3641 0
-3643 -3636 -3641 0
-3651 3642 3652 0
-3647 3642 3652 0
-3647 -3651 3652 0
-3652 3638 0
-3648 3638 0
-3652 -3648 3639 0
-3649 3639 0
-3652 -3649 3640 0
-3650 3640 0
-3652 -3650 3641 0
-3644 3638 0
-3652 -3644 3639 0
-3645 3639 0
-3652 -3645 3640 0
-3646 3640 0
-3652 -3646 3641 0
-3644 -3648 3639 0
-3652 -3644 -3648 3640 0
-3644 -3649 3640 0
-3652 -3644 -3649 3641 0
-3644 -3650 3641 0
-3652 -3644 -3650 0
-3645 -3648 3640 0
-3652 -3645 -3648 3641 0
-3645 -3649 3641 0
-3652 -3645 -3649 0
-3645 -3650 0
-3652 -3645 -3650 0
-3646 -3648 3641 0
-3652 -3646 -3648 0
-3646 -3649 0
-3652 -3646 -3649 0
-3646 -3650 0
-3652 -3646 -3650 0
-3656 3651 3657 0
-3654 3651 3657 0
-3654 -3656 3657 0
-3657 3648 0
-3655 3648 0
-3657 -3655 3649 0
-3653 3648 0
-3657 -3653 3649 0
-3653 -3655 3649 0
-3657 -3653 -3655 3650 0
-51 3656 3660 0
-3659 3656 3660 0
-3659 -51 3660 0
-3660 3655 0
-3658 3655 0
-3660 -3658 0
-50 3659 3661 0
-49 3659 3661 0
-49 -50 3661 0
-3661 3658 0
-48 3654 3664 0
-3663 3654 3664 0
-3663 -48 3664 0
-3664 3653 0
-3662 3653 0
-3664 -3662 0
-47 3663 3665 0
-46 3663 3665 0
-46 -47 3665 0
-3665 3662 0
-3669 3647 3670 0
-3667 3647 3670 0
-3667 -3669 3670 0
-3670 3644 0
-3668 3644 0
-3670 -3668 3645 0
-3666 3644 0
-3670 -3666 3645 0
-3666 -3668 3645 0
-3670 -3666 -3668 3646 0
-45 3669 3673 0
-3672 3669 3673 0
-3672 -45 3673 0
-3673 3668 0
-3671 3668 0
-3673 -3671 0
-44 3672 3674 0
-43 3672 3674 0
-43 -44 3674 0
-3674 3671 0
-42 3667 3677 0
-3676 3667 3677 0
-3676 -42 3677 0
-3677 3666 0
-3675 3666 0
-3677 -3675 0
-41 3676 3678 0
-40 3676 3678 0
-40 -41 3678 0
-3678 3675 0
-3686 3637 3687 0
-3682 3637 3687 0
-3682 -3686 3687 0
-3687 3633 0
-3683 3633 0
-3687 -3683 3634 0
-3684 3634 0
-3687 -3684 3635 0
-3685 3635 0
-3687 -3685 3636 0
-3679 3633 0
-3687 -3679 3634 0
-3680 3634 0
-3687 -3680 3635 0
-3681 3635 0
-3687 -3681 3636 0
-3679 -3683 3634 0
-3687 -3679 -3683 3635 0
-3679 -3684 3635 0
-3687 -3679 -3684 3636 0
-3679 -3685 3636 0
-3687 -3679 -3685 0
-3680 -3683 3635 0
-3687 -3680 -3683 3636 0
-3680 -3684 3636 0
-3687 -3680 -3684 0
-3680 -3685 0
-3687 -3680 -3685 0
-3681 -3683 3636 0
-3687 -3681 -3683 0
-3681 -3684 0
-3687 -3681 -3684 0
-3681 -3685 0
-3687 -3681 -3685 0
-3691 3686 3692 0
-3689 3686 3692 0
-3689 -3691 3692 0
-3692 3683 0
-3690 3683 0
-3692 -3690 3684 0
-3688 3683 0
-3692 -3688 3684 0
-3688 -3690 3684 0
-3692 -3688 -3690 3685 0
-39 3691 3695 0
-3694 3691 3695 0
-3694 -39 3695 0
-3695 3690 0
-3693 3690 0
-3695 -3693 0
-38 3694 3696 0
-37 3694 3696 0
-37 -38 3696 0
-3696 3693 0
-36 3689 3699 0
-3698 3689 3699 0
-3698 -36 3699 0
-3699 3688 0
-3697 3688 0
-3699 -3697 0
-35 3698 3700 0
-34 3698 3700 0
-34 -35 3700 0
-3700 3697 0
-3705 3682 3706 0
-3703 3682 3706 0
-3703 -3705 3706 0
-3706 3679 0
-3704 3679 0
-3706 -3704 3680 0
-3701 3679 0
-3706 -3701 3680 0
-3702 3680 0
-3706 -3702 3681 0
-3701 -3704 3680 0
-3706 -3701 -3704 3681 0
-3702 -3704 3681 0
-3706 -3702 -3704 0
-33 3705 3709 0
-3708 3705 3709 0
-3708 -33 3709 0
-3709 3704 0
-3707 3704 0
-3709 -3707 0
-32 3708 3710 0
-31 3708 3710 0
-31 -32 3710 0
-3710 3707 0
-3714 3703 3715 0
-3712 3703 3715 0
-3712 -3714 3715 0
-3715 3701 0
-3713 3701 0
-3715 -3713 3702 0
-3711 3701 0
-3715 -3711 3702 0
-3711 -3713 3702 0
-3715 -3711 -3713 0
-30 3714 3716 0
-29 3714 3716 0
-29 -30 3716 0
-3716 3713 0
-28 3712 3717 0
-27 3712 3717 0
-27 -28 3717 0
-3717 3711 0
-3727 3626 3728 0
-3722 3626 3728 0
-3722 -3727 3728 0
-3728 3622 0
-3723 3622 0
-3728 -3723 3623 0
-3724 3623 0
-3728 -3724 3624 0
-3725 3624 0
-3728 -3725 3625 0
-3726 3625 0
-3728 -3726 0
-3718 3622 0
-3728 -3718 3623 0
-3719 3623 0
-3728 -3719 3624 0
-3720 3624 0
-3728 -3720 3625 0
-3721 3625 0
-3728 -3721 0
-3718 -3723 3623 0
-3728 -3718 -3723 3624 0
-3718 -3724 3624 0
-3728 -3718 -3724 3625 0
-3718 -3725 3625 0
-3728 -3718 -3725 0
-3718 -3726 0
-3728 -3718 -3726 0
-3719 -3723 3624 0
-3728 -3719 -3723 3625 0
-3719 -3724 3625 0
-3728 -3719 -3724 0
-3719 -3725 0
-3728 -3719 -3725 0
-3719 -3726 0
-3728 -3719 -3726 0
-3720 -3723 3625 0
-3728 -3720 -3723 0
-3720 -3724 0
-3728 -3720 -3724 0
-3720 -3725 0
-3728 -3720 -3725 0
-3720 -3726 0
-3728 -3720 -3726 0
-3721 -3723 0
-3728 -3721 -3723 0
-3721 -3724 0
-3728 -3721 -3724 0
-3721 -3725 0
-3728 -3721 -3725 0
-3721 -3726 0
-3728 -3721 -3726 0
-3736 3727 3737 0
-3732 3727 3737 0
-3732 -3736 3737 0
-3737 3723 0
-3733 3723 0
-3737 -3733 3724 0
-3734 3724 0
-3737 -3734 3725 0
-3735 3725 0
-3737 -3735 3726 0
-3729 3723 0
-3737 -3729 3724 0
-3730 3724 0
-3737 -3730 3725 0
-3731 3725 0
-3737 -3731 3726 0
-3729 -3733 3724 0
-3737 -3729 -3733 3725 0
-3729 -3734 3725 0
-3737 -3729 -3734 3726 0
-3729 -3735 3726 0
-3737 -3729 -3735 0
-3730 -3733 3725 0
-3737 -3730 -3733 3726 0
-3730 -3734 3726 0
-3737 -3730 -3734 0
-3730 -3735 0
-3737 -3730 -3735 0
-3731 -3733 3726 0
-3737 -3731 -3733 0
-3731 -3734 0
-3737 -3731 -3734 0
-3731 -3735 0
-3737 -3731 -3735 0
-3741 3736 3742 0
-3739 3736 3742 0
-3739 -3741 3742 0
-3742 3733 0
-3740 3733 0
-3742 -3740 3734 0
-3738 3733 0
-3742 -3738 3734 0
-3738 -3740 3734 0
-3742 -3738 -3740 3735 0
-26 3741 3745 0
-3744 3741 3745 0
-3744 -26 3745 0
-3745 3740 0
-3743 3740 0
-3745 -3743 0
-25 3744 3746 0
-24 3744 3746 0
-24 -25 3746 0
-3746 3743 0
-23 3739 3749 0
-3748 3739 3749 0
-3748 -23 3749 0
-3749 3738 0
-3747 3738 0
-3749 -3747 0
-22 3748 3750 0
-21 3748 3750 0
-21 -22 3750 0
-3750 3747 0
-3755 3732 3756 0
-3753 3732 3756 0
-3753 -3755 3756 0
-3756 3729 0
-3754 3729 0
-3756 -3754 3730 0
-3751 3729 0
-3756 -3751 3730 0
-3752 3730 0
-3756 -3752 3731 0
-3751 -3754 3730 0
-3756 -3751 -3754 3731 0
-3752 -3754 3731 0
-3756 -3752 -3754 0
-20 3755 3759 0
-3758 3755 3759 0
-3758 -20 3759 0
-3759 3754 0
-3757 3754 0
-3759 -3757 0
-19 3758 3760 0
-18 3758 3760 0
-18 -19 3760 0
-3760 3757 0
-3764 3753 3765 0
-3762 3753 3765 0
-3762 -3764 3765 0
-3765 3751 0
-3763 3751 0
-3765 -3763 3752 0
-3761 3751 0
-3765 -3761 3752 0
-3761 -3763 3752 0
-3765 -3761 -3763 0
-17 3764 3766 0
-16 3764 3766 0
-16 -17 3766 0
-3766 3763 0
-15 3762 3767 0
-14 3762 3767 0
-14 -15 3767 0
-3767 3761 0
-3775 3722 3776 0
-3771 3722 3776 0
-3771 -3775 3776 0
-3776 3718 0
-3772 3718 0
-3776 -3772 3719 0
-3773 3719 0
-3776 -3773 3720 0
-3774 3720 0
-3776 -3774 3721 0
-3768 3718 0
-3776 -3768 3719 0
-3769 3719 0
-3776 -3769 3720 0
-3770 3720 0
-3776 -3770 3721 0
-3768 -3772 3719 0
-3776 -3768 -3772 3720 0
-3768 -3773 3720 0
-3776 -3768 -3773 3721 0
-3768 -3774 3721 0
-3776 -3768 -3774 0
-3769 -3772 3720 0
-3776 -3769 -3772 3721 0
-3769 -3773 3721 0
-3776 -3769 -3773 0
-3769 -3774 0
-3776 -3769 -3774 0
-3770 -3772 3721 0
-3776 -3770 -3772 0
-3770 -3773 0
-3776 -3770 -3773 0
-3770 -3774 0
-3776 -3770 -3774 0
-3780 3775 3781 0
-3778 3775 3781 0
-3778 -3780 3781 0
-3781 3772 0
-3779 3772 0
-3781 -3779 3773 0
-3777 3772 0
-3781 -3777 3773 0
-3777 -3779 3773 0
-3781 -3777 -3779 3774 0
-13 3780 3784 0
-3783 3780 3784 0
-3783 -13 3784 0
-3784 3779 0
-3782 3779 0
-3784 -3782 0
-12 3783 3785 0
-11 3783 3785 0
-11 -12 3785 0
-3785 3782 0
-10 3778 3788 0
-3787 3778 3788 0
-3787 -10 3788 0
-3788 3777 0
-3786 3777 0
-3788 -3786 0
-9 3787 3789 0
-8 3787 3789 0
-8 -9 3789 0
-3789 3786 0
-3794 3771 3795 0
-3792 3771 3795 0
-3792 -3794 3795 0
-3795 3768 0
-3793 3768 0
-3795 -3793 3769 0
-3790 3768 0
-3795 -3790 3769 0
-3791 3769 0
-3795 -3791 3770 0
-3790 -3793 3769 0
-3795 -3790 -3793 3770 0
-3791 -3793 3770 0
-3795 -3791 -3793 0
-7 3794 3798 0
-3797 3794 3798 0
-3797 -7 3798 0
-3798 3793 0
-3796 3793 0
-3798 -3796 0
-6 3797 3799 0
-5 3797 3799 0
-5 -6 3799 0
-3799 3796 0
-3803 3792 3804 0
-3801 3792 3804 0
-3801 -3803 3804 0
-3804 3790 0
-3802 3790 0
-3804 -3802 3791 0
-3800 3790 0
-3804 -3800 3791 0
-3800 -3802 3791 0
-3804 -3800 -3802 0
-4 3803 3805 0
-3 3803 3805 0
-3 -4 3805 0
-3805 3802 0
-2 3801 3806 0
-1 3801 3806 0
-1 -2 3806 0
-3806 3800 0
-2248 -2249 0
